NAME : XML1000_2244_53
COMMENT : Generated as the XML100 dataset from the CVRPLIB
TYPE : CVRP
DIMENSION : 1001
EDGE_WEIGHT_TYPE : EUC_2D
CAPACITY : 730
NODE_COORD_SECTION
1    500  500 
2    626  431 
3    144  907 
4    590  737 
5    522  868 
6    492  440 
7    81   878 
8    322  941 
9    59   738 
10   554  424 
11   762  44  
12   101  954 
13   460  902 
14   91   919 
15   48   719 
16   106  651 
17   29   715 
18   33   676 
19   701  52  
20   608  489 
21   409  954 
22   427  486 
23   608  269 
24   695  148 
25   640  212 
26   47   839 
27   658  337 
28   553  55  
29   153  857 
30   449  343 
31   101  819 
32   353  793 
33   116  966 
34   261  966 
35   572  599 
36   48   831 
37   489  830 
38   394  821 
39   85   978 
40   542  418 
41   146  854 
42   33   797 
43   32   743 
44   482  525 
45   519  443 
46   78   957 
47   181  942 
48   461  847 
49   546  317 
50   153  969 
51   510  471 
52   127  831 
53   426  499 
54   573  14  
55   28   727 
56   606  48  
57   662  110 
58   444  287 
59   15   766 
60   545  855 
61   548  753 
62   146  957 
63   617  462 
64   487  850 
65   438  329 
66   83   946 
67   683  178 
68   253  930 
69   577  496 
70   219  937 
71   395  376 
72   580  687 
73   405  844 
74   24   716 
75   611  18  
76   546  703 
77   27   623 
78   621  50  
79   727  68  
80   617  574 
81   774  390 
82   113  910 
83   21   836 
84   543  405 
85   13   981 
86   33   810 
87   528  743 
88   66   996 
89   86   974 
90   226  707 
91   625  47  
92   61   481 
93   547  393 
94   537  837 
95   345  914 
96   380  792 
97   84   641 
98   571  85  
99   435  798 
100  558  887 
101  553  454 
102  454  439 
103  479  761 
104  599  12  
105  510  349 
106  660  126 
107  437  764 
108  408  966 
109  38   637 
110  569  416 
111  20   750 
112  6    815 
113  508  415 
114  176  607 
115  105  803 
116  660  638 
117  580  538 
118  88   750 
119  181  941 
120  824  4   
121  433  775 
122  445  740 
123  406  394 
124  36   959 
125  208  913 
126  20   853 
127  131  940 
128  414  115 
129  712  19  
130  142  986 
131  689  292 
132  588  389 
133  575  41  
134  562  260 
135  59   790 
136  673  338 
137  567  186 
138  646  101 
139  660  274 
140  568  438 
141  70   808 
142  584  126 
143  531  776 
144  195  979 
145  488  814 
146  693  51  
147  347  875 
148  617  43  
149  445  852 
150  93   711 
151  16   864 
152  437  759 
153  531  385 
154  84   739 
155  567  51  
156  591  408 
157  73   571 
158  629  798 
159  650  76  
160  640  53  
161  145  596 
162  601  309 
163  571  457 
164  512  798 
165  650  85  
166  544  830 
167  13   724 
168  0    614 
169  213  987 
170  36   936 
171  546  549 
172  9    708 
173  434  982 
174  15   742 
175  414  348 
176  26   760 
177  486  763 
178  863  332 
179  509  338 
180  357  878 
181  92   980 
182  580  389 
183  615  90  
184  218  930 
185  739  144 
186  580  407 
187  92   580 
188  402  638 
189  285  867 
190  508  378 
191  59   650 
192  92   836 
193  59   659 
194  367  775 
195  255  970 
196  55   917 
197  492  397 
198  426  461 
199  488  18  
200  289  873 
201  527  18  
202  605  194 
203  46   734 
204  152  715 
205  564  22  
206  48   923 
207  541  447 
208  90   749 
209  352  758 
210  518  818 
211  472  851 
212  19   707 
213  125  725 
214  453  828 
215  520  360 
216  488  804 
217  83   737 
218  734  42  
219  582  820 
220  480  800 
221  560  164 
222  168  933 
223  480  809 
224  38   842 
225  62   970 
226  674  18  
227  527  395 
228  514  551 
229  649  92  
230  53   732 
231  105  779 
232  560  438 
233  727  48  
234  388  820 
235  626  383 
236  635  450 
237  462  778 
238  419  807 
239  480  674 
240  8    855 
241  239  858 
242  523  388 
243  410  331 
244  514  416 
245  536  565 
246  454  374 
247  554  232 
248  111  965 
249  475  851 
250  677  806 
251  135  913 
252  524  209 
253  611  604 
254  546  395 
255  709  520 
256  561  356 
257  557  404 
258  798  40  
259  496  385 
260  428  757 
261  140  857 
262  34   885 
263  589  720 
264  620  33  
265  558  49  
266  609  698 
267  560  406 
268  366  702 
269  649  78  
270  574  313 
271  126  702 
272  52   762 
273  703  67  
274  178  987 
275  152  858 
276  33   767 
277  443  751 
278  551  46  
279  540  436 
280  655  423 
281  474  73  
282  16   943 
283  153  939 
284  420  776 
285  525  829 
286  498  448 
287  129  740 
288  472  823 
289  194  949 
290  75   629 
291  483  832 
292  491  418 
293  639  15  
294  416  751 
295  575  30  
296  573  60  
297  650  182 
298  445  805 
299  44   888 
300  113  997 
301  546  390 
302  102  969 
303  466  608 
304  545  7   
305  348  881 
306  533  289 
307  588  463 
308  166  990 
309  566  48  
310  572  375 
311  701  358 
312  451  741 
313  466  464 
314  44   753 
315  567  40  
316  461  367 
317  610  356 
318  270  836 
319  403  444 
320  559  54  
321  564  398 
322  131  888 
323  643  44  
324  80   684 
325  448  851 
326  601  136 
327  104  898 
328  551  315 
329  704  557 
330  152  718 
331  151  991 
332  537  389 
333  28   759 
334  557  367 
335  487  815 
336  436  742 
337  117  626 
338  551  162 
339  232  674 
340  391  856 
341  535  74  
342  485  482 
343  256  631 
344  475  279 
345  16   668 
346  48   611 
347  570  269 
348  630  320 
349  146  625 
350  410  51  
351  171  709 
352  39   800 
353  22   729 
354  544  378 
355  451  763 
356  534  361 
357  543  855 
358  55   744 
359  424  745 
360  436  710 
361  432  758 
362  584  78  
363  568  866 
364  616  21  
365  699  37  
366  546  371 
367  573  59  
368  362  788 
369  533  499 
370  620  0   
371  328  804 
372  72   689 
373  623  145 
374  105  723 
375  578  430 
376  84   700 
377  661  446 
378  55   865 
379  545  491 
380  187  783 
381  143  987 
382  575  352 
383  10   723 
384  36   632 
385  528  429 
386  601  23  
387  477  365 
388  56   708 
389  34   708 
390  477  374 
391  205  944 
392  618  359 
393  128  971 
394  320  656 
395  610  355 
396  368  980 
397  650  293 
398  475  786 
399  489  214 
400  567  115 
401  460  416 
402  509  946 
403  61   908 
404  474  323 
405  600  310 
406  534  374 
407  477  230 
408  440  846 
409  179  900 
410  53   824 
411  448  441 
412  56   820 
413  621  360 
414  465  521 
415  40   732 
416  439  487 
417  543  953 
418  649  31  
419  475  13  
420  614  357 
421  587  65  
422  21   755 
423  566  280 
424  80   804 
425  398  714 
426  94   977 
427  170  945 
428  163  668 
429  131  599 
430  410  441 
431  748  37  
432  510  385 
433  338  291 
434  615  401 
435  127  992 
436  603  445 
437  452  523 
438  10   983 
439  631  37  
440  419  773 
441  21   611 
442  487  746 
443  409  845 
444  551  520 
445  70   732 
446  427  862 
447  501  848 
448  468  760 
449  739  82  
450  70   979 
451  110  926 
452  546  343 
453  64   828 
454  567  384 
455  179  913 
456  31   889 
457  455  817 
458  586  406 
459  599  425 
460  188  900 
461  421  446 
462  708  341 
463  464  893 
464  480  343 
465  545  463 
466  426  381 
467  325  716 
468  118  893 
469  694  204 
470  608  528 
471  724  65  
472  93   738 
473  470  69  
474  587  87  
475  19   798 
476  302  741 
477  343  212 
478  117  952 
479  654  15  
480  552  385 
481  60   826 
482  422  532 
483  578  105 
484  336  590 
485  331  911 
486  390  808 
487  558  383 
488  234  588 
489  415  901 
490  737  296 
491  371  813 
492  538  325 
493  561  61  
494  188  868 
495  17   739 
496  556  230 
497  383  787 
498  455  803 
499  391  818 
500  21   718 
501  524  426 
502  459  544 
503  571  358 
504  21   727 
505  576  464 
506  558  10  
507  53   661 
508  17   595 
509  189  701 
510  588  29  
511  2    704 
512  351  858 
513  571  861 
514  58   614 
515  501  555 
516  82   840 
517  32   732 
518  620  88  
519  498  391 
520  35   728 
521  554  390 
522  343  890 
523  41   808 
524  9    874 
525  920  120 
526  589  366 
527  419  363 
528  47   720 
529  482  132 
530  496  314 
531  804  430 
532  34   805 
533  465  735 
534  483  631 
535  103  648 
536  505  390 
537  677  106 
538  548  95  
539  653  386 
540  183  775 
541  536  377 
542  542  308 
543  13   849 
544  464  892 
545  524  906 
546  553  48  
547  786  21  
548  493  43  
549  522  79  
550  495  223 
551  611  416 
552  390  695 
553  213  910 
554  193  806 
555  471  769 
556  384  621 
557  428  807 
558  399  255 
559  522  344 
560  634  18  
561  22   933 
562  801  15  
563  120  956 
564  361  655 
565  424  702 
566  496  53  
567  556  858 
568  70   955 
569  499  714 
570  171  531 
571  668  16  
572  481  827 
573  487  758 
574  585  9   
575  607  814 
576  462  823 
577  0    887 
578  426  748 
579  547  391 
580  383  777 
581  644  67  
582  674  166 
583  713  423 
584  7    764 
585  358  622 
586  457  317 
587  69   986 
588  481  674 
589  697  564 
590  536  381 
591  660  286 
592  607  5   
593  597  477 
594  224  649 
595  27   760 
596  650  3   
597  587  292 
598  459  372 
599  587  63  
600  55   858 
601  584  403 
602  528  880 
603  434  873 
604  456  784 
605  527  399 
606  397  833 
607  763  127 
608  515  25  
609  479  377 
610  56   939 
611  605  373 
612  32   740 
613  256  457 
614  515  43  
615  106  778 
616  584  21  
617  96   752 
618  150  961 
619  649  379 
620  505  115 
621  558  359 
622  592  510 
623  99   986 
624  438  452 
625  636  607 
626  556  435 
627  593  246 
628  47   948 
629  451  818 
630  649  388 
631  511  445 
632  503  828 
633  140  776 
634  567  364 
635  563  739 
636  490  251 
637  516  389 
638  449  726 
639  583  61  
640  447  793 
641  646  99  
642  40   954 
643  425  765 
644  75   921 
645  98   797 
646  559  198 
647  187  744 
648  35   866 
649  581  393 
650  502  737 
651  157  721 
652  467  389 
653  354  759 
654  391  897 
655  395  867 
656  426  882 
657  16   718 
658  446  442 
659  271  828 
660  689  447 
661  521  710 
662  510  710 
663  443  809 
664  358  594 
665  572  38  
666  506  819 
667  648  18  
668  33   654 
669  312  734 
670  571  329 
671  534  429 
672  69   747 
673  7    763 
674  434  351 
675  27   741 
676  603  370 
677  463  396 
678  635  350 
679  450  48  
680  569  377 
681  425  778 
682  40   778 
683  636  49  
684  385  803 
685  561  382 
686  405  818 
687  411  852 
688  458  793 
689  294  712 
690  41   770 
691  508  394 
692  580  270 
693  589  99  
694  32   721 
695  587  129 
696  264  680 
697  462  790 
698  14   752 
699  164  858 
700  379  783 
701  727  316 
702  183  719 
703  75   628 
704  217  959 
705  192  786 
706  523  400 
707  118  998 
708  20   841 
709  647  454 
710  474  764 
711  660  6   
712  224  598 
713  111  968 
714  420  811 
715  144  727 
716  522  450 
717  453  341 
718  202  997 
719  639  50  
720  461  928 
721  569  363 
722  601  432 
723  617  31  
724  118  863 
725  32   671 
726  279  817 
727  44   923 
728  192  669 
729  49   858 
730  164  997 
731  433  713 
732  315  748 
733  23   994 
734  535  379 
735  127  804 
736  0    849 
737  336  807 
738  571  45  
739  76   740 
740  666  26  
741  519  263 
742  78   777 
743  513  40  
744  322  509 
745  557  375 
746  514  441 
747  494  862 
748  30   718 
749  89   804 
750  413  794 
751  194  579 
752  496  810 
753  434  826 
754  214  795 
755  436  768 
756  625  146 
757  5    819 
758  19   992 
759  138  949 
760  474  251 
761  124  785 
762  95   987 
763  571  13  
764  119  688 
765  62   819 
766  224  979 
767  508  658 
768  481  793 
769  46   722 
770  76   973 
771  388  849 
772  394  654 
773  520  74  
774  656  93  
775  77   965 
776  543  472 
777  405  758 
778  562  714 
779  575  28  
780  105  893 
781  24   810 
782  4    850 
783  559  834 
784  589  695 
785  180  676 
786  542  345 
787  671  1   
788  429  59  
789  499  810 
790  465  817 
791  400  935 
792  13   913 
793  349  871 
794  611  453 
795  10   749 
796  80   835 
797  768  28  
798  379  741 
799  179  576 
800  461  792 
801  595  127 
802  706  62  
803  604  203 
804  87   987 
805  19   843 
806  415  416 
807  393  761 
808  441  810 
809  646  47  
810  512  861 
811  604  468 
812  117  597 
813  666  34  
814  422  815 
815  646  65  
816  413  757 
817  454  380 
818  115  914 
819  131  931 
820  611  345 
821  177  480 
822  189  872 
823  350  826 
824  561  97  
825  781  604 
826  359  893 
827  487  813 
828  617  7   
829  88   826 
830  578  415 
831  610  484 
832  566  32  
833  564  526 
834  496  382 
835  252  659 
836  547  464 
837  463  870 
838  595  751 
839  642  454 
840  301  817 
841  561  618 
842  447  871 
843  583  377 
844  485  745 
845  534  521 
846  332  804 
847  105  1000
848  260  388 
849  688  417 
850  634  315 
851  77   937 
852  483  411 
853  179  921 
854  422  837 
855  382  764 
856  426  798 
857  84   680 
858  461  261 
859  63   993 
860  68   833 
861  467  817 
862  507  386 
863  370  637 
864  582  398 
865  610  753 
866  771  343 
867  74   742 
868  556  126 
869  642  40  
870  640  259 
871  527  202 
872  434  905 
873  582  663 
874  556  373 
875  96   946 
876  627  662 
877  855  13  
878  353  431 
879  452  553 
880  71   880 
881  89   739 
882  489  877 
883  79   704 
884  318  986 
885  592  295 
886  556  400 
887  142  751 
888  115  648 
889  133  931 
890  67   995 
891  36   751 
892  467  718 
893  468  772 
894  512  869 
895  440  435 
896  435  756 
897  601  389 
898  412  373 
899  110  956 
900  672  449 
901  76   814 
902  102  952 
903  531  330 
904  45   854 
905  593  314 
906  538  854 
907  77   797 
908  717  191 
909  548  382 
910  639  766 
911  692  265 
912  469  763 
913  586  27  
914  588  473 
915  568  77  
916  642  26  
917  525  106 
918  169  907 
919  570  28  
920  128  735 
921  12   780 
922  628  118 
923  482  729 
924  170  988 
925  120  969 
926  378  599 
927  518  759 
928  134  904 
929  84   796 
930  3    722 
931  398  815 
932  478  823 
933  624  4   
934  241  877 
935  90   955 
936  610  869 
937  450  462 
938  348  832 
939  434  783 
940  345  934 
941  136  851 
942  60   712 
943  580  199 
944  44   704 
945  555  35  
946  619  428 
947  135  971 
948  119  627 
949  52   964 
950  199  745 
951  591  366 
952  159  956 
953  127  985 
954  154  850 
955  565  811 
956  485  321 
957  32   744 
958  91   830 
959  584  681 
960  543  829 
961  14   717 
962  469  614 
963  771  180 
964  589  805 
965  599  324 
966  380  295 
967  478  34  
968  97   989 
969  476  775 
970  585  929 
971  351  762 
972  516  820 
973  496  97  
974  487  366 
975  42   928 
976  806  241 
977  69   756 
978  589  5   
979  103  907 
980  471  269 
981  600  163 
982  40   738 
983  267  866 
984  485  33  
985  673  394 
986  459  798 
987  388  756 
988  310  818 
989  527  587 
990  510  364 
991  108  720 
992  82   820 
993  373  776 
994  111  865 
995  561  418 
996  407  787 
997  622  56  
998  136  958 
999  670  105 
1000 471  381 
1001 96   751 
DEMAND_SECTION
1    0   
2    50  
3    4   
4    87  
5    18  
6    40  
7    55  
8    89  
9    90  
10   86  
11   43  
12   35  
13   45  
14   65  
15   15  
16   3   
17   25  
18   33  
19   73  
20   51  
21   73  
22   97  
23   5   
24   36  
25   5   
26   10  
27   27  
28   77  
29   24  
30   75  
31   81  
32   56  
33   11  
34   74  
35   48  
36   6   
37   6   
38   47  
39   96  
40   57  
41   16  
42   20  
43   84  
44   93  
45   80  
46   14  
47   4   
48   55  
49   59  
50   87  
51   45  
52   38  
53   76  
54   81  
55   41  
56   18  
57   59  
58   54  
59   36  
60   74  
61   34  
62   14  
63   39  
64   42  
65   46  
66   28  
67   50  
68   13  
69   70  
70   71  
71   85  
72   11  
73   94  
74   75  
75   8   
76   40  
77   86  
78   12  
79   77  
80   45  
81   89  
82   60  
83   89  
84   80  
85   74  
86   11  
87   97  
88   38  
89   19  
90   73  
91   64  
92   4   
93   42  
94   58  
95   62  
96   18  
97   42  
98   76  
99   40  
100  13  
101  50  
102  90  
103  1   
104  66  
105  21  
106  17  
107  75  
108  89  
109  1   
110  75  
111  66  
112  75  
113  3   
114  89  
115  31  
116  79  
117  35  
118  30  
119  100 
120  60  
121  45  
122  94  
123  96  
124  94  
125  93  
126  72  
127  67  
128  62  
129  71  
130  60  
131  90  
132  36  
133  62  
134  84  
135  8   
136  62  
137  75  
138  65  
139  45  
140  74  
141  36  
142  89  
143  58  
144  31  
145  92  
146  26  
147  58  
148  16  
149  89  
150  28  
151  65  
152  95  
153  96  
154  27  
155  80  
156  61  
157  22  
158  99  
159  52  
160  93  
161  5   
162  28  
163  19  
164  100 
165  61  
166  34  
167  1   
168  88  
169  93  
170  96  
171  3   
172  63  
173  2   
174  25  
175  29  
176  68  
177  91  
178  49  
179  57  
180  37  
181  50  
182  38  
183  77  
184  23  
185  46  
186  76  
187  21  
188  6   
189  22  
190  47  
191  61  
192  72  
193  41  
194  19  
195  6   
196  46  
197  76  
198  57  
199  71  
200  5   
201  54  
202  67  
203  13  
204  69  
205  63  
206  37  
207  6   
208  100 
209  33  
210  60  
211  70  
212  81  
213  63  
214  87  
215  95  
216  79  
217  83  
218  95  
219  52  
220  4   
221  90  
222  42  
223  54  
224  64  
225  28  
226  16  
227  7   
228  21  
229  90  
230  50  
231  82  
232  17  
233  57  
234  95  
235  7   
236  84  
237  53  
238  36  
239  34  
240  29  
241  96  
242  92  
243  59  
244  99  
245  56  
246  77  
247  61  
248  38  
249  40  
250  93  
251  36  
252  61  
253  43  
254  39  
255  86  
256  8   
257  96  
258  34  
259  36  
260  100 
261  13  
262  38  
263  2   
264  67  
265  19  
266  63  
267  99  
268  80  
269  40  
270  98  
271  12  
272  35  
273  20  
274  22  
275  58  
276  82  
277  93  
278  65  
279  57  
280  2   
281  97  
282  2   
283  74  
284  4   
285  20  
286  63  
287  4   
288  97  
289  29  
290  46  
291  83  
292  32  
293  14  
294  58  
295  93  
296  26  
297  27  
298  65  
299  4   
300  36  
301  85  
302  46  
303  57  
304  66  
305  99  
306  82  
307  37  
308  84  
309  29  
310  25  
311  31  
312  33  
313  83  
314  56  
315  82  
316  73  
317  52  
318  24  
319  42  
320  62  
321  90  
322  96  
323  44  
324  5   
325  14  
326  34  
327  32  
328  25  
329  8   
330  45  
331  39  
332  42  
333  73  
334  56  
335  26  
336  44  
337  23  
338  13  
339  52  
340  12  
341  88  
342  90  
343  14  
344  93  
345  94  
346  8   
347  6   
348  42  
349  77  
350  39  
351  51  
352  11  
353  67  
354  57  
355  1   
356  88  
357  48  
358  80  
359  64  
360  78  
361  51  
362  45  
363  76  
364  14  
365  20  
366  36  
367  82  
368  54  
369  60  
370  38  
371  58  
372  49  
373  48  
374  71  
375  62  
376  40  
377  86  
378  86  
379  50  
380  65  
381  42  
382  25  
383  63  
384  75  
385  30  
386  87  
387  50  
388  61  
389  45  
390  20  
391  27  
392  2   
393  90  
394  21  
395  43  
396  63  
397  77  
398  10  
399  45  
400  75  
401  45  
402  47  
403  87  
404  1   
405  41  
406  10  
407  55  
408  27  
409  18  
410  66  
411  99  
412  96  
413  37  
414  4   
415  42  
416  100 
417  3   
418  93  
419  48  
420  22  
421  51  
422  71  
423  34  
424  99  
425  60  
426  97  
427  72  
428  69  
429  63  
430  98  
431  13  
432  27  
433  20  
434  95  
435  93  
436  30  
437  88  
438  87  
439  58  
440  1   
441  2   
442  2   
443  37  
444  14  
445  22  
446  22  
447  44  
448  48  
449  76  
450  93  
451  62  
452  16  
453  28  
454  66  
455  82  
456  88  
457  73  
458  7   
459  35  
460  84  
461  7   
462  52  
463  50  
464  77  
465  62  
466  54  
467  55  
468  43  
469  25  
470  30  
471  15  
472  74  
473  40  
474  3   
475  37  
476  27  
477  61  
478  59  
479  97  
480  50  
481  21  
482  83  
483  79  
484  52  
485  73  
486  73  
487  39  
488  83  
489  32  
490  79  
491  89  
492  18  
493  93  
494  90  
495  99  
496  19  
497  27  
498  36  
499  85  
500  31  
501  90  
502  88  
503  59  
504  71  
505  10  
506  66  
507  84  
508  30  
509  96  
510  77  
511  75  
512  65  
513  99  
514  76  
515  2   
516  54  
517  71  
518  45  
519  69  
520  100 
521  54  
522  16  
523  51  
524  12  
525  77  
526  35  
527  56  
528  8   
529  57  
530  88  
531  44  
532  42  
533  5   
534  66  
535  44  
536  80  
537  19  
538  77  
539  62  
540  15  
541  71  
542  45  
543  95  
544  9   
545  98  
546  100 
547  19  
548  92  
549  48  
550  15  
551  1   
552  44  
553  97  
554  37  
555  26  
556  32  
557  41  
558  42  
559  43  
560  85  
561  71  
562  3   
563  97  
564  20  
565  11  
566  71  
567  72  
568  40  
569  9   
570  3   
571  100 
572  86  
573  36  
574  52  
575  47  
576  35  
577  38  
578  63  
579  96  
580  80  
581  13  
582  76  
583  94  
584  25  
585  84  
586  37  
587  48  
588  48  
589  14  
590  45  
591  45  
592  3   
593  100 
594  7   
595  90  
596  59  
597  8   
598  46  
599  90  
600  53  
601  45  
602  61  
603  95  
604  49  
605  69  
606  3   
607  22  
608  100 
609  65  
610  69  
611  19  
612  77  
613  58  
614  29  
615  93  
616  85  
617  27  
618  95  
619  87  
620  88  
621  29  
622  13  
623  96  
624  38  
625  48  
626  30  
627  65  
628  43  
629  11  
630  84  
631  7   
632  47  
633  54  
634  44  
635  94  
636  49  
637  70  
638  16  
639  34  
640  83  
641  98  
642  74  
643  41  
644  6   
645  6   
646  45  
647  56  
648  55  
649  11  
650  67  
651  59  
652  22  
653  56  
654  13  
655  87  
656  4   
657  90  
658  84  
659  16  
660  81  
661  99  
662  62  
663  22  
664  42  
665  38  
666  95  
667  57  
668  62  
669  56  
670  89  
671  53  
672  38  
673  17  
674  32  
675  53  
676  10  
677  87  
678  9   
679  15  
680  73  
681  72  
682  23  
683  49  
684  86  
685  83  
686  75  
687  56  
688  49  
689  58  
690  69  
691  18  
692  21  
693  61  
694  95  
695  91  
696  27  
697  86  
698  99  
699  13  
700  22  
701  7   
702  75  
703  89  
704  59  
705  93  
706  61  
707  52  
708  2   
709  96  
710  73  
711  59  
712  92  
713  66  
714  60  
715  42  
716  69  
717  52  
718  4   
719  48  
720  53  
721  61  
722  37  
723  15  
724  91  
725  28  
726  8   
727  100 
728  95  
729  35  
730  31  
731  64  
732  15  
733  7   
734  65  
735  87  
736  65  
737  97  
738  1   
739  78  
740  84  
741  49  
742  36  
743  3   
744  41  
745  82  
746  78  
747  83  
748  22  
749  4   
750  75  
751  84  
752  44  
753  51  
754  23  
755  31  
756  50  
757  84  
758  86  
759  59  
760  56  
761  77  
762  74  
763  67  
764  63  
765  89  
766  53  
767  69  
768  38  
769  37  
770  49  
771  57  
772  45  
773  11  
774  78  
775  68  
776  2   
777  27  
778  47  
779  26  
780  14  
781  7   
782  58  
783  29  
784  61  
785  34  
786  24  
787  64  
788  58  
789  62  
790  48  
791  78  
792  15  
793  41  
794  23  
795  62  
796  29  
797  25  
798  62  
799  79  
800  79  
801  46  
802  53  
803  68  
804  39  
805  68  
806  28  
807  84  
808  61  
809  63  
810  47  
811  13  
812  41  
813  15  
814  41  
815  62  
816  9   
817  27  
818  38  
819  30  
820  66  
821  36  
822  65  
823  63  
824  13  
825  39  
826  5   
827  10  
828  29  
829  84  
830  39  
831  90  
832  29  
833  70  
834  48  
835  26  
836  96  
837  27  
838  47  
839  81  
840  40  
841  68  
842  15  
843  49  
844  82  
845  12  
846  94  
847  87  
848  5   
849  97  
850  16  
851  81  
852  44  
853  90  
854  76  
855  67  
856  94  
857  73  
858  7   
859  98  
860  84  
861  15  
862  16  
863  40  
864  16  
865  75  
866  80  
867  92  
868  28  
869  62  
870  12  
871  54  
872  35  
873  58  
874  41  
875  18  
876  33  
877  10  
878  19  
879  15  
880  27  
881  91  
882  82  
883  38  
884  48  
885  64  
886  10  
887  34  
888  10  
889  80  
890  86  
891  62  
892  75  
893  3   
894  64  
895  60  
896  31  
897  13  
898  88  
899  97  
900  81  
901  67  
902  38  
903  46  
904  8   
905  28  
906  20  
907  36  
908  74  
909  29  
910  93  
911  97  
912  8   
913  59  
914  96  
915  47  
916  11  
917  88  
918  21  
919  36  
920  89  
921  61  
922  14  
923  84  
924  36  
925  40  
926  74  
927  73  
928  14  
929  16  
930  59  
931  26  
932  30  
933  77  
934  65  
935  3   
936  65  
937  69  
938  30  
939  64  
940  6   
941  4   
942  45  
943  75  
944  9   
945  69  
946  6   
947  62  
948  37  
949  52  
950  90  
951  94  
952  12  
953  88  
954  53  
955  8   
956  72  
957  39  
958  94  
959  81  
960  35  
961  18  
962  10  
963  8   
964  15  
965  7   
966  66  
967  69  
968  4   
969  97  
970  80  
971  69  
972  98  
973  96  
974  71  
975  60  
976  13  
977  3   
978  13  
979  70  
980  49  
981  28  
982  21  
983  73  
984  74  
985  69  
986  27  
987  71  
988  44  
989  35  
990  98  
991  56  
992  4   
993  81  
994  48  
995  65  
996  18  
997  93  
998  13  
999  36  
1000 72  
1001 2   
DEPOT_SECTION
1
-1
EOF
