NAME : XML1000_3372_59
COMMENT : Generated as the XML100 dataset from the CVRPLIB
TYPE : CVRP
DIMENSION : 1001
EDGE_WEIGHT_TYPE : EUC_2D
CAPACITY : 143
NODE_COORD_SECTION
1    0    0   
2    780  242 
3    750  52  
4    766  734 
5    456  648 
6    548  255 
7    21   864 
8    69   913 
9    918  301 
10   74   839 
11   343  79  
12   402  793 
13   137  886 
14   951  227 
15   67   818 
16   299  548 
17   393  839 
18   375  287 
19   86   840 
20   233  868 
21   803  99  
22   587  722 
23   980  397 
24   976  256 
25   918  422 
26   709  577 
27   74   731 
28   830  467 
29   169  712 
30   82   842 
31   925  448 
32   31   778 
33   917  880 
34   923  384 
35   574  141 
36   496  478 
37   116  822 
38   329  966 
39   696  94  
40   998  325 
41   148  783 
42   938  283 
43   273  149 
44   926  565 
45   33   662 
46   749  514 
47   914  420 
48   546  829 
49   80   755 
50   161  829 
51   85   870 
52   490  510 
53   925  578 
54   331  346 
55   67   831 
56   903  828 
57   69   773 
58   42   756 
59   164  745 
60   69   117 
61   149  891 
62   88   625 
63   989  450 
64   884  406 
65   86   844 
66   915  430 
67   882  643 
68   802  898 
69   403  636 
70   726  890 
71   365  115 
72   397  184 
73   4    509 
74   112  847 
75   55   703 
76   612  895 
77   249  843 
78   465  467 
79   156  624 
80   279  713 
81   47   717 
82   981  469 
83   80   632 
84   928  48  
85   900  404 
86   116  835 
87   22   791 
88   972  420 
89   243  610 
90   1    759 
91   925  70  
92   699  243 
93   110  931 
94   984  403 
95   177  692 
96   140  792 
97   62   464 
98   26   779 
99   21   283 
100  110  760 
101  117  656 
102  707  94  
103  184  844 
104  183  372 
105  176  998 
106  916  204 
107  980  634 
108  995  497 
109  890  341 
110  68   879 
111  352  409 
112  994  389 
113  975  299 
114  78   17  
115  951  329 
116  106  762 
117  81   827 
118  658  610 
119  601  741 
120  227  414 
121  702  793 
122  959  458 
123  271  597 
124  172  725 
125  30   632 
126  46   735 
127  84   600 
128  267  981 
129  82   679 
130  53   792 
131  731  289 
132  879  187 
133  396  884 
134  149  836 
135  54   864 
136  78   794 
137  583  283 
138  120  809 
139  80   736 
140  666  70  
141  553  13  
142  962  459 
143  969  355 
144  59   808 
145  207  706 
146  433  640 
147  172  190 
148  651  710 
149  217  616 
150  166  781 
151  979  386 
152  699  112 
153  957  874 
154  124  784 
155  1    466 
156  175  628 
157  151  899 
158  598  703 
159  604  207 
160  934  271 
161  99   718 
162  963  396 
163  210  814 
164  982  37  
165  229  28  
166  381  305 
167  776  188 
168  49   735 
169  450  670 
170  842  291 
171  946  339 
172  733  631 
173  669  866 
174  964  900 
175  618  263 
176  321  952 
177  193  757 
178  971  530 
179  248  324 
180  153  819 
181  952  526 
182  510  986 
183  307  868 
184  222  671 
185  111  822 
186  976  474 
187  909  573 
188  872  26  
189  935  311 
190  81   826 
191  53   99  
192  171  738 
193  818  985 
194  912  336 
195  306  526 
196  326  630 
197  964  383 
198  653  332 
199  957  496 
200  335  571 
201  975  392 
202  141  486 
203  958  708 
204  103  859 
205  106  855 
206  999  340 
207  905  333 
208  957  334 
209  637  262 
210  41   902 
211  304  876 
212  302  668 
213  223  384 
214  758  399 
215  385  126 
216  985  289 
217  766  650 
218  168  704 
219  949  375 
220  964  513 
221  697  825 
222  481  279 
223  617  954 
224  67   896 
225  116  532 
226  717  474 
227  972  346 
228  858  95  
229  84   747 
230  190  728 
231  58   856 
232  852  308 
233  971  408 
234  116  797 
235  975  369 
236  857  395 
237  805  205 
238  634  741 
239  895  269 
240  706  757 
241  582  712 
242  65   980 
243  875  449 
244  166  883 
245  186  632 
246  746  811 
247  126  819 
248  33   637 
249  813  721 
250  974  400 
251  121  759 
252  975  225 
253  170  206 
254  380  592 
255  990  372 
256  289  971 
257  432  135 
258  96   842 
259  656  127 
260  928  558 
261  927  352 
262  981  315 
263  949  361 
264  825  731 
265  386  522 
266  954  49  
267  111  821 
268  111  830 
269  114  737 
270  71   376 
271  597  980 
272  987  482 
273  578  45  
274  729  205 
275  73   794 
276  429  340 
277  146  635 
278  205  959 
279  899  863 
280  726  474 
281  191  795 
282  4    560 
283  929  406 
284  254  753 
285  378  621 
286  630  357 
287  665  714 
288  177  213 
289  743  890 
290  91   875 
291  260  656 
292  291  891 
293  4    816 
294  60   860 
295  847  471 
296  86   787 
297  160  834 
298  809  862 
299  44   879 
300  131  520 
301  602  798 
302  10   877 
303  126  832 
304  875  956 
305  284  470 
306  281  724 
307  128  869 
308  80   801 
309  975  494 
310  208  340 
311  654  417 
312  252  684 
313  276  224 
314  1000 407 
315  921  123 
316  515  240 
317  53   66  
318  993  139 
319  7    853 
320  105  778 
321  50   842 
322  114  817 
323  51   788 
324  38   944 
325  12   577 
326  772  27  
327  421  596 
328  511  889 
329  103  844 
330  135  220 
331  43   811 
332  8    692 
333  154  746 
334  961  317 
335  187  694 
336  567  826 
337  77   782 
338  730  960 
339  693  255 
340  127  899 
341  857  497 
342  129  829 
343  306  623 
344  311  967 
345  927  342 
346  891  221 
347  89   625 
348  94   969 
349  551  180 
350  905  403 
351  383  852 
352  861  634 
353  797  717 
354  980  433 
355  949  198 
356  835  362 
357  979  864 
358  156  809 
359  125  840 
360  967  490 
361  172  753 
362  55   744 
363  430  658 
364  67   746 
365  87   813 
366  986  369 
367  118  791 
368  509  960 
369  83   443 
370  795  899 
371  130  384 
372  1    800 
373  865  326 
374  107  818 
375  79   747 
376  624  272 
377  195  284 
378  64   856 
379  976  431 
380  87   440 
381  752  67  
382  797  447 
383  170  694 
384  675  857 
385  149  918 
386  206  369 
387  133  812 
388  204  872 
389  356  722 
390  952  357 
391  903  455 
392  85   88  
393  311  818 
394  987  296 
395  82   855 
396  181  461 
397  217  253 
398  518  92  
399  978  485 
400  783  664 
401  208  433 
402  37   75  
403  124  857 
404  883  351 
405  107  795 
406  857  451 
407  99   791 
408  357  421 
409  639  247 
410  163  565 
411  471  25  
412  96   813 
413  399  167 
414  845  751 
415  933  446 
416  771  286 
417  339  134 
418  80   786 
419  406  44  
420  907  991 
421  582  386 
422  847  568 
423  915  861 
424  703  267 
425  969  176 
426  887  106 
427  137  777 
428  705  731 
429  105  754 
430  606  856 
431  444  192 
432  302  99  
433  332  387 
434  28   888 
435  16   267 
436  962  374 
437  103  820 
438  320  489 
439  33   594 
440  873  153 
441  316  119 
442  126  794 
443  478  50  
444  227  706 
445  277  536 
446  148  800 
447  154  969 
448  58   516 
449  313  904 
450  76   802 
451  256  998 
452  675  582 
453  239  280 
454  81   737 
455  721  469 
456  748  661 
457  347  884 
458  80   781 
459  205  651 
460  980  391 
461  109  863 
462  844  805 
463  89   857 
464  148  427 
465  918  425 
466  91   805 
467  364  814 
468  992  392 
469  12   759 
470  865  437 
471  122  792 
472  521  636 
473  467  436 
474  189  800 
475  351  481 
476  977  507 
477  317  339 
478  146  866 
479  312  233 
480  271  381 
481  894  509 
482  863  265 
483  680  647 
484  918  70  
485  944  446 
486  995  393 
487  926  321 
488  154  717 
489  65   779 
490  963  459 
491  879  636 
492  927  533 
493  916  356 
494  5    90  
495  566  899 
496  54   477 
497  78   834 
498  994  321 
499  136  677 
500  625  576 
501  89   852 
502  892  44  
503  851  659 
504  622  31  
505  59   848 
506  11   771 
507  915  433 
508  945  446 
509  477  579 
510  828  764 
511  19   793 
512  612  404 
513  816  292 
514  11   789 
515  294  732 
516  643  657 
517  84   770 
518  207  584 
519  737  246 
520  734  348 
521  981  872 
522  939  628 
523  755  807 
524  65   927 
525  64   526 
526  455  933 
527  233  731 
528  739  45  
529  954  360 
530  427  843 
531  594  215 
532  195  228 
533  132  944 
534  117  565 
535  17   725 
536  11   892 
537  530  981 
538  759  297 
539  138  853 
540  57   779 
541  445  775 
542  985  460 
543  472  649 
544  370  592 
545  915  154 
546  981  517 
547  194  357 
548  995  424 
549  792  739 
550  916  369 
551  714  420 
552  923  274 
553  547  908 
554  868  487 
555  99   888 
556  918  424 
557  119  866 
558  610  973 
559  791  859 
560  503  56  
561  910  331 
562  182  904 
563  79   830 
564  1    892 
565  68   653 
566  946  415 
567  103  778 
568  120  947 
569  74   989 
570  913  494 
571  84   792 
572  458  426 
573  190  773 
574  339  725 
575  99   762 
576  723  199 
577  975  414 
578  194  752 
579  402  125 
580  344  431 
581  775  407 
582  486  771 
583  731  993 
584  264  587 
585  952  543 
586  18   791 
587  394  306 
588  912  479 
589  225  870 
590  992  368 
591  893  484 
592  468  448 
593  982  422 
594  650  259 
595  228  359 
596  731  193 
597  114  764 
598  420  956 
599  153  463 
600  768  251 
601  84   769 
602  365  364 
603  106  778 
604  118  743 
605  800  292 
606  84   778 
607  136  788 
608  81   852 
609  475  114 
610  104  854 
611  74   813 
612  814  483 
613  435  944 
614  125  895 
615  33   821 
616  972  413 
617  768  336 
618  209  876 
619  472  850 
620  898  473 
621  47   310 
622  936  347 
623  139  820 
624  130  839 
625  757  842 
626  161  817 
627  62   704 
628  58   752 
629  124  697 
630  90   793 
631  25   911 
632  99   860 
633  42   753 
634  33   924 
635  980  380 
636  919  361 
637  986  460 
638  575  560 
639  776  321 
640  264  191 
641  446  833 
642  870  486 
643  905  453 
644  843  2   
645  979  402 
646  152  862 
647  167  771 
648  583  838 
649  569  665 
650  870  504 
651  592  258 
652  1000 223 
653  937  283 
654  656  935 
655  282  608 
656  179  870 
657  821  346 
658  817  632 
659  496  308 
660  107  585 
661  429  645 
662  86   800 
663  449  712 
664  132  767 
665  176  703 
666  115  696 
667  839  638 
668  133  512 
669  897  341 
670  759  776 
671  875  313 
672  817  479 
673  540  579 
674  145  733 
675  906  575 
676  895  398 
677  102  771 
678  111  838 
679  134  840 
680  222  696 
681  939  352 
682  832  378 
683  988  464 
684  663  942 
685  109  276 
686  55   924 
687  45   767 
688  920  594 
689  921  419 
690  984  368 
691  599  795 
692  992  470 
693  85   821 
694  947  566 
695  907  493 
696  568  408 
697  202  988 
698  635  974 
699  120  797 
700  197  882 
701  179  694 
702  121  771 
703  975  893 
704  89   800 
705  903  370 
706  378  912 
707  64   883 
708  205  868 
709  926  399 
710  596  1000
711  83   753 
712  728  554 
713  751  367 
714  93   946 
715  893  469 
716  177  778 
717  780  421 
718  994  390 
719  736  494 
720  892  104 
721  946  224 
722  21   814 
723  938  229 
724  909  193 
725  30   853 
726  232  570 
727  702  367 
728  881  369 
729  145  849 
730  149  810 
731  97   781 
732  371  365 
733  114  196 
734  500  21  
735  467  500 
736  143  668 
737  169  806 
738  63   923 
739  507  783 
740  954  438 
741  749  307 
742  990  370 
743  182  843 
744  180  672 
745  100  801 
746  65   852 
747  228  739 
748  224  458 
749  86   655 
750  121  869 
751  861  413 
752  935  299 
753  587  537 
754  974  281 
755  569  888 
756  998  257 
757  884  900 
758  923  352 
759  43   293 
760  740  370 
761  710  455 
762  587  137 
763  915  497 
764  47   919 
765  167  594 
766  482  758 
767  144  879 
768  56   995 
769  458  410 
770  95   834 
771  157  818 
772  727  791 
773  621  117 
774  61   692 
775  997  386 
776  980  315 
777  443  376 
778  987  363 
779  66   816 
780  346  434 
781  853  521 
782  89   781 
783  99   813 
784  974  393 
785  67   790 
786  28   771 
787  937  362 
788  945  604 
789  819  7   
790  342  747 
791  319  843 
792  792  538 
793  20   934 
794  166  750 
795  983  505 
796  360  197 
797  206  804 
798  77   830 
799  225  665 
800  34   707 
801  147  727 
802  979  382 
803  187  809 
804  453  25  
805  242  98  
806  442  550 
807  499  895 
808  519  635 
809  935  312 
810  983  361 
811  119  674 
812  224  309 
813  941  346 
814  956  344 
815  93   783 
816  107  965 
817  956  353 
818  109  755 
819  51   130 
820  562  871 
821  328  277 
822  931  427 
823  123  900 
824  95   600 
825  36   761 
826  976  834 
827  966  384 
828  757  161 
829  518  392 
830  531  987 
831  910  507 
832  982  374 
833  813  327 
834  589  43  
835  539  460 
836  22   224 
837  37   222 
838  443  739 
839  122  805 
840  715  285 
841  259  420 
842  94   612 
843  478  696 
844  106  815 
845  49   708 
846  408  152 
847  942  431 
848  356  361 
849  383  980 
850  250  716 
851  46   550 
852  46   977 
853  167  858 
854  942  687 
855  220  446 
856  884  337 
857  167  449 
858  752  56  
859  935  437 
860  119  808 
861  662  827 
862  976  447 
863  167  705 
864  189  49  
865  98   834 
866  408  502 
867  787  4   
868  857  328 
869  650  453 
870  976  465 
871  356  720 
872  81   790 
873  970  125 
874  830  487 
875  538  733 
876  142  266 
877  133  437 
878  70   497 
879  976  330 
880  538  86  
881  276  742 
882  52   839 
883  146  236 
884  985  635 
885  594  902 
886  112  899 
887  122  836 
888  288  576 
889  955  365 
890  43   799 
891  129  988 
892  962  422 
893  178  435 
894  327  823 
895  208  732 
896  880  865 
897  463  842 
898  122  701 
899  938  806 
900  839  455 
901  517  404 
902  999  407 
903  905  400 
904  869  981 
905  460  535 
906  988  407 
907  846  323 
908  915  432 
909  478  592 
910  225  650 
911  86   226 
912  957  419 
913  54   759 
914  243  280 
915  945  463 
916  26   422 
917  33   318 
918  809  539 
919  127  96  
920  553  335 
921  603  681 
922  998  475 
923  327  926 
924  780  661 
925  134  239 
926  51   762 
927  143  845 
928  30   410 
929  389  120 
930  642  965 
931  41   825 
932  177  847 
933  115  881 
934  321  888 
935  244  766 
936  551  774 
937  165  720 
938  425  707 
939  766  582 
940  220  9   
941  93   206 
942  972  449 
943  0    689 
944  206  748 
945  216  969 
946  112  741 
947  186  928 
948  71   322 
949  862  406 
950  996  397 
951  218  731 
952  61   775 
953  107  653 
954  940  362 
955  129  839 
956  951  511 
957  482  688 
958  239  552 
959  767  43  
960  276  876 
961  969  425 
962  848  364 
963  153  894 
964  173  872 
965  888  418 
966  610  172 
967  756  793 
968  466  298 
969  909  230 
970  891  334 
971  130  785 
972  37   566 
973  965  158 
974  983  444 
975  314  20  
976  920  415 
977  812  562 
978  137  909 
979  939  514 
980  480  754 
981  474  832 
982  867  507 
983  692  237 
984  141  125 
985  928  346 
986  167  34  
987  121  821 
988  55   857 
989  197  959 
990  777  61  
991  992  376 
992  759  174 
993  276  444 
994  35   906 
995  137  774 
996  948  873 
997  46   903 
998  95   777 
999  97   719 
1000 601  518 
1001 850  319 
DEMAND_SECTION
1    0   
2    60  
3    10  
4    93  
5    1   
6    89  
7    5   
8    4   
9    74  
10   7   
11   83  
12   6   
13   87  
14   10  
15   8   
16   1   
17   66  
18   3   
19   9   
20   6   
21   4   
22   3   
23   5   
24   6   
25   4   
26   3   
27   6   
28   7   
29   9   
30   3   
31   3   
32   6   
33   1   
34   4   
35   62  
36   5   
37   5   
38   57  
39   54  
40   4   
41   10  
42   8   
43   1   
44   3   
45   9   
46   6   
47   6   
48   9   
49   3   
50   6   
51   7   
52   2   
53   3   
54   81  
55   9   
56   1   
57   10  
58   4   
59   10  
60   7   
61   95  
62   2   
63   3   
64   10  
65   9   
66   7   
67   95  
68   10  
69   6   
70   7   
71   9   
72   7   
73   86  
74   91  
75   1   
76   6   
77   98  
78   90  
79   100 
80   4   
81   93  
82   9   
83   1   
84   4   
85   1   
86   10  
87   7   
88   2   
89   93  
90   3   
91   7   
92   68  
93   6   
94   10  
95   68  
96   6   
97   1   
98   9   
99   3   
100  3   
101  9   
102  3   
103  6   
104  6   
105  2   
106  5   
107  4   
108  9   
109  10  
110  2   
111  65  
112  3   
113  52  
114  10  
115  4   
116  54  
117  90  
118  2   
119  10  
120  3   
121  5   
122  9   
123  8   
124  1   
125  3   
126  8   
127  6   
128  4   
129  9   
130  2   
131  2   
132  10  
133  88  
134  57  
135  2   
136  10  
137  8   
138  10  
139  93  
140  5   
141  71  
142  72  
143  9   
144  76  
145  6   
146  2   
147  92  
148  1   
149  10  
150  5   
151  52  
152  10  
153  10  
154  5   
155  7   
156  4   
157  10  
158  53  
159  55  
160  2   
161  6   
162  95  
163  1   
164  2   
165  82  
166  7   
167  100 
168  4   
169  4   
170  1   
171  8   
172  1   
173  62  
174  3   
175  5   
176  78  
177  2   
178  1   
179  8   
180  79  
181  66  
182  8   
183  3   
184  2   
185  2   
186  7   
187  8   
188  6   
189  5   
190  9   
191  70  
192  1   
193  7   
194  7   
195  10  
196  5   
197  9   
198  8   
199  2   
200  9   
201  50  
202  5   
203  4   
204  63  
205  2   
206  8   
207  7   
208  3   
209  51  
210  9   
211  1   
212  7   
213  7   
214  10  
215  7   
216  94  
217  8   
218  9   
219  82  
220  68  
221  2   
222  4   
223  84  
224  5   
225  64  
226  1   
227  4   
228  81  
229  7   
230  8   
231  1   
232  1   
233  1   
234  4   
235  10  
236  59  
237  97  
238  6   
239  54  
240  57  
241  3   
242  9   
243  4   
244  54  
245  10  
246  6   
247  67  
248  4   
249  1   
250  74  
251  85  
252  1   
253  4   
254  10  
255  5   
256  2   
257  2   
258  5   
259  67  
260  4   
261  10  
262  6   
263  2   
264  3   
265  1   
266  61  
267  4   
268  1   
269  6   
270  4   
271  75  
272  6   
273  96  
274  9   
275  59  
276  8   
277  10  
278  8   
279  1   
280  1   
281  4   
282  1   
283  4   
284  8   
285  10  
286  8   
287  85  
288  2   
289  84  
290  9   
291  67  
292  2   
293  5   
294  9   
295  5   
296  3   
297  8   
298  3   
299  9   
300  1   
301  2   
302  4   
303  9   
304  6   
305  97  
306  2   
307  88  
308  7   
309  2   
310  4   
311  7   
312  9   
313  7   
314  7   
315  7   
316  3   
317  9   
318  5   
319  3   
320  10  
321  4   
322  92  
323  1   
324  59  
325  10  
326  5   
327  70  
328  1   
329  2   
330  81  
331  8   
332  7   
333  68  
334  8   
335  2   
336  2   
337  10  
338  5   
339  4   
340  69  
341  74  
342  6   
343  9   
344  8   
345  7   
346  7   
347  55  
348  3   
349  3   
350  58  
351  82  
352  5   
353  4   
354  2   
355  10  
356  5   
357  6   
358  9   
359  9   
360  8   
361  5   
362  9   
363  2   
364  10  
365  1   
366  1   
367  56  
368  56  
369  91  
370  10  
371  81  
372  71  
373  75  
374  1   
375  10  
376  6   
377  3   
378  71  
379  9   
380  10  
381  6   
382  2   
383  77  
384  74  
385  6   
386  4   
387  92  
388  8   
389  6   
390  2   
391  9   
392  2   
393  10  
394  2   
395  61  
396  4   
397  88  
398  4   
399  6   
400  52  
401  6   
402  1   
403  2   
404  8   
405  5   
406  3   
407  63  
408  6   
409  8   
410  9   
411  1   
412  9   
413  10  
414  9   
415  8   
416  4   
417  3   
418  10  
419  1   
420  78  
421  2   
422  2   
423  2   
424  4   
425  3   
426  78  
427  1   
428  89  
429  9   
430  10  
431  6   
432  3   
433  50  
434  7   
435  6   
436  10  
437  1   
438  9   
439  89  
440  3   
441  3   
442  62  
443  3   
444  80  
445  9   
446  10  
447  69  
448  99  
449  5   
450  7   
451  3   
452  9   
453  90  
454  76  
455  7   
456  4   
457  92  
458  4   
459  86  
460  7   
461  10  
462  63  
463  1   
464  10  
465  6   
466  3   
467  6   
468  10  
469  75  
470  8   
471  10  
472  5   
473  74  
474  7   
475  97  
476  62  
477  69  
478  8   
479  10  
480  1   
481  6   
482  65  
483  10  
484  9   
485  3   
486  64  
487  6   
488  8   
489  6   
490  5   
491  9   
492  7   
493  7   
494  2   
495  5   
496  2   
497  10  
498  7   
499  4   
500  9   
501  4   
502  5   
503  4   
504  9   
505  54  
506  2   
507  83  
508  7   
509  62  
510  9   
511  6   
512  63  
513  8   
514  9   
515  8   
516  50  
517  61  
518  6   
519  73  
520  70  
521  2   
522  84  
523  10  
524  98  
525  4   
526  4   
527  4   
528  8   
529  69  
530  9   
531  2   
532  6   
533  6   
534  1   
535  5   
536  3   
537  5   
538  10  
539  4   
540  53  
541  3   
542  4   
543  9   
544  2   
545  5   
546  8   
547  2   
548  10  
549  10  
550  69  
551  53  
552  8   
553  54  
554  9   
555  7   
556  8   
557  9   
558  5   
559  1   
560  10  
561  7   
562  3   
563  9   
564  1   
565  3   
566  7   
567  1   
568  8   
569  1   
570  4   
571  1   
572  85  
573  7   
574  6   
575  1   
576  5   
577  5   
578  70  
579  8   
580  74  
581  8   
582  71  
583  1   
584  60  
585  5   
586  9   
587  1   
588  4   
589  9   
590  2   
591  9   
592  54  
593  7   
594  2   
595  2   
596  1   
597  87  
598  6   
599  7   
600  4   
601  6   
602  1   
603  9   
604  1   
605  5   
606  6   
607  6   
608  62  
609  2   
610  2   
611  7   
612  79  
613  1   
614  7   
615  8   
616  5   
617  9   
618  8   
619  8   
620  1   
621  6   
622  2   
623  2   
624  77  
625  9   
626  8   
627  7   
628  55  
629  5   
630  2   
631  5   
632  6   
633  72  
634  4   
635  7   
636  1   
637  9   
638  7   
639  2   
640  1   
641  72  
642  4   
643  65  
644  8   
645  5   
646  5   
647  1   
648  3   
649  10  
650  1   
651  89  
652  2   
653  2   
654  6   
655  8   
656  10  
657  3   
658  8   
659  3   
660  3   
661  58  
662  3   
663  7   
664  9   
665  7   
666  9   
667  8   
668  4   
669  8   
670  2   
671  4   
672  10  
673  1   
674  10  
675  3   
676  8   
677  67  
678  9   
679  74  
680  5   
681  71  
682  4   
683  9   
684  3   
685  2   
686  96  
687  5   
688  5   
689  4   
690  5   
691  9   
692  9   
693  2   
694  7   
695  5   
696  9   
697  1   
698  7   
699  3   
700  10  
701  4   
702  4   
703  9   
704  3   
705  97  
706  4   
707  7   
708  61  
709  10  
710  4   
711  53  
712  70  
713  4   
714  1   
715  10  
716  7   
717  6   
718  9   
719  6   
720  3   
721  1   
722  7   
723  3   
724  10  
725  5   
726  50  
727  77  
728  5   
729  8   
730  5   
731  8   
732  6   
733  65  
734  8   
735  10  
736  2   
737  8   
738  1   
739  94  
740  68  
741  9   
742  8   
743  54  
744  8   
745  8   
746  6   
747  6   
748  64  
749  6   
750  9   
751  7   
752  97  
753  95  
754  6   
755  5   
756  7   
757  2   
758  7   
759  7   
760  4   
761  95  
762  7   
763  6   
764  7   
765  8   
766  3   
767  10  
768  7   
769  6   
770  1   
771  2   
772  7   
773  93  
774  4   
775  8   
776  5   
777  2   
778  1   
779  5   
780  9   
781  3   
782  89  
783  71  
784  6   
785  4   
786  8   
787  5   
788  97  
789  86  
790  3   
791  9   
792  1   
793  8   
794  2   
795  1   
796  4   
797  55  
798  5   
799  4   
800  8   
801  4   
802  9   
803  4   
804  8   
805  8   
806  8   
807  80  
808  5   
809  3   
810  1   
811  7   
812  8   
813  9   
814  8   
815  4   
816  89  
817  4   
818  9   
819  8   
820  2   
821  10  
822  10  
823  5   
824  8   
825  4   
826  8   
827  87  
828  9   
829  8   
830  4   
831  8   
832  7   
833  9   
834  94  
835  10  
836  3   
837  1   
838  4   
839  77  
840  6   
841  88  
842  7   
843  92  
844  5   
845  10  
846  6   
847  9   
848  10  
849  55  
850  7   
851  1   
852  3   
853  4   
854  3   
855  6   
856  2   
857  1   
858  10  
859  6   
860  9   
861  5   
862  98  
863  3   
864  7   
865  3   
866  7   
867  3   
868  8   
869  6   
870  9   
871  94  
872  77  
873  10  
874  5   
875  8   
876  6   
877  2   
878  1   
879  7   
880  6   
881  72  
882  9   
883  65  
884  4   
885  10  
886  51  
887  8   
888  2   
889  5   
890  1   
891  10  
892  2   
893  4   
894  4   
895  4   
896  10  
897  7   
898  8   
899  3   
900  2   
901  7   
902  8   
903  10  
904  6   
905  2   
906  6   
907  7   
908  8   
909  3   
910  1   
911  7   
912  10  
913  1   
914  4   
915  4   
916  100 
917  81  
918  9   
919  91  
920  5   
921  3   
922  9   
923  1   
924  6   
925  63  
926  6   
927  4   
928  6   
929  6   
930  10  
931  51  
932  6   
933  4   
934  2   
935  7   
936  8   
937  8   
938  5   
939  5   
940  93  
941  7   
942  51  
943  10  
944  74  
945  2   
946  53  
947  2   
948  2   
949  5   
950  10  
951  8   
952  2   
953  10  
954  9   
955  5   
956  5   
957  52  
958  1   
959  7   
960  8   
961  1   
962  1   
963  9   
964  6   
965  4   
966  2   
967  1   
968  2   
969  3   
970  4   
971  2   
972  9   
973  6   
974  6   
975  3   
976  2   
977  5   
978  10  
979  2   
980  5   
981  87  
982  8   
983  10  
984  3   
985  3   
986  62  
987  1   
988  65  
989  1   
990  90  
991  10  
992  54  
993  5   
994  51  
995  1   
996  2   
997  63  
998  10  
999  4   
1000 4   
1001 5   
DEPOT_SECTION
1
-1
EOF
