NAME : XML1000_2312_58
COMMENT : Generated as the XML100 dataset from the CVRPLIB
TYPE : CVRP
DIMENSION : 1001
EDGE_WEIGHT_TYPE : EUC_2D
CAPACITY : 7
NODE_COORD_SECTION
1    500  500 
2    949  917 
3    904  775 
4    228  641 
5    587  174 
6    391  299 
7    907  682 
8    449  231 
9    335  120 
10   365  408 
11   890  239 
12   638  414 
13   148  559 
14   36   89  
15   582  998 
16   343  1000
17   459  299 
18   569  143 
19   331  113 
20   485  446 
21   991  281 
22   337  193 
23   893  887 
24   990  838 
25   935  246 
26   496  186 
27   711  501 
28   433  8   
29   450  317 
30   622  271 
31   899  143 
32   490  362 
33   671  56  
34   581  428 
35   47   866 
36   910  338 
37   68   898 
38   928  853 
39   4    514 
40   813  634 
41   255  761 
42   898  858 
43   215  697 
44   699  630 
45   443  552 
46   968  297 
47   837  115 
48   454  323 
49   926  956 
50   822  728 
51   598  89  
52   259  907 
53   921  212 
54   507  325 
55   811  727 
56   198  491 
57   251  494 
58   423  600 
59   520  371 
60   52   37  
61   33   689 
62   738  203 
63   37   659 
64   932  882 
65   539  250 
66   280  566 
67   346  511 
68   192  691 
69   372  658 
70   962  990 
71   607  286 
72   648  147 
73   154  417 
74   637  156 
75   927  889 
76   387  777 
77   389  91  
78   97   947 
79   427  584 
80   234  544 
81   750  42  
82   955  987 
83   78   961 
84   210  604 
85   911  243 
86   234  571 
87   982  294 
88   941  823 
89   984  147 
90   306  559 
91   193  929 
92   993  879 
93   153  326 
94   496  311 
95   516  140 
96   873  396 
97   626  259 
98   977  782 
99   634  361 
100  157  863 
101  412  595 
102  804  454 
103  154  974 
104  552  718 
105  989  427 
106  31   467 
107  563  99  
108  420  190 
109  385  321 
110  368  683 
111  437  117 
112  868  560 
113  986  305 
114  637  816 
115  150  707 
116  527  428 
117  4    989 
118  556  172 
119  525  355 
120  206  202 
121  548  231 
122  990  284 
123  480  689 
124  717  116 
125  985  214 
126  589  214 
127  866  86  
128  954  864 
129  946  771 
130  934  150 
131  153  577 
132  329  156 
133  813  89  
134  336  442 
135  245  571 
136  948  808 
137  704  856 
138  933  23  
139  423  428 
140  438  993 
141  363  801 
142  467  373 
143  299  380 
144  204  408 
145  466  417 
146  386  775 
147  471  334 
148  706  237 
149  422  478 
150  579  205 
151  285  234 
152  280  403 
153  647  843 
154  283  753 
155  204  255 
156  726  242 
157  255  993 
158  274  579 
159  361  220 
160  154  425 
161  508  1   
162  557  293 
163  238  415 
164  924  306 
165  208  652 
166  585  221 
167  959  938 
168  455  520 
169  325  154 
170  746  574 
171  451  150 
172  518  149 
173  874  741 
174  500  689 
175  208  917 
176  962  445 
177  203  402 
178  279  568 
179  261  16  
180  881  911 
181  950  89  
182  534  943 
183  220  994 
184  352  637 
185  250  617 
186  407  344 
187  969  453 
188  897  208 
189  90   884 
190  662  701 
191  975  127 
192  885  499 
193  930  879 
194  248  436 
195  992  207 
196  433  320 
197  708  448 
198  95   352 
199  718  480 
200  894  59  
201  685  303 
202  607  792 
203  564  431 
204  385  679 
205  184  546 
206  951  849 
207  545  170 
208  457  295 
209  620  182 
210  615  76  
211  132  773 
212  385  288 
213  784  937 
214  578  841 
215  809  881 
216  770  773 
217  18   342 
218  373  63  
219  467  345 
220  297  608 
221  227  345 
222  121  373 
223  324  961 
224  999  852 
225  265  646 
226  407  977 
227  879  289 
228  487  439 
229  781  657 
230  367  532 
231  108  519 
232  436  375 
233  305  557 
234  714  487 
235  611  465 
236  261  770 
237  553  551 
238  449  421 
239  244  717 
240  218  161 
241  502  585 
242  151  71  
243  243  999 
244  516  331 
245  605  189 
246  170  597 
247  307  584 
248  362  947 
249  859  432 
250  617  401 
251  559  329 
252  995  850 
253  174  496 
254  883  816 
255  795  47  
256  141  566 
257  627  329 
258  438  304 
259  742  50  
260  367  509 
261  254  879 
262  620  927 
263  474  644 
264  345  103 
265  592  209 
266  197  326 
267  613  668 
268  584  205 
269  630  83  
270  963  143 
271  925  665 
272  505  973 
273  517  471 
274  187  834 
275  411  462 
276  317  544 
277  683  741 
278  668  878 
279  934  750 
280  398  361 
281  896  229 
282  315  354 
283  419  820 
284  132  71  
285  782  872 
286  396  437 
287  167  187 
288  333  70  
289  244  559 
290  772  50  
291  321  254 
292  887  665 
293  477  492 
294  317  638 
295  632  802 
296  921  249 
297  531  747 
298  202  562 
299  930  87  
300  656  351 
301  350  406 
302  314  483 
303  965  859 
304  9    549 
305  607  229 
306  946  827 
307  645  759 
308  956  899 
309  498  560 
310  202  836 
311  851  437 
312  328  823 
313  828  960 
314  473  256 
315  726  195 
316  382  385 
317  388  316 
318  490  574 
319  306  237 
320  475  293 
321  765  284 
322  777  524 
323  565  595 
324  616  579 
325  781  256 
326  526  533 
327  808  749 
328  875  421 
329  602  272 
330  399  312 
331  203  764 
332  828  834 
333  322  483 
334  165  917 
335  244  554 
336  95   422 
337  268  493 
338  292  469 
339  356  862 
340  848  269 
341  303  478 
342  108  230 
343  389  2   
344  156  279 
345  81   514 
346  100  137 
347  306  623 
348  490  313 
349  271  522 
350  430  119 
351  41   972 
352  279  395 
353  506  675 
354  315  290 
355  446  154 
356  60   338 
357  792  144 
358  627  184 
359  901  298 
360  823  635 
361  470  340 
362  436  198 
363  966  763 
364  948  913 
365  655  898 
366  923  838 
367  111  267 
368  320  926 
369  233  540 
370  643  951 
371  964  848 
372  321  900 
373  448  199 
374  223  993 
375  518  371 
376  652  371 
377  501  876 
378  890  261 
379  402  159 
380  787  397 
381  745  153 
382  933  213 
383  436  310 
384  403  569 
385  212  611 
386  660  82  
387  933  231 
388  935  915 
389  595  501 
390  177  980 
391  333  581 
392  876  362 
393  423  227 
394  496  864 
395  927  831 
396  674  474 
397  809  946 
398  418  307 
399  978  638 
400  909  795 
401  303  338 
402  194  660 
403  294  747 
404  861  885 
405  756  967 
406  656  224 
407  329  723 
408  504  575 
409  221  534 
410  645  196 
411  382  231 
412  839  574 
413  872  760 
414  410  976 
415  589  390 
416  523  188 
417  774  197 
418  286  361 
419  935  816 
420  134  520 
421  733  165 
422  457  270 
423  423  604 
424  887  897 
425  922  864 
426  260  726 
427  173  340 
428  914  869 
429  682  208 
430  725  188 
431  926  178 
432  456  530 
433  507  374 
434  912  917 
435  754  480 
436  778  172 
437  456  548 
438  124  84  
439  215  858 
440  941  733 
441  404  218 
442  84   524 
443  597  542 
444  46   668 
445  939  809 
446  966  259 
447  771  160 
448  292  580 
449  732  339 
450  487  261 
451  241  367 
452  490  406 
453  934  65  
454  252  525 
455  474  71  
456  915  299 
457  509  276 
458  378  610 
459  443  340 
460  275  347 
461  295  423 
462  394  456 
463  455  323 
464  936  367 
465  994  299 
466  273  175 
467  448  27  
468  717  588 
469  370  364 
470  624  271 
471  302  638 
472  477  72  
473  475  408 
474  50   768 
475  771  299 
476  574  270 
477  801  834 
478  903  854 
479  514  521 
480  292  319 
481  273  934 
482  916  891 
483  197  557 
484  34   51  
485  137  790 
486  641  314 
487  665  671 
488  778  679 
489  768  931 
490  397  201 
491  557  302 
492  398  565 
493  555  140 
494  497  306 
495  105  596 
496  147  812 
497  384  267 
498  258  945 
499  36   990 
500  958  273 
501  995  411 
502  971  957 
503  560  767 
504  690  202 
505  287  581 
506  204  574 
507  215  574 
508  368  664 
509  803  79  
510  780  779 
511  494  236 
512  731  347 
513  281  528 
514  513  762 
515  674  868 
516  889  277 
517  434  380 
518  591  345 
519  822  605 
520  740  297 
521  396  762 
522  549  190 
523  851  659 
524  523  546 
525  508  167 
526  266  652 
527  133  388 
528  579  218 
529  213  268 
530  708  192 
531  798  104 
532  225  898 
533  60   803 
534  462  307 
535  515  700 
536  219  967 
537  313  602 
538  457  210 
539  458  602 
540  422  756 
541  416  685 
542  556  845 
543  611  268 
544  172  68  
545  254  534 
546  721  585 
547  700  117 
548  54   607 
549  88   520 
550  471  392 
551  516  125 
552  621  89  
553  912  372 
554  393  329 
555  425  34  
556  164  478 
557  429  660 
558  286  611 
559  926  154 
560  444  541 
561  426  780 
562  223  820 
563  262  501 
564  75   931 
565  594  89  
566  335  881 
567  672  939 
568  529  365 
569  885  894 
570  338  267 
571  873  273 
572  275  467 
573  158  547 
574  251  119 
575  430  350 
576  614  180 
577  882  223 
578  322  408 
579  405  424 
580  51   969 
581  602  462 
582  931  372 
583  253  973 
584  211  967 
585  955  976 
586  664  275 
587  242  564 
588  219  562 
589  200  558 
590  519  18  
591  652  984 
592  916  737 
593  632  84  
594  575  215 
595  221  370 
596  464  604 
597  752  253 
598  918  136 
599  498  507 
600  295  911 
601  73   709 
602  998  839 
603  757  209 
604  936  199 
605  501  280 
606  780  598 
607  922  929 
608  465  177 
609  217  628 
610  604  381 
611  434  217 
612  334  795 
613  916  458 
614  928  850 
615  223  680 
616  599  275 
617  554  142 
618  634  498 
619  232  994 
620  939  874 
621  464  352 
622  225  973 
623  172  314 
624  609  590 
625  822  734 
626  305  435 
627  151  538 
628  869  675 
629  980  1000
630  808  390 
631  590  329 
632  780  81  
633  836  897 
634  152  94  
635  958  743 
636  160  861 
637  624  71  
638  501  922 
639  515  164 
640  742  54  
641  173  571 
642  170  673 
643  245  587 
644  785  937 
645  351  834 
646  206  568 
647  683  651 
648  896  804 
649  519  152 
650  577  84  
651  273  496 
652  509  215 
653  495  42  
654  536  241 
655  914  291 
656  572  173 
657  152  871 
658  360  671 
659  527  3   
660  504  136 
661  655  207 
662  995  117 
663  155  406 
664  13   313 
665  187  865 
666  552  194 
667  422  112 
668  392  736 
669  208  915 
670  637  247 
671  997  828 
672  791  970 
673  22   370 
674  401  574 
675  573  253 
676  272  936 
677  480  309 
678  648  512 
679  381  824 
680  825  483 
681  268  956 
682  91   515 
683  0    495 
684  238  296 
685  241  948 
686  369  212 
687  956  256 
688  484  428 
689  32   456 
690  228  996 
691  482  247 
692  769  277 
693  290  989 
694  179  573 
695  408  972 
696  830  683 
697  592  226 
698  674  277 
699  324  573 
700  867  830 
701  425  396 
702  886  843 
703  484  302 
704  596  205 
705  233  64  
706  204  922 
707  361  469 
708  889  207 
709  213  589 
710  232  840 
711  455  113 
712  763  894 
713  658  710 
714  90   527 
715  665  996 
716  859  709 
717  94   259 
718  981  335 
719  710  357 
720  788  258 
721  209  502 
722  569  381 
723  479  326 
724  480  151 
725  153  830 
726  388  733 
727  462  264 
728  127  530 
729  377  723 
730  219  524 
731  654  214 
732  289  848 
733  798  335 
734  263  567 
735  937  920 
736  155  625 
737  676  885 
738  962  586 
739  605  843 
740  970  172 
741  445  952 
742  889  611 
743  998  527 
744  252  319 
745  146  674 
746  146  912 
747  908  206 
748  723  844 
749  236  976 
750  640  135 
751  644  285 
752  517  995 
753  420  150 
754  682  397 
755  523  233 
756  544  939 
757  498  316 
758  435  376 
759  418  64  
760  488  150 
761  589  956 
762  242  503 
763  141  600 
764  414  219 
765  700  69  
766  175  184 
767  612  185 
768  990  235 
769  297  457 
770  995  740 
771  593  190 
772  616  582 
773  945  492 
774  436  624 
775  238  389 
776  138  967 
777  506  292 
778  430  410 
779  336  128 
780  352  472 
781  560  31  
782  329  754 
783  561  246 
784  918  502 
785  999  966 
786  650  342 
787  972  869 
788  551  983 
789  523  210 
790  860  170 
791  666  39  
792  279  524 
793  671  621 
794  874  306 
795  465  296 
796  54   433 
797  535  230 
798  626  250 
799  963  262 
800  258  986 
801  172  806 
802  144  308 
803  734  677 
804  977  166 
805  297  596 
806  139  220 
807  13   10  
808  637  344 
809  502  299 
810  695  187 
811  538  240 
812  587  105 
813  169  922 
814  973  168 
815  902  791 
816  475  309 
817  932  288 
818  604  203 
819  542  219 
820  633  257 
821  915  748 
822  992  28  
823  975  860 
824  114  424 
825  991  221 
826  608  20  
827  973  289 
828  96   403 
829  153  797 
830  550  106 
831  918  371 
832  564  535 
833  409  750 
834  325  491 
835  9    798 
836  845  130 
837  516  458 
838  335  684 
839  395  842 
840  217  665 
841  667  883 
842  877  842 
843  652  742 
844  304  980 
845  281  411 
846  632  269 
847  690  768 
848  349  704 
849  711  144 
850  589  155 
851  909  663 
852  117  336 
853  653  975 
854  706  749 
855  895  737 
856  67   753 
857  863  49  
858  262  434 
859  260  653 
860  324  894 
861  258  958 
862  342  463 
863  88   794 
864  265  579 
865  195  511 
866  930  75  
867  300  802 
868  693  248 
869  956  887 
870  249  509 
871  431  220 
872  636  280 
873  230  761 
874  649  299 
875  926  217 
876  767  53  
877  462  73  
878  268  369 
879  998  242 
880  513  820 
881  804  349 
882  392  432 
883  324  377 
884  162  882 
885  520  688 
886  290  384 
887  275  530 
888  1    528 
889  714  986 
890  106  581 
891  581  304 
892  169  777 
893  839  172 
894  856  14  
895  214  510 
896  79   969 
897  350  380 
898  224  829 
899  550  87  
900  431  624 
901  522  919 
902  88   398 
903  325  234 
904  417  973 
905  284  53  
906  191  490 
907  952  332 
908  517  413 
909  289  796 
910  523  307 
911  548  153 
912  610  977 
913  299  181 
914  139  52  
915  893  273 
916  918  446 
917  419  524 
918  173  630 
919  370  241 
920  711  543 
921  862  703 
922  841  909 
923  448  151 
924  590  244 
925  108  766 
926  596  184 
927  299  455 
928  999  290 
929  221  801 
930  52   843 
931  633  62  
932  271  631 
933  994  468 
934  805  681 
935  768  781 
936  604  273 
937  541  900 
938  985  886 
939  389  394 
940  840  10  
941  258  548 
942  12   892 
943  376  302 
944  472  239 
945  190  660 
946  258  575 
947  963  89  
948  962  273 
949  409  326 
950  682  713 
951  941  964 
952  165  365 
953  179  776 
954  842  851 
955  642  259 
956  684  283 
957  450  354 
958  232  531 
959  135  351 
960  996  509 
961  649  801 
962  199  354 
963  452  772 
964  808  974 
965  224  536 
966  785  353 
967  583  209 
968  232  549 
969  646  247 
970  742  391 
971  986  352 
972  439  628 
973  257  462 
974  442  197 
975  566  403 
976  957  297 
977  885  794 
978  217  524 
979  248  502 
980  16   125 
981  580  832 
982  416  324 
983  634  812 
984  546  174 
985  745  145 
986  991  277 
987  619  176 
988  910  69  
989  263  258 
990  43   227 
991  150  866 
992  533  91  
993  839  948 
994  539  278 
995  907  835 
996  616  134 
997  488  214 
998  82   429 
999  253  329 
1000 571  239 
1001 189  802 
DEMAND_SECTION
1    0   
2    1   
3    1   
4    1   
5    1   
6    1   
7    1   
8    1   
9    1   
10   1   
11   1   
12   1   
13   1   
14   1   
15   1   
16   1   
17   1   
18   1   
19   1   
20   1   
21   1   
22   1   
23   1   
24   1   
25   1   
26   1   
27   1   
28   1   
29   1   
30   1   
31   1   
32   1   
33   1   
34   1   
35   1   
36   1   
37   1   
38   1   
39   1   
40   1   
41   1   
42   1   
43   1   
44   1   
45   1   
46   1   
47   1   
48   1   
49   1   
50   1   
51   1   
52   1   
53   1   
54   1   
55   1   
56   1   
57   1   
58   1   
59   1   
60   1   
61   1   
62   1   
63   1   
64   1   
65   1   
66   1   
67   1   
68   1   
69   1   
70   1   
71   1   
72   1   
73   1   
74   1   
75   1   
76   1   
77   1   
78   1   
79   1   
80   1   
81   1   
82   1   
83   1   
84   1   
85   1   
86   1   
87   1   
88   1   
89   1   
90   1   
91   1   
92   1   
93   1   
94   1   
95   1   
96   1   
97   1   
98   1   
99   1   
100  1   
101  1   
102  1   
103  1   
104  1   
105  1   
106  1   
107  1   
108  1   
109  1   
110  1   
111  1   
112  1   
113  1   
114  1   
115  1   
116  1   
117  1   
118  1   
119  1   
120  1   
121  1   
122  1   
123  1   
124  1   
125  1   
126  1   
127  1   
128  1   
129  1   
130  1   
131  1   
132  1   
133  1   
134  1   
135  1   
136  1   
137  1   
138  1   
139  1   
140  1   
141  1   
142  1   
143  1   
144  1   
145  1   
146  1   
147  1   
148  1   
149  1   
150  1   
151  1   
152  1   
153  1   
154  1   
155  1   
156  1   
157  1   
158  1   
159  1   
160  1   
161  1   
162  1   
163  1   
164  1   
165  1   
166  1   
167  1   
168  1   
169  1   
170  1   
171  1   
172  1   
173  1   
174  1   
175  1   
176  1   
177  1   
178  1   
179  1   
180  1   
181  1   
182  1   
183  1   
184  1   
185  1   
186  1   
187  1   
188  1   
189  1   
190  1   
191  1   
192  1   
193  1   
194  1   
195  1   
196  1   
197  1   
198  1   
199  1   
200  1   
201  1   
202  1   
203  1   
204  1   
205  1   
206  1   
207  1   
208  1   
209  1   
210  1   
211  1   
212  1   
213  1   
214  1   
215  1   
216  1   
217  1   
218  1   
219  1   
220  1   
221  1   
222  1   
223  1   
224  1   
225  1   
226  1   
227  1   
228  1   
229  1   
230  1   
231  1   
232  1   
233  1   
234  1   
235  1   
236  1   
237  1   
238  1   
239  1   
240  1   
241  1   
242  1   
243  1   
244  1   
245  1   
246  1   
247  1   
248  1   
249  1   
250  1   
251  1   
252  1   
253  1   
254  1   
255  1   
256  1   
257  1   
258  1   
259  1   
260  1   
261  1   
262  1   
263  1   
264  1   
265  1   
266  1   
267  1   
268  1   
269  1   
270  1   
271  1   
272  1   
273  1   
274  1   
275  1   
276  1   
277  1   
278  1   
279  1   
280  1   
281  1   
282  1   
283  1   
284  1   
285  1   
286  1   
287  1   
288  1   
289  1   
290  1   
291  1   
292  1   
293  1   
294  1   
295  1   
296  1   
297  1   
298  1   
299  1   
300  1   
301  1   
302  1   
303  1   
304  1   
305  1   
306  1   
307  1   
308  1   
309  1   
310  1   
311  1   
312  1   
313  1   
314  1   
315  1   
316  1   
317  1   
318  1   
319  1   
320  1   
321  1   
322  1   
323  1   
324  1   
325  1   
326  1   
327  1   
328  1   
329  1   
330  1   
331  1   
332  1   
333  1   
334  1   
335  1   
336  1   
337  1   
338  1   
339  1   
340  1   
341  1   
342  1   
343  1   
344  1   
345  1   
346  1   
347  1   
348  1   
349  1   
350  1   
351  1   
352  1   
353  1   
354  1   
355  1   
356  1   
357  1   
358  1   
359  1   
360  1   
361  1   
362  1   
363  1   
364  1   
365  1   
366  1   
367  1   
368  1   
369  1   
370  1   
371  1   
372  1   
373  1   
374  1   
375  1   
376  1   
377  1   
378  1   
379  1   
380  1   
381  1   
382  1   
383  1   
384  1   
385  1   
386  1   
387  1   
388  1   
389  1   
390  1   
391  1   
392  1   
393  1   
394  1   
395  1   
396  1   
397  1   
398  1   
399  1   
400  1   
401  1   
402  1   
403  1   
404  1   
405  1   
406  1   
407  1   
408  1   
409  1   
410  1   
411  1   
412  1   
413  1   
414  1   
415  1   
416  1   
417  1   
418  1   
419  1   
420  1   
421  1   
422  1   
423  1   
424  1   
425  1   
426  1   
427  1   
428  1   
429  1   
430  1   
431  1   
432  1   
433  1   
434  1   
435  1   
436  1   
437  1   
438  1   
439  1   
440  1   
441  1   
442  1   
443  1   
444  1   
445  1   
446  1   
447  1   
448  1   
449  1   
450  1   
451  1   
452  1   
453  1   
454  1   
455  1   
456  1   
457  1   
458  1   
459  1   
460  1   
461  1   
462  1   
463  1   
464  1   
465  1   
466  1   
467  1   
468  1   
469  1   
470  1   
471  1   
472  1   
473  1   
474  1   
475  1   
476  1   
477  1   
478  1   
479  1   
480  1   
481  1   
482  1   
483  1   
484  1   
485  1   
486  1   
487  1   
488  1   
489  1   
490  1   
491  1   
492  1   
493  1   
494  1   
495  1   
496  1   
497  1   
498  1   
499  1   
500  1   
501  1   
502  1   
503  1   
504  1   
505  1   
506  1   
507  1   
508  1   
509  1   
510  1   
511  1   
512  1   
513  1   
514  1   
515  1   
516  1   
517  1   
518  1   
519  1   
520  1   
521  1   
522  1   
523  1   
524  1   
525  1   
526  1   
527  1   
528  1   
529  1   
530  1   
531  1   
532  1   
533  1   
534  1   
535  1   
536  1   
537  1   
538  1   
539  1   
540  1   
541  1   
542  1   
543  1   
544  1   
545  1   
546  1   
547  1   
548  1   
549  1   
550  1   
551  1   
552  1   
553  1   
554  1   
555  1   
556  1   
557  1   
558  1   
559  1   
560  1   
561  1   
562  1   
563  1   
564  1   
565  1   
566  1   
567  1   
568  1   
569  1   
570  1   
571  1   
572  1   
573  1   
574  1   
575  1   
576  1   
577  1   
578  1   
579  1   
580  1   
581  1   
582  1   
583  1   
584  1   
585  1   
586  1   
587  1   
588  1   
589  1   
590  1   
591  1   
592  1   
593  1   
594  1   
595  1   
596  1   
597  1   
598  1   
599  1   
600  1   
601  1   
602  1   
603  1   
604  1   
605  1   
606  1   
607  1   
608  1   
609  1   
610  1   
611  1   
612  1   
613  1   
614  1   
615  1   
616  1   
617  1   
618  1   
619  1   
620  1   
621  1   
622  1   
623  1   
624  1   
625  1   
626  1   
627  1   
628  1   
629  1   
630  1   
631  1   
632  1   
633  1   
634  1   
635  1   
636  1   
637  1   
638  1   
639  1   
640  1   
641  1   
642  1   
643  1   
644  1   
645  1   
646  1   
647  1   
648  1   
649  1   
650  1   
651  1   
652  1   
653  1   
654  1   
655  1   
656  1   
657  1   
658  1   
659  1   
660  1   
661  1   
662  1   
663  1   
664  1   
665  1   
666  1   
667  1   
668  1   
669  1   
670  1   
671  1   
672  1   
673  1   
674  1   
675  1   
676  1   
677  1   
678  1   
679  1   
680  1   
681  1   
682  1   
683  1   
684  1   
685  1   
686  1   
687  1   
688  1   
689  1   
690  1   
691  1   
692  1   
693  1   
694  1   
695  1   
696  1   
697  1   
698  1   
699  1   
700  1   
701  1   
702  1   
703  1   
704  1   
705  1   
706  1   
707  1   
708  1   
709  1   
710  1   
711  1   
712  1   
713  1   
714  1   
715  1   
716  1   
717  1   
718  1   
719  1   
720  1   
721  1   
722  1   
723  1   
724  1   
725  1   
726  1   
727  1   
728  1   
729  1   
730  1   
731  1   
732  1   
733  1   
734  1   
735  1   
736  1   
737  1   
738  1   
739  1   
740  1   
741  1   
742  1   
743  1   
744  1   
745  1   
746  1   
747  1   
748  1   
749  1   
750  1   
751  1   
752  1   
753  1   
754  1   
755  1   
756  1   
757  1   
758  1   
759  1   
760  1   
761  1   
762  1   
763  1   
764  1   
765  1   
766  1   
767  1   
768  1   
769  1   
770  1   
771  1   
772  1   
773  1   
774  1   
775  1   
776  1   
777  1   
778  1   
779  1   
780  1   
781  1   
782  1   
783  1   
784  1   
785  1   
786  1   
787  1   
788  1   
789  1   
790  1   
791  1   
792  1   
793  1   
794  1   
795  1   
796  1   
797  1   
798  1   
799  1   
800  1   
801  1   
802  1   
803  1   
804  1   
805  1   
806  1   
807  1   
808  1   
809  1   
810  1   
811  1   
812  1   
813  1   
814  1   
815  1   
816  1   
817  1   
818  1   
819  1   
820  1   
821  1   
822  1   
823  1   
824  1   
825  1   
826  1   
827  1   
828  1   
829  1   
830  1   
831  1   
832  1   
833  1   
834  1   
835  1   
836  1   
837  1   
838  1   
839  1   
840  1   
841  1   
842  1   
843  1   
844  1   
845  1   
846  1   
847  1   
848  1   
849  1   
850  1   
851  1   
852  1   
853  1   
854  1   
855  1   
856  1   
857  1   
858  1   
859  1   
860  1   
861  1   
862  1   
863  1   
864  1   
865  1   
866  1   
867  1   
868  1   
869  1   
870  1   
871  1   
872  1   
873  1   
874  1   
875  1   
876  1   
877  1   
878  1   
879  1   
880  1   
881  1   
882  1   
883  1   
884  1   
885  1   
886  1   
887  1   
888  1   
889  1   
890  1   
891  1   
892  1   
893  1   
894  1   
895  1   
896  1   
897  1   
898  1   
899  1   
900  1   
901  1   
902  1   
903  1   
904  1   
905  1   
906  1   
907  1   
908  1   
909  1   
910  1   
911  1   
912  1   
913  1   
914  1   
915  1   
916  1   
917  1   
918  1   
919  1   
920  1   
921  1   
922  1   
923  1   
924  1   
925  1   
926  1   
927  1   
928  1   
929  1   
930  1   
931  1   
932  1   
933  1   
934  1   
935  1   
936  1   
937  1   
938  1   
939  1   
940  1   
941  1   
942  1   
943  1   
944  1   
945  1   
946  1   
947  1   
948  1   
949  1   
950  1   
951  1   
952  1   
953  1   
954  1   
955  1   
956  1   
957  1   
958  1   
959  1   
960  1   
961  1   
962  1   
963  1   
964  1   
965  1   
966  1   
967  1   
968  1   
969  1   
970  1   
971  1   
972  1   
973  1   
974  1   
975  1   
976  1   
977  1   
978  1   
979  1   
980  1   
981  1   
982  1   
983  1   
984  1   
985  1   
986  1   
987  1   
988  1   
989  1   
990  1   
991  1   
992  1   
993  1   
994  1   
995  1   
996  1   
997  1   
998  1   
999  1   
1000 1   
1001 1   
DEPOT_SECTION
1
-1
EOF
