NAME : XML1000_3152_51
COMMENT : Generated as the XML100 dataset from the CVRPLIB
TYPE : CVRP
DIMENSION : 1001
EDGE_WEIGHT_TYPE : EUC_2D
CAPACITY : 546
NODE_COORD_SECTION
1    0    0   
2    726  927 
3    152  911 
4    45   129 
5    123  466 
6    417  684 
7    995  157 
8    325  610 
9    121  533 
10   532  265 
11   774  445 
12   730  268 
13   806  901 
14   248  753 
15   581  136 
16   501  930 
17   757  868 
18   37   408 
19   818  219 
20   702  453 
21   447  154 
22   892  922 
23   968  661 
24   821  651 
25   738  882 
26   581  428 
27   71   406 
28   817  110 
29   282  769 
30   796  563 
31   452  753 
32   629  584 
33   92   218 
34   704  498 
35   846  411 
36   753  610 
37   912  356 
38   740  173 
39   89   966 
40   338  624 
41   881  405 
42   583  473 
43   121  537 
44   287  987 
45   424  547 
46   477  46  
47   801  781 
48   110  936 
49   394  39  
50   167  6   
51   155  288 
52   989  203 
53   875  101 
54   178  271 
55   790  133 
56   152  618 
57   371  931 
58   197  113 
59   924  469 
60   359  975 
61   591  180 
62   963  159 
63   671  716 
64   567  70  
65   384  632 
66   318  49  
67   725  287 
68   228  622 
69   181  937 
70   556  851 
71   711  370 
72   65   753 
73   279  713 
74   162  942 
75   268  685 
76   374  38  
77   664  533 
78   700  626 
79   437  890 
80   233  346 
81   332  697 
82   396  471 
83   183  89  
84   45   802 
85   525  872 
86   58   741 
87   606  290 
88   998  814 
89   194  354 
90   395  771 
91   585  761 
92   985  484 
93   421  253 
94   929  961 
95   913  199 
96   782  533 
97   730  770 
98   749  356 
99   553  292 
100  581  409 
101  240  735 
102  145  336 
103  478  625 
104  137  94  
105  543  791 
106  389  971 
107  189  122 
108  575  841 
109  245  688 
110  226  693 
111  194  484 
112  27   883 
113  342  895 
114  129  522 
115  93   837 
116  7    267 
117  760  96  
118  869  12  
119  817  212 
120  766  566 
121  782  16  
122  916  334 
123  425  273 
124  635  92  
125  194  996 
126  335  846 
127  462  429 
128  863  355 
129  636  703 
130  605  734 
131  308  856 
132  626  766 
133  544  736 
134  974  698 
135  307  482 
136  10   515 
137  362  854 
138  684  716 
139  369  475 
140  483  735 
141  331  857 
142  366  308 
143  876  1   
144  655  856 
145  463  277 
146  803  187 
147  876  913 
148  288  96  
149  664  932 
150  668  884 
151  569  258 
152  928  456 
153  260  662 
154  527  508 
155  68   92  
156  257  922 
157  996  349 
158  276  783 
159  909  52  
160  311  902 
161  900  888 
162  796  660 
163  530  550 
164  372  122 
165  540  316 
166  244  592 
167  872  170 
168  430  728 
169  445  591 
170  445  600 
171  922  912 
172  699  745 
173  976  892 
174  573  102 
175  218  292 
176  563  592 
177  117  255 
178  899  132 
179  989  35  
180  618  119 
181  721  104 
182  24   701 
183  938  636 
184  638  106 
185  224  70  
186  382  656 
187  492  815 
188  259  186 
189  396  173 
190  895  912 
191  953  508 
192  917  671 
193  780  684 
194  781  936 
195  5    678 
196  382  9   
197  474  510 
198  693  823 
199  138  332 
200  306  526 
201  498  876 
202  717  524 
203  555  364 
204  242  371 
205  424  936 
206  720  4   
207  495  560 
208  1000 714 
209  317  392 
210  955  154 
211  836  215 
212  801  27  
213  540  302 
214  234  632 
215  194  986 
216  743  271 
217  647  294 
218  921  39  
219  986  7   
220  25   665 
221  895  804 
222  222  1   
223  895  377 
224  445  168 
225  21   286 
226  793  128 
227  61   322 
228  396  550 
229  455  636 
230  883  430 
231  571  173 
232  866  835 
233  81   556 
234  12   295 
235  651  538 
236  994  401 
237  252  541 
238  182  315 
239  826  426 
240  715  967 
241  988  964 
242  404  526 
243  952  651 
244  312  34  
245  822  294 
246  44   619 
247  391  754 
248  83   885 
249  890  29  
250  442  418 
251  32   394 
252  327  589 
253  254  376 
254  745  586 
255  293  694 
256  329  397 
257  700  462 
258  450  507 
259  157  681 
260  654  166 
261  814  155 
262  820  616 
263  526  911 
264  302  263 
265  643  175 
266  274  708 
267  523  509 
268  876  386 
269  409  97  
270  908  91  
271  706  887 
272  830  428 
273  23   61  
274  302  519 
275  915  890 
276  819  764 
277  706  240 
278  620  954 
279  547  76  
280  868  549 
281  833  15  
282  754  527 
283  809  561 
284  289  418 
285  966  526 
286  550  230 
287  315  336 
288  117  110 
289  908  194 
290  246  749 
291  562  451 
292  640  541 
293  658  675 
294  301  276 
295  69   707 
296  810  144 
297  460  449 
298  635  63  
299  203  140 
300  57   562 
301  771  472 
302  275  812 
303  510  953 
304  189  214 
305  206  959 
306  620  1   
307  953  201 
308  354  705 
309  804  258 
310  39   46  
311  788  12  
312  437  303 
313  116  495 
314  365  296 
315  15   601 
316  695  180 
317  700  295 
318  337  243 
319  891  271 
320  761  143 
321  627  427 
322  288  67  
323  229  646 
324  178  1000
325  256  901 
326  370  505 
327  339  261 
328  944  390 
329  40   639 
330  922  353 
331  984  575 
332  881  828 
333  78   751 
334  86   99  
335  839  593 
336  737  963 
337  114  179 
338  382  259 
339  421  834 
340  551  315 
341  412  120 
342  814  527 
343  833  540 
344  748  829 
345  189  200 
346  483  418 
347  260  251 
348  497  353 
349  951  663 
350  301  945 
351  943  668 
352  305  21  
353  273  199 
354  145  279 
355  971  757 
356  23   24  
357  858  709 
358  94   978 
359  750  627 
360  358  23  
361  485  64  
362  454  485 
363  455  877 
364  566  299 
365  563  401 
366  442  529 
367  70   877 
368  517  443 
369  528  443 
370  69   652 
371  85   529 
372  816  83  
373  558  322 
374  385  879 
375  74   776 
376  170  573 
377  152  21  
378  321  644 
379  527  474 
380  416  732 
381  2    607 
382  42   24  
383  697  95  
384  936  377 
385  465  535 
386  643  142 
387  347  418 
388  83   955 
389  228  955 
390  187  774 
391  732  726 
392  588  462 
393  64   694 
394  280  584 
395  38   831 
396  239  317 
397  696  660 
398  403  407 
399  332  792 
400  576  97  
401  660  823 
402  458  599 
403  220  569 
404  350  279 
405  653  289 
406  514  796 
407  597  156 
408  401  748 
409  817  397 
410  824  445 
411  235  41  
412  999  306 
413  836  666 
414  915  569 
415  939  697 
416  761  910 
417  781  587 
418  412  604 
419  803  260 
420  977  144 
421  991  707 
422  385  748 
423  371  185 
424  934  173 
425  126  646 
426  379  863 
427  597  686 
428  377  893 
429  624  523 
430  437  50  
431  725  853 
432  443  884 
433  859  524 
434  524  454 
435  724  717 
436  886  788 
437  693  986 
438  968  687 
439  740  981 
440  275  909 
441  812  192 
442  443  484 
443  652  716 
444  809  532 
445  403  411 
446  330  436 
447  339  655 
448  828  554 
449  675  461 
450  240  542 
451  370  481 
452  897  7   
453  809  788 
454  958  642 
455  385  631 
456  389  351 
457  801  39  
458  546  743 
459  984  798 
460  279  717 
461  372  954 
462  655  906 
463  30   430 
464  992  918 
465  643  523 
466  127  201 
467  884  320 
468  382  738 
469  257  487 
470  916  788 
471  183  785 
472  331  116 
473  604  778 
474  214  772 
475  181  604 
476  703  509 
477  661  265 
478  344  320 
479  78   457 
480  366  88  
481  10   322 
482  337  61  
483  706  44  
484  200  74  
485  374  864 
486  766  723 
487  403  244 
488  991  832 
489  575  625 
490  212  951 
491  443  991 
492  797  985 
493  127  596 
494  992  904 
495  88   772 
496  33   836 
497  634  787 
498  916  109 
499  784  237 
500  516  395 
501  575  481 
502  716  93  
503  583  494 
504  968  165 
505  424  339 
506  546  841 
507  553  480 
508  16   639 
509  504  951 
510  976  25  
511  661  251 
512  101  835 
513  459  818 
514  605  118 
515  403  401 
516  886  607 
517  439  571 
518  177  574 
519  247  657 
520  86   47  
521  390  300 
522  997  749 
523  916  248 
524  74   329 
525  884  710 
526  933  157 
527  49   272 
528  641  812 
529  719  484 
530  683  311 
531  951  629 
532  753  635 
533  531  281 
534  352  529 
535  526  840 
536  426  762 
537  946  114 
538  235  300 
539  164  914 
540  666  505 
541  689  80  
542  631  386 
543  176  71  
544  538  167 
545  681  890 
546  768  620 
547  189  22  
548  467  134 
549  40   982 
550  897  383 
551  900  519 
552  822  618 
553  657  285 
554  676  146 
555  940  848 
556  831  276 
557  636  91  
558  805  803 
559  27   374 
560  275  58  
561  72   516 
562  336  980 
563  798  755 
564  167  781 
565  992  867 
566  648  163 
567  713  558 
568  984  774 
569  817  130 
570  946  15  
571  384  230 
572  805  641 
573  76   504 
574  947  981 
575  698  951 
576  814  717 
577  858  396 
578  804  425 
579  991  669 
580  212  550 
581  840  644 
582  679  928 
583  590  96  
584  690  183 
585  856  481 
586  471  252 
587  536  372 
588  175  101 
589  338  653 
590  45   638 
591  955  194 
592  826  309 
593  85   445 
594  623  120 
595  294  448 
596  702  926 
597  81   978 
598  501  527 
599  239  530 
600  485  43  
601  793  397 
602  220  764 
603  95   513 
604  543  789 
605  439  988 
606  192  702 
607  443  55  
608  545  551 
609  494  100 
610  483  100 
611  660  398 
612  139  299 
613  557  952 
614  138  987 
615  191  337 
616  411  489 
617  225  735 
618  567  108 
619  580  554 
620  794  236 
621  517  754 
622  863  735 
623  178  403 
624  872  582 
625  876  305 
626  902  443 
627  626  261 
628  717  379 
629  513  729 
630  316  611 
631  974  858 
632  763  266 
633  146  307 
634  40   536 
635  365  503 
636  660  775 
637  209  750 
638  256  834 
639  615  367 
640  324  987 
641  469  322 
642  54   974 
643  545  717 
644  19   342 
645  485  285 
646  565  128 
647  94   134 
648  262  365 
649  454  953 
650  70   680 
651  294  70  
652  559  490 
653  601  743 
654  132  493 
655  384  229 
656  639  855 
657  484  990 
658  453  319 
659  894  80  
660  366  836 
661  889  877 
662  832  504 
663  255  191 
664  457  725 
665  492  692 
666  762  287 
667  407  715 
668  466  374 
669  168  442 
670  5    982 
671  594  303 
672  317  669 
673  4    209 
674  890  73  
675  27   979 
676  228  75  
677  305  295 
678  358  450 
679  458  546 
680  571  841 
681  471  992 
682  122  987 
683  286  699 
684  319  220 
685  206  828 
686  535  775 
687  774  135 
688  495  958 
689  435  916 
690  675  925 
691  971  420 
692  852  567 
693  642  92  
694  376  885 
695  582  50  
696  491  606 
697  681  596 
698  713  390 
699  422  583 
700  151  519 
701  291  679 
702  517  753 
703  651  415 
704  969  87  
705  302  837 
706  244  576 
707  370  140 
708  874  752 
709  875  717 
710  719  540 
711  601  185 
712  44   896 
713  835  501 
714  597  709 
715  657  485 
716  999  603 
717  708  796 
718  448  73  
719  626  525 
720  365  66  
721  94   753 
722  163  871 
723  764  175 
724  815  549 
725  899  381 
726  833  18  
727  973  843 
728  785  554 
729  995  98  
730  532  197 
731  585  200 
732  876  910 
733  36   30  
734  93   802 
735  630  360 
736  742  839 
737  60   634 
738  969  73  
739  410  338 
740  886  685 
741  694  106 
742  468  545 
743  918  525 
744  22   122 
745  704  574 
746  236  329 
747  225  805 
748  957  336 
749  256  545 
750  830  808 
751  514  23  
752  957  763 
753  695  98  
754  498  69  
755  134  565 
756  175  566 
757  702  3   
758  538  151 
759  530  803 
760  958  966 
761  309  557 
762  655  965 
763  175  584 
764  262  85  
765  538  654 
766  340  4   
767  130  698 
768  825  994 
769  733  66  
770  986  292 
771  732  348 
772  234  755 
773  855  199 
774  398  103 
775  639  166 
776  115  825 
777  176  841 
778  444  893 
779  622  113 
780  489  654 
781  680  850 
782  370  288 
783  163  313 
784  528  734 
785  640  121 
786  990  756 
787  897  61  
788  398  377 
789  662  554 
790  237  518 
791  438  935 
792  920  422 
793  33   877 
794  875  945 
795  661  607 
796  802  830 
797  728  526 
798  13   410 
799  481  240 
800  375  506 
801  824  94  
802  444  358 
803  165  138 
804  149  697 
805  416  623 
806  243  942 
807  990  886 
808  655  816 
809  418  86  
810  897  429 
811  653  706 
812  802  695 
813  411  675 
814  724  92  
815  895  895 
816  197  346 
817  232  560 
818  470  361 
819  592  58  
820  643  707 
821  341  485 
822  702  604 
823  326  860 
824  34   572 
825  551  66  
826  404  523 
827  842  925 
828  903  755 
829  298  96  
830  795  911 
831  581  988 
832  189  863 
833  797  603 
834  742  11  
835  373  28  
836  634  338 
837  344  895 
838  295  890 
839  127  232 
840  742  923 
841  176  521 
842  641  880 
843  671  881 
844  700  706 
845  369  21  
846  218  764 
847  6    118 
848  972  756 
849  236  4   
850  286  261 
851  244  682 
852  411  670 
853  890  812 
854  402  701 
855  287  900 
856  696  25  
857  624  823 
858  370  22  
859  511  388 
860  441  540 
861  3    494 
862  770  230 
863  281  429 
864  553  619 
865  435  505 
866  187  13  
867  838  212 
868  462  379 
869  686  999 
870  942  31  
871  171  163 
872  334  59  
873  609  654 
874  280  88  
875  361  552 
876  342  548 
877  436  326 
878  580  209 
879  399  444 
880  632  228 
881  74   495 
882  276  221 
883  527  858 
884  304  310 
885  573  834 
886  670  785 
887  245  660 
888  474  65  
889  142  495 
890  3    965 
891  911  457 
892  775  825 
893  412  773 
894  701  220 
895  67   995 
896  512  442 
897  30   33  
898  856  926 
899  248  94  
900  272  973 
901  507  363 
902  892  34  
903  816  215 
904  869  307 
905  492  82  
906  16   400 
907  72   26  
908  408  259 
909  347  676 
910  650  924 
911  446  618 
912  686  877 
913  513  815 
914  849  486 
915  579  900 
916  464  541 
917  238  854 
918  623  439 
919  365  818 
920  283  349 
921  912  560 
922  395  23  
923  971  219 
924  998  749 
925  753  405 
926  629  864 
927  940  497 
928  569  77  
929  272  703 
930  824  276 
931  958  932 
932  659  883 
933  943  413 
934  414  805 
935  596  934 
936  333  978 
937  650  407 
938  304  426 
939  172  606 
940  473  207 
941  184  617 
942  421  453 
943  164  284 
944  718  807 
945  838  485 
946  172  624 
947  161  615 
948  154  347 
949  74   894 
950  432  184 
951  133  800 
952  270  787 
953  122  296 
954  813  568 
955  799  633 
956  985  769 
957  319  908 
958  870  37  
959  490  808 
960  26   426 
961  358  509 
962  846  592 
963  593  650 
964  710  668 
965  221  113 
966  133  0   
967  459  12  
968  20   141 
969  88   523 
970  942  645 
971  961  695 
972  342  3   
973  205  779 
974  821  782 
975  349  307 
976  328  751 
977  705  836 
978  90   65  
979  870  814 
980  494  643 
981  31   882 
982  501  688 
983  369  639 
984  160  227 
985  389  474 
986  65   404 
987  946  818 
988  275  223 
989  552  769 
990  180  498 
991  278  377 
992  254  694 
993  525  105 
994  936  243 
995  669  280 
996  824  163 
997  301  635 
998  914  969 
999  771  404 
1000 13   506 
1001 134  476 
DEMAND_SECTION
1    0   
2    73  
3    96  
4    94  
5    96  
6    64  
7    91  
8    61  
9    89  
10   52  
11   59  
12   60  
13   54  
14   69  
15   65  
16   84  
17   59  
18   84  
19   99  
20   72  
21   94  
22   53  
23   86  
24   94  
25   80  
26   78  
27   77  
28   71  
29   67  
30   72  
31   81  
32   88  
33   50  
34   73  
35   74  
36   60  
37   74  
38   81  
39   60  
40   50  
41   50  
42   65  
43   82  
44   74  
45   68  
46   53  
47   65  
48   80  
49   68  
50   74  
51   71  
52   93  
53   59  
54   77  
55   53  
56   50  
57   81  
58   91  
59   81  
60   51  
61   63  
62   91  
63   76  
64   58  
65   81  
66   100 
67   78  
68   59  
69   81  
70   74  
71   79  
72   95  
73   91  
74   76  
75   90  
76   84  
77   88  
78   59  
79   58  
80   51  
81   54  
82   66  
83   74  
84   67  
85   93  
86   86  
87   51  
88   75  
89   68  
90   73  
91   72  
92   99  
93   52  
94   64  
95   97  
96   60  
97   61  
98   79  
99   62  
100  87  
101  94  
102  67  
103  89  
104  95  
105  89  
106  82  
107  90  
108  52  
109  99  
110  75  
111  90  
112  60  
113  62  
114  50  
115  73  
116  93  
117  53  
118  55  
119  66  
120  62  
121  90  
122  77  
123  86  
124  64  
125  95  
126  72  
127  57  
128  63  
129  57  
130  98  
131  55  
132  68  
133  84  
134  74  
135  90  
136  68  
137  79  
138  97  
139  95  
140  71  
141  51  
142  61  
143  91  
144  65  
145  81  
146  77  
147  82  
148  57  
149  96  
150  96  
151  99  
152  100 
153  57  
154  57  
155  91  
156  74  
157  69  
158  51  
159  66  
160  59  
161  55  
162  79  
163  65  
164  59  
165  97  
166  57  
167  89  
168  62  
169  80  
170  65  
171  60  
172  90  
173  56  
174  51  
175  93  
176  88  
177  62  
178  81  
179  75  
180  97  
181  96  
182  51  
183  62  
184  83  
185  52  
186  51  
187  63  
188  50  
189  88  
190  51  
191  80  
192  62  
193  75  
194  53  
195  96  
196  71  
197  66  
198  81  
199  84  
200  70  
201  55  
202  56  
203  67  
204  96  
205  94  
206  68  
207  97  
208  53  
209  61  
210  98  
211  76  
212  87  
213  57  
214  72  
215  51  
216  85  
217  88  
218  76  
219  66  
220  100 
221  68  
222  85  
223  91  
224  78  
225  67  
226  67  
227  66  
228  53  
229  58  
230  90  
231  80  
232  62  
233  92  
234  69  
235  95  
236  97  
237  81  
238  61  
239  57  
240  57  
241  88  
242  61  
243  96  
244  56  
245  86  
246  50  
247  84  
248  64  
249  59  
250  88  
251  54  
252  77  
253  53  
254  74  
255  78  
256  62  
257  100 
258  80  
259  50  
260  89  
261  90  
262  83  
263  86  
264  68  
265  70  
266  78  
267  53  
268  98  
269  77  
270  68  
271  92  
272  89  
273  73  
274  80  
275  59  
276  58  
277  63  
278  60  
279  99  
280  62  
281  81  
282  90  
283  54  
284  92  
285  95  
286  68  
287  97  
288  89  
289  57  
290  99  
291  73  
292  56  
293  76  
294  75  
295  54  
296  62  
297  55  
298  83  
299  67  
300  86  
301  86  
302  58  
303  90  
304  96  
305  93  
306  86  
307  90  
308  83  
309  95  
310  86  
311  89  
312  64  
313  90  
314  92  
315  76  
316  83  
317  68  
318  88  
319  87  
320  100 
321  67  
322  98  
323  50  
324  58  
325  98  
326  95  
327  83  
328  67  
329  56  
330  71  
331  70  
332  93  
333  52  
334  66  
335  99  
336  52  
337  63  
338  100 
339  62  
340  66  
341  85  
342  67  
343  59  
344  59  
345  67  
346  61  
347  89  
348  65  
349  95  
350  90  
351  100 
352  53  
353  91  
354  92  
355  96  
356  54  
357  96  
358  71  
359  78  
360  61  
361  68  
362  52  
363  62  
364  85  
365  90  
366  85  
367  68  
368  60  
369  54  
370  52  
371  96  
372  75  
373  95  
374  96  
375  94  
376  80  
377  90  
378  90  
379  98  
380  90  
381  54  
382  70  
383  60  
384  85  
385  73  
386  93  
387  90  
388  61  
389  57  
390  74  
391  74  
392  61  
393  90  
394  98  
395  96  
396  80  
397  82  
398  91  
399  54  
400  69  
401  97  
402  71  
403  72  
404  89  
405  55  
406  61  
407  92  
408  51  
409  72  
410  68  
411  81  
412  68  
413  59  
414  80  
415  98  
416  80  
417  86  
418  54  
419  79  
420  77  
421  88  
422  62  
423  61  
424  84  
425  71  
426  61  
427  92  
428  83  
429  63  
430  73  
431  76  
432  70  
433  55  
434  99  
435  100 
436  81  
437  55  
438  90  
439  68  
440  71  
441  50  
442  61  
443  74  
444  72  
445  91  
446  78  
447  100 
448  58  
449  93  
450  90  
451  73  
452  86  
453  85  
454  51  
455  61  
456  80  
457  87  
458  62  
459  71  
460  52  
461  79  
462  93  
463  79  
464  73  
465  65  
466  87  
467  55  
468  50  
469  69  
470  56  
471  79  
472  88  
473  90  
474  91  
475  95  
476  84  
477  68  
478  50  
479  50  
480  93  
481  64  
482  62  
483  61  
484  93  
485  53  
486  71  
487  80  
488  88  
489  87  
490  61  
491  82  
492  57  
493  90  
494  73  
495  98  
496  79  
497  55  
498  100 
499  96  
500  56  
501  53  
502  78  
503  66  
504  51  
505  73  
506  88  
507  75  
508  77  
509  67  
510  60  
511  74  
512  92  
513  76  
514  65  
515  74  
516  94  
517  70  
518  74  
519  75  
520  99  
521  65  
522  84  
523  78  
524  57  
525  97  
526  50  
527  69  
528  54  
529  85  
530  90  
531  88  
532  86  
533  94  
534  50  
535  77  
536  57  
537  77  
538  62  
539  62  
540  96  
541  58  
542  73  
543  77  
544  65  
545  56  
546  76  
547  87  
548  95  
549  98  
550  97  
551  72  
552  71  
553  67  
554  71  
555  95  
556  66  
557  56  
558  98  
559  73  
560  88  
561  99  
562  59  
563  68  
564  55  
565  59  
566  81  
567  52  
568  72  
569  79  
570  59  
571  58  
572  66  
573  58  
574  73  
575  80  
576  61  
577  51  
578  74  
579  96  
580  51  
581  96  
582  90  
583  93  
584  60  
585  100 
586  83  
587  59  
588  78  
589  73  
590  66  
591  89  
592  58  
593  62  
594  72  
595  84  
596  86  
597  71  
598  53  
599  96  
600  92  
601  59  
602  50  
603  55  
604  94  
605  77  
606  62  
607  72  
608  75  
609  74  
610  59  
611  95  
612  67  
613  63  
614  80  
615  91  
616  81  
617  76  
618  76  
619  55  
620  72  
621  52  
622  56  
623  85  
624  58  
625  54  
626  83  
627  62  
628  98  
629  95  
630  57  
631  65  
632  77  
633  82  
634  60  
635  81  
636  79  
637  62  
638  95  
639  51  
640  77  
641  85  
642  77  
643  55  
644  82  
645  66  
646  65  
647  66  
648  71  
649  73  
650  60  
651  72  
652  82  
653  83  
654  91  
655  54  
656  97  
657  76  
658  87  
659  87  
660  76  
661  75  
662  86  
663  58  
664  52  
665  61  
666  89  
667  96  
668  92  
669  63  
670  96  
671  57  
672  52  
673  88  
674  71  
675  55  
676  88  
677  93  
678  51  
679  71  
680  57  
681  81  
682  75  
683  96  
684  96  
685  97  
686  66  
687  68  
688  61  
689  72  
690  67  
691  73  
692  81  
693  98  
694  55  
695  86  
696  99  
697  88  
698  71  
699  50  
700  64  
701  56  
702  64  
703  76  
704  60  
705  76  
706  74  
707  84  
708  70  
709  85  
710  76  
711  60  
712  78  
713  88  
714  66  
715  76  
716  64  
717  87  
718  65  
719  88  
720  98  
721  62  
722  94  
723  93  
724  67  
725  70  
726  67  
727  77  
728  96  
729  56  
730  83  
731  75  
732  93  
733  91  
734  67  
735  76  
736  89  
737  96  
738  53  
739  76  
740  99  
741  73  
742  67  
743  74  
744  66  
745  91  
746  62  
747  95  
748  90  
749  100 
750  95  
751  52  
752  63  
753  74  
754  67  
755  84  
756  68  
757  89  
758  63  
759  50  
760  89  
761  94  
762  98  
763  68  
764  84  
765  67  
766  51  
767  52  
768  94  
769  76  
770  100 
771  94  
772  91  
773  96  
774  86  
775  58  
776  95  
777  81  
778  87  
779  73  
780  77  
781  87  
782  82  
783  84  
784  82  
785  85  
786  85  
787  61  
788  64  
789  89  
790  77  
791  92  
792  78  
793  62  
794  78  
795  64  
796  90  
797  83  
798  88  
799  68  
800  53  
801  93  
802  71  
803  84  
804  58  
805  97  
806  84  
807  72  
808  81  
809  83  
810  51  
811  51  
812  77  
813  84  
814  52  
815  64  
816  74  
817  52  
818  90  
819  52  
820  51  
821  59  
822  96  
823  51  
824  94  
825  80  
826  97  
827  64  
828  61  
829  50  
830  99  
831  89  
832  82  
833  58  
834  60  
835  69  
836  62  
837  78  
838  64  
839  63  
840  80  
841  97  
842  89  
843  93  
844  73  
845  54  
846  68  
847  73  
848  96  
849  85  
850  75  
851  82  
852  78  
853  94  
854  71  
855  91  
856  78  
857  92  
858  61  
859  66  
860  92  
861  83  
862  88  
863  55  
864  94  
865  97  
866  86  
867  78  
868  70  
869  94  
870  78  
871  69  
872  86  
873  50  
874  67  
875  61  
876  66  
877  57  
878  57  
879  84  
880  100 
881  98  
882  81  
883  72  
884  92  
885  85  
886  75  
887  84  
888  54  
889  81  
890  91  
891  80  
892  68  
893  98  
894  70  
895  92  
896  92  
897  78  
898  72  
899  93  
900  84  
901  74  
902  65  
903  83  
904  50  
905  81  
906  73  
907  66  
908  66  
909  68  
910  59  
911  57  
912  82  
913  86  
914  83  
915  75  
916  71  
917  93  
918  52  
919  88  
920  86  
921  79  
922  63  
923  98  
924  91  
925  54  
926  62  
927  60  
928  65  
929  65  
930  84  
931  70  
932  67  
933  89  
934  99  
935  76  
936  98  
937  79  
938  67  
939  68  
940  96  
941  94  
942  99  
943  58  
944  52  
945  50  
946  82  
947  78  
948  100 
949  53  
950  74  
951  67  
952  86  
953  53  
954  51  
955  100 
956  88  
957  63  
958  50  
959  52  
960  86  
961  92  
962  50  
963  66  
964  69  
965  67  
966  79  
967  94  
968  85  
969  88  
970  78  
971  63  
972  68  
973  56  
974  72  
975  90  
976  66  
977  66  
978  68  
979  55  
980  53  
981  62  
982  54  
983  79  
984  74  
985  77  
986  90  
987  57  
988  58  
989  58  
990  85  
991  92  
992  63  
993  62  
994  98  
995  76  
996  86  
997  76  
998  74  
999  57  
1000 87  
1001 69  
DEPOT_SECTION
1
-1
EOF
