NAME : XML1000_2371_56
COMMENT : Generated as the XML100 dataset from the CVRPLIB
TYPE : CVRP
DIMENSION : 1001
EDGE_WEIGHT_TYPE : EUC_2D
CAPACITY : 121
NODE_COORD_SECTION
1    500  500 
2    701  187 
3    621  78  
4    733  130 
5    614  39  
6    669  136 
7    761  637 
8    625  48  
9    849  997 
10   676  32  
11   26   951 
12   582  86  
13   487  114 
14   571  104 
15   624  259 
16   488  97  
17   573  940 
18   752  274 
19   929  724 
20   604  110 
21   485  19  
22   200  206 
23   474  180 
24   849  197 
25   893  658 
26   659  73  
27   636  80  
28   184  454 
29   671  950 
30   628  85  
31   412  470 
32   142  457 
33   580  45  
34   421  775 
35   709  168 
36   699  136 
37   762  183 
38   658  373 
39   662  236 
40   683  48  
41   549  951 
42   539  111 
43   215  41  
44   623  6   
45   472  359 
46   475  117 
47   664  947 
48   317  345 
49   650  118 
50   20   378 
51   466  535 
52   364  11  
53   156  876 
54   50   477 
55   559  781 
56   668  32  
57   654  97  
58   747  990 
59   673  110 
60   764  494 
61   782  26  
62   626  929 
63   246  806 
64   674  182 
65   974  861 
66   720  954 
67   596  281 
68   620  211 
69   538  169 
70   667  808 
71   35   622 
72   324  734 
73   944  726 
74   561  570 
75   595  950 
76   815  50  
77   804  953 
78   522  975 
79   475  903 
80   144  129 
81   522  99  
82   673  887 
83   294  729 
84   383  11  
85   601  81  
86   613  55  
87   708  463 
88   424  704 
89   685  80  
90   613  967 
91   16   986 
92   322  931 
93   595  186 
94   677  85  
95   715  340 
96   656  956 
97   117  809 
98   751  928 
99   73   882 
100  922  419 
101  196  791 
102  603  135 
103  875  743 
104  394  528 
105  667  812 
106  890  94  
107  183  610 
108  652  15  
109  842  822 
110  546  57  
111  433  236 
112  693  968 
113  639  997 
114  366  57  
115  605  92  
116  652  24  
117  589  987 
118  667  659 
119  355  164 
120  627  861 
121  712  154 
122  795  597 
123  445  237 
124  653  86  
125  695  241 
126  710  1   
127  481  141 
128  486  494 
129  731  936 
130  613  68  
131  706  107 
132  633  46  
133  584  935 
134  653  113 
135  661  126 
136  508  33  
137  722  231 
138  741  244 
139  917  299 
140  813  498 
141  783  973 
142  34   388 
143  671  414 
144  243  205 
145  483  879 
146  891  426 
147  709  297 
148  616  69  
149  521  991 
150  921  952 
151  795  974 
152  891  444 
153  597  92  
154  71   153 
155  690  948 
156  626  793 
157  648  137 
158  236  220 
159  695  874 
160  787  481 
161  988  233 
162  640  44  
163  636  986 
164  407  596 
165  781  29  
166  595  131 
167  312  862 
168  886  850 
169  710  225 
170  276  271 
171  598  950 
172  442  810 
173  445  717 
174  761  181 
175  726  727 
176  818  343 
177  685  973 
178  719  44  
179  828  854 
180  314  651 
181  745  111 
182  779  589 
183  568  671 
184  260  945 
185  579  155 
186  676  106 
187  536  849 
188  761  64  
189  756  898 
190  706  879 
191  769  926 
192  755  97  
193  578  46  
194  690  287 
195  859  999 
196  703  980 
197  641  102 
198  368  758 
199  675  15  
200  735  960 
201  414  496 
202  215  259 
203  419  812 
204  306  288 
205  513  865 
206  375  406 
207  593  467 
208  529  702 
209  220  859 
210  788  166 
211  645  913 
212  511  922 
213  369  829 
214  737  996 
215  703  854 
216  987  860 
217  710  94  
218  263  448 
219  579  150 
220  754  429 
221  259  734 
222  497  206 
223  671  898 
224  704  428 
225  997  25  
226  699  987 
227  506  16  
228  697  160 
229  792  797 
230  311  106 
231  817  970 
232  752  105 
233  554  102 
234  629  105 
235  339  177 
236  404  14  
237  895  651 
238  684  59  
239  559  37  
240  672  997 
241  684  962 
242  349  892 
243  663  939 
244  638  348 
245  294  538 
246  564  170 
247  801  900 
248  218  152 
249  744  994 
250  715  958 
251  662  952 
252  744  109 
253  610  393 
254  988  973 
255  600  83  
256  822  532 
257  214  38  
258  536  565 
259  963  242 
260  712  898 
261  600  101 
262  603  991 
263  19   702 
264  128  380 
265  658  42  
266  488  543 
267  679  986 
268  608  50  
269  922  8   
270  615  336 
271  526  8   
272  892  721 
273  492  104 
274  657  976 
275  336  274 
276  630  65  
277  224  42  
278  809  970 
279  689  398 
280  570  32  
281  418  996 
282  507  906 
283  196  892 
284  607  993 
285  697  905 
286  395  445 
287  399  79  
288  519  889 
289  105  136 
290  669  995 
291  711  156 
292  656  495 
293  83   862 
294  792  1   
295  768  974 
296  599  122 
297  607  373 
298  773  909 
299  749  57  
300  7    741 
301  585  956 
302  916  570 
303  604  969 
304  987  194 
305  832  976 
306  243  432 
307  902  910 
308  56   197 
309  999  595 
310  620  10  
311  743  99  
312  700  933 
313  586  17  
314  363  363 
315  254  218 
316  558  44  
317  717  882 
318  730  821 
319  42   155 
320  902  366 
321  622  330 
322  865  237 
323  804  379 
324  242  365 
325  646  40  
326  639  1   
327  859  4   
328  577  178 
329  623  950 
330  229  929 
331  897  305 
332  467  730 
333  605  17  
334  637  238 
335  396  688 
336  785  222 
337  625  93  
338  878  700 
339  608  22  
340  621  379 
341  612  977 
342  499  115 
343  729  995 
344  616  282 
345  660  78  
346  706  850 
347  609  23  
348  393  655 
349  16   668 
350  955  925 
351  487  918 
352  684  956 
353  742  134 
354  328  903 
355  661  60  
356  750  236 
357  738  936 
358  573  185 
359  715  943 
360  525  145 
361  680  168 
362  662  43  
363  534  123 
364  725  81  
365  864  752 
366  636  152 
367  946  714 
368  719  257 
369  634  973 
370  531  54  
371  698  985 
372  603  976 
373  141  286 
374  790  48  
375  486  320 
376  710  977 
377  836  33  
378  619  175 
379  605  277 
380  615  977 
381  574  33  
382  618  67  
383  691  51  
384  728  994 
385  477  765 
386  827  79  
387  672  56  
388  631  15  
389  695  179 
390  369  27  
391  713  987 
392  21   369 
393  149  527 
394  698  468 
395  528  29  
396  525  796 
397  637  183 
398  53   550 
399  497  298 
400  566  141 
401  662  932 
402  737  41  
403  666  893 
404  403  928 
405  868  381 
406  283  127 
407  640  117 
408  795  894 
409  450  222 
410  369  148 
411  713  196 
412  690  194 
413  967  768 
414  704  138 
415  676  67  
416  165  745 
417  628  884 
418  896  964 
419  590  125 
420  627  538 
421  815  890 
422  355  88  
423  637  969 
424  618  71  
425  755  952 
426  512  956 
427  620  13  
428  489  991 
429  588  39  
430  599  704 
431  626  996 
432  372  268 
433  712  999 
434  460  128 
435  444  174 
436  544  777 
437  755  979 
438  465  633 
439  217  657 
440  311  813 
441  623  5   
442  711  127 
443  735  94  
444  358  763 
445  583  634 
446  729  23  
447  520  694 
448  663  87  
449  205  777 
450  641  157 
451  584  50  
452  572  234 
453  507  742 
454  784  889 
455  633  967 
456  174  35  
457  834  490 
458  656  978 
459  448  27  
460  688  36  
461  952  73  
462  817  922 
463  465  116 
464  454  879 
465  123  761 
466  120  436 
467  690  45  
468  877  564 
469  989  894 
470  738  229 
471  736  21  
472  680  535 
473  313  342 
474  673  657 
475  690  72  
476  79   431 
477  916  909 
478  734  780 
479  146  192 
480  600  35  
481  527  203 
482  319  272 
483  664  47  
484  34   307 
485  732  590 
486  488  477 
487  748  553 
488  791  496 
489  639  884 
490  258  945 
491  125  254 
492  516  148 
493  680  903 
494  722  918 
495  663  176 
496  787  382 
497  688  925 
498  647  735 
499  520  792 
500  709  63  
501  574  18  
502  707  520 
503  280  978 
504  757  875 
505  103  262 
506  402  647 
507  637  312 
508  908  528 
509  130  225 
510  319  411 
511  788  54  
512  850  703 
513  631  18  
514  624  131 
515  533  111 
516  825  359 
517  301  875 
518  457  875 
519  705  986 
520  951  602 
521  746  987 
522  347  106 
523  215  295 
524  549  320 
525  65   109 
526  370  89  
527  805  911 
528  850  397 
529  987  811 
530  796  853 
531  744  815 
532  543  255 
533  665  113 
534  461  45  
535  221  222 
536  458  58  
537  489  967 
538  721  926 
539  740  939 
540  803  977 
541  780  347 
542  714  420 
543  700  912 
544  893  889 
545  639  991 
546  607  37  
547  593  139 
548  556  993 
549  895  422 
550  473  64  
551  649  128 
552  569  19  
553  650  758 
554  702  149 
555  522  618 
556  604  4   
557  813  7   
558  644  49  
559  696  87  
560  658  887 
561  639  218 
562  816  152 
563  208  22  
564  560  74  
565  614  957 
566  720  35  
567  227  947 
568  462  423 
569  697  982 
570  629  42  
571  624  76  
572  473  441 
573  667  828 
574  690  277 
575  502  77  
576  6    328 
577  850  931 
578  325  63  
579  713  526 
580  787  902 
581  636  86  
582  489  162 
583  810  724 
584  710  646 
585  851  923 
586  681  94  
587  698  25  
588  509  903 
589  396  846 
590  847  215 
591  145  370 
592  683  939 
593  676  6   
594  977  510 
595  115  207 
596  461  188 
597  665  85  
598  561  284 
599  733  149 
600  794  919 
601  521  68  
602  717  141 
603  677  999 
604  6    278 
605  631  623 
606  90   546 
607  647  967 
608  587  31  
609  605  67  
610  319  616 
611  689  991 
612  187  317 
613  556  965 
614  191  467 
615  44   924 
616  917  580 
617  371  7   
618  715  198 
619  368  20  
620  802  212 
621  732  943 
622  816  250 
623  542  136 
624  671  21  
625  267  453 
626  49   630 
627  23   730 
628  149  479 
629  310  396 
630  826  587 
631  475  500 
632  499  192 
633  691  115 
634  354  359 
635  663  956 
636  320  455 
637  640  963 
638  342  641 
639  735  981 
640  621  65  
641  852  572 
642  619  95  
643  688  640 
644  624  875 
645  30   225 
646  768  996 
647  718  92  
648  753  449 
649  691  892 
650  510  966 
651  687  95  
652  873  887 
653  721  911 
654  555  897 
655  348  665 
656  732  938 
657  736  899 
658  51   936 
659  788  281 
660  713  943 
661  783  175 
662  516  914 
663  769  39  
664  483  310 
665  840  993 
666  684  983 
667  669  994 
668  802  966 
669  65   736 
670  587  156 
671  147  369 
672  662  79  
673  891  140 
674  698  100 
675  573  895 
676  731  951 
677  245  959 
678  341  518 
679  657  885 
680  489  929 
681  697  302 
682  649  881 
683  462  408 
684  991  483 
685  21   28  
686  646  983 
687  354  466 
688  658  54  
689  623  999 
690  526  429 
691  621  828 
692  641  239 
693  277  371 
694  637  116 
695  318  665 
696  719  405 
697  613  6   
698  156  566 
699  10   521 
700  545  954 
701  610  117 
702  21   140 
703  172  272 
704  267  52  
705  182  493 
706  613  271 
707  855  878 
708  485  113 
709  576  142 
710  235  468 
711  821  974 
712  537  132 
713  656  925 
714  453  71  
715  591  23  
716  536  87  
717  690  154 
718  917  44  
719  582  957 
720  302  167 
721  963  249 
722  669  180 
723  667  107 
724  941  886 
725  710  981 
726  746  171 
727  105  4   
728  712  29  
729  688  59  
730  639  54  
731  660  86  
732  608  48  
733  423  411 
734  41   495 
735  465  157 
736  648  111 
737  597  75  
738  740  96  
739  989  261 
740  471  991 
741  578  43  
742  211  506 
743  202  448 
744  578  52  
745  935  308 
746  756  980 
747  653  64  
748  798  995 
749  399  733 
750  115  169 
751  706  76  
752  52   369 
753  722  191 
754  644  918 
755  204  503 
756  999  72  
757  630  602 
758  508  249 
759  306  770 
760  178  621 
761  474  116 
762  152  65  
763  86   129 
764  575  28  
765  702  874 
766  341  993 
767  531  89  
768  486  99  
769  685  812 
770  628  3   
771  48   93  
772  722  968 
773  45   451 
774  755  71  
775  653  868 
776  210  280 
777  639  970 
778  178  77  
779  897  191 
780  629  111 
781  669  952 
782  734  969 
783  513  821 
784  673  19  
785  14   481 
786  841  259 
787  586  298 
788  19   596 
789  619  57  
790  816  989 
791  645  204 
792  665  42  
793  709  881 
794  50   678 
795  572  238 
796  697  925 
797  285  315 
798  909  259 
799  564  243 
800  694  999 
801  350  143 
802  620  821 
803  540  47  
804  745  992 
805  102  706 
806  746  390 
807  700  423 
808  460  460 
809  552  21  
810  277  338 
811  707  956 
812  422  842 
813  687  987 
814  771  730 
815  708  125 
816  565  67  
817  651  912 
818  628  910 
819  508  109 
820  668  992 
821  541  533 
822  468  409 
823  672  962 
824  572  130 
825  595  95  
826  638  969 
827  638  75  
828  827  100 
829  663  913 
830  605  136 
831  35   935 
832  677  915 
833  611  48  
834  653  63  
835  799  257 
836  666  420 
837  459  207 
838  356  334 
839  147  340 
840  332  642 
841  885  971 
842  51   125 
843  870  555 
844  192  766 
845  692  149 
846  441  576 
847  912  579 
848  19   438 
849  413  505 
850  301  273 
851  42   687 
852  81   907 
853  676  70  
854  604  957 
855  452  176 
856  609  645 
857  624  41  
858  728  80  
859  189  449 
860  420  629 
861  362  130 
862  679  969 
863  171  846 
864  723  29  
865  890  533 
866  651  916 
867  894  167 
868  611  187 
869  88   659 
870  688  974 
871  763  977 
872  703  41  
873  427  524 
874  463  218 
875  785  80  
876  655  141 
877  786  960 
878  606  621 
879  163  33  
880  483  779 
881  894  23  
882  832  191 
883  90   210 
884  11   173 
885  370  273 
886  546  984 
887  580  92  
888  649  829 
889  301  915 
890  251  2   
891  657  186 
892  760  962 
893  561  60  
894  141  279 
895  530  756 
896  848  10  
897  686  994 
898  895  759 
899  793  977 
900  771  46  
901  445  132 
902  205  178 
903  654  144 
904  628  6   
905  645  86  
906  597  275 
907  796  493 
908  614  602 
909  789  881 
910  618  990 
911  408  515 
912  659  97  
913  86   226 
914  672  970 
915  676  177 
916  320  640 
917  95   302 
918  605  135 
919  776  124 
920  514  780 
921  635  423 
922  684  944 
923  690  978 
924  254  951 
925  680  812 
926  654  18  
927  683  957 
928  811  648 
929  75   171 
930  649  159 
931  612  30  
932  507  740 
933  391  547 
934  638  177 
935  644  71  
936  676  945 
937  855  520 
938  668  950 
939  608  670 
940  805  937 
941  313  484 
942  985  239 
943  664  998 
944  616  930 
945  777  457 
946  745  159 
947  766  856 
948  593  129 
949  649  42  
950  721  961 
951  830  877 
952  724  63  
953  203  468 
954  25   718 
955  541  118 
956  54   98  
957  831  949 
958  696  904 
959  663  62  
960  745  918 
961  255  533 
962  367  347 
963  705  980 
964  675  472 
965  314  591 
966  768  938 
967  725  967 
968  523  158 
969  94   844 
970  429  825 
971  592  33  
972  833  82  
973  710  39  
974  596  17  
975  750  740 
976  683  979 
977  820  975 
978  405  733 
979  619  140 
980  726  123 
981  547  646 
982  625  80  
983  672  12  
984  476  375 
985  306  601 
986  638  28  
987  672  933 
988  475  10  
989  720  1000
990  404  889 
991  770  183 
992  888  822 
993  690  977 
994  765  980 
995  971  182 
996  664  31  
997  212  935 
998  640  64  
999  168  343 
1000 788  335 
1001 598  67  
DEMAND_SECTION
1    0   
2    1   
3    5   
4    80  
5    1   
6    78  
7    8   
8    55  
9    81  
10   72  
11   2   
12   70  
13   93  
14   9   
15   78  
16   65  
17   60  
18   99  
19   2   
20   5   
21   86  
22   8   
23   75  
24   71  
25   56  
26   4   
27   1   
28   5   
29   71  
30   63  
31   10  
32   5   
33   86  
34   99  
35   7   
36   58  
37   4   
38   1   
39   56  
40   4   
41   89  
42   52  
43   75  
44   1   
45   70  
46   7   
47   65  
48   94  
49   6   
50   10  
51   3   
52   76  
53   4   
54   78  
55   95  
56   3   
57   4   
58   3   
59   1   
60   74  
61   7   
62   90  
63   2   
64   3   
65   2   
66   4   
67   4   
68   5   
69   67  
70   75  
71   80  
72   7   
73   4   
74   1   
75   82  
76   8   
77   8   
78   85  
79   62  
80   56  
81   3   
82   54  
83   84  
84   4   
85   1   
86   2   
87   78  
88   51  
89   4   
90   2   
91   96  
92   1   
93   68  
94   6   
95   8   
96   2   
97   4   
98   97  
99   7   
100  69  
101  99  
102  10  
103  7   
104  64  
105  7   
106  90  
107  81  
108  81  
109  1   
110  5   
111  2   
112  4   
113  9   
114  7   
115  85  
116  6   
117  79  
118  7   
119  10  
120  54  
121  1   
122  9   
123  6   
124  1   
125  85  
126  58  
127  1   
128  85  
129  99  
130  3   
131  5   
132  84  
133  8   
134  9   
135  82  
136  80  
137  91  
138  4   
139  2   
140  72  
141  4   
142  73  
143  96  
144  4   
145  86  
146  73  
147  88  
148  62  
149  4   
150  74  
151  76  
152  87  
153  10  
154  2   
155  3   
156  3   
157  80  
158  1   
159  90  
160  2   
161  76  
162  7   
163  2   
164  6   
165  5   
166  58  
167  6   
168  10  
169  5   
170  5   
171  2   
172  82  
173  9   
174  9   
175  2   
176  65  
177  8   
178  54  
179  6   
180  63  
181  83  
182  1   
183  95  
184  72  
185  6   
186  54  
187  93  
188  2   
189  70  
190  7   
191  73  
192  2   
193  1   
194  7   
195  2   
196  79  
197  63  
198  8   
199  74  
200  9   
201  87  
202  74  
203  10  
204  3   
205  9   
206  5   
207  2   
208  80  
209  79  
210  76  
211  91  
212  79  
213  8   
214  7   
215  2   
216  10  
217  10  
218  76  
219  1   
220  10  
221  3   
222  1   
223  6   
224  8   
225  58  
226  55  
227  9   
228  8   
229  64  
230  73  
231  9   
232  7   
233  98  
234  73  
235  64  
236  8   
237  6   
238  4   
239  2   
240  62  
241  98  
242  87  
243  5   
244  55  
245  9   
246  76  
247  52  
248  4   
249  61  
250  2   
251  51  
252  4   
253  84  
254  5   
255  81  
256  95  
257  87  
258  99  
259  5   
260  61  
261  5   
262  6   
263  97  
264  80  
265  1   
266  5   
267  73  
268  3   
269  4   
270  70  
271  7   
272  87  
273  8   
274  90  
275  10  
276  85  
277  7   
278  93  
279  77  
280  3   
281  4   
282  10  
283  5   
284  70  
285  100 
286  90  
287  10  
288  98  
289  96  
290  2   
291  4   
292  9   
293  3   
294  67  
295  1   
296  3   
297  96  
298  10  
299  85  
300  3   
301  5   
302  5   
303  2   
304  52  
305  1   
306  10  
307  8   
308  5   
309  52  
310  1   
311  91  
312  1   
313  56  
314  60  
315  5   
316  62  
317  3   
318  90  
319  3   
320  64  
321  58  
322  57  
323  93  
324  67  
325  4   
326  84  
327  63  
328  74  
329  84  
330  2   
331  56  
332  70  
333  59  
334  7   
335  91  
336  92  
337  68  
338  77  
339  59  
340  9   
341  80  
342  7   
343  5   
344  70  
345  67  
346  64  
347  83  
348  3   
349  10  
350  64  
351  78  
352  4   
353  5   
354  7   
355  81  
356  1   
357  59  
358  72  
359  6   
360  3   
361  2   
362  9   
363  8   
364  80  
365  9   
366  5   
367  77  
368  97  
369  50  
370  77  
371  64  
372  96  
373  1   
374  94  
375  9   
376  71  
377  79  
378  8   
379  10  
380  55  
381  5   
382  6   
383  3   
384  2   
385  52  
386  99  
387  88  
388  57  
389  99  
390  3   
391  7   
392  77  
393  55  
394  58  
395  2   
396  65  
397  2   
398  91  
399  2   
400  7   
401  79  
402  78  
403  4   
404  79  
405  10  
406  4   
407  7   
408  1   
409  96  
410  91  
411  9   
412  67  
413  78  
414  9   
415  76  
416  98  
417  75  
418  83  
419  58  
420  58  
421  7   
422  100 
423  8   
424  59  
425  67  
426  56  
427  3   
428  9   
429  72  
430  5   
431  74  
432  69  
433  9   
434  8   
435  53  
436  8   
437  93  
438  9   
439  79  
440  50  
441  6   
442  1   
443  10  
444  5   
445  2   
446  8   
447  4   
448  7   
449  6   
450  1   
451  99  
452  6   
453  8   
454  6   
455  87  
456  75  
457  61  
458  9   
459  55  
460  76  
461  2   
462  55  
463  94  
464  4   
465  98  
466  95  
467  6   
468  57  
469  53  
470  71  
471  100 
472  50  
473  1   
474  95  
475  2   
476  1   
477  6   
478  85  
479  1   
480  64  
481  1   
482  99  
483  79  
484  6   
485  10  
486  3   
487  81  
488  9   
489  7   
490  3   
491  1   
492  87  
493  8   
494  5   
495  50  
496  4   
497  1   
498  80  
499  8   
500  9   
501  3   
502  85  
503  82  
504  95  
505  69  
506  89  
507  99  
508  54  
509  54  
510  79  
511  2   
512  3   
513  9   
514  91  
515  83  
516  3   
517  58  
518  58  
519  64  
520  57  
521  97  
522  5   
523  5   
524  1   
525  62  
526  75  
527  55  
528  6   
529  10  
530  75  
531  8   
532  63  
533  6   
534  1   
535  7   
536  53  
537  8   
538  54  
539  57  
540  53  
541  57  
542  6   
543  6   
544  6   
545  81  
546  87  
547  51  
548  92  
549  2   
550  7   
551  6   
552  8   
553  52  
554  4   
555  57  
556  77  
557  85  
558  3   
559  6   
560  98  
561  89  
562  54  
563  1   
564  2   
565  94  
566  83  
567  94  
568  5   
569  86  
570  57  
571  90  
572  4   
573  5   
574  7   
575  6   
576  100 
577  2   
578  82  
579  82  
580  8   
581  50  
582  9   
583  56  
584  59  
585  3   
586  10  
587  10  
588  8   
589  83  
590  100 
591  70  
592  1   
593  4   
594  5   
595  4   
596  3   
597  61  
598  8   
599  8   
600  96  
601  6   
602  8   
603  84  
604  9   
605  67  
606  7   
607  78  
608  9   
609  7   
610  2   
611  86  
612  90  
613  8   
614  6   
615  10  
616  6   
617  67  
618  86  
619  53  
620  72  
621  3   
622  82  
623  81  
624  55  
625  53  
626  70  
627  72  
628  65  
629  76  
630  58  
631  89  
632  75  
633  88  
634  7   
635  5   
636  100 
637  9   
638  7   
639  92  
640  3   
641  7   
642  7   
643  62  
644  5   
645  86  
646  53  
647  81  
648  76  
649  6   
650  65  
651  83  
652  5   
653  8   
654  7   
655  9   
656  3   
657  78  
658  4   
659  6   
660  9   
661  95  
662  3   
663  3   
664  6   
665  3   
666  9   
667  4   
668  5   
669  4   
670  5   
671  66  
672  72  
673  5   
674  5   
675  83  
676  8   
677  4   
678  99  
679  87  
680  8   
681  6   
682  66  
683  80  
684  6   
685  51  
686  75  
687  2   
688  92  
689  62  
690  64  
691  71  
692  5   
693  76  
694  3   
695  50  
696  96  
697  1   
698  71  
699  7   
700  5   
701  70  
702  4   
703  8   
704  5   
705  1   
706  67  
707  90  
708  3   
709  58  
710  5   
711  72  
712  93  
713  8   
714  82  
715  9   
716  6   
717  75  
718  74  
719  68  
720  8   
721  1   
722  1   
723  2   
724  8   
725  79  
726  74  
727  9   
728  62  
729  5   
730  94  
731  95  
732  2   
733  1   
734  4   
735  70  
736  5   
737  75  
738  89  
739  2   
740  4   
741  63  
742  72  
743  2   
744  4   
745  1   
746  52  
747  69  
748  97  
749  56  
750  9   
751  5   
752  90  
753  83  
754  6   
755  4   
756  54  
757  5   
758  76  
759  96  
760  4   
761  2   
762  7   
763  50  
764  1   
765  83  
766  92  
767  71  
768  63  
769  10  
770  63  
771  58  
772  63  
773  63  
774  1   
775  4   
776  6   
777  1   
778  63  
779  4   
780  69  
781  2   
782  4   
783  72  
784  1   
785  53  
786  83  
787  1   
788  51  
789  9   
790  10  
791  2   
792  5   
793  82  
794  9   
795  71  
796  10  
797  57  
798  10  
799  6   
800  6   
801  57  
802  4   
803  92  
804  10  
805  53  
806  52  
807  2   
808  82  
809  92  
810  8   
811  8   
812  70  
813  5   
814  6   
815  9   
816  6   
817  6   
818  97  
819  2   
820  6   
821  7   
822  7   
823  2   
824  1   
825  7   
826  3   
827  77  
828  69  
829  75  
830  6   
831  9   
832  9   
833  1   
834  63  
835  4   
836  100 
837  59  
838  6   
839  89  
840  85  
841  6   
842  99  
843  6   
844  71  
845  90  
846  7   
847  10  
848  4   
849  7   
850  7   
851  1   
852  80  
853  73  
854  1   
855  82  
856  95  
857  71  
858  69  
859  87  
860  57  
861  90  
862  7   
863  7   
864  86  
865  51  
866  2   
867  9   
868  8   
869  76  
870  65  
871  8   
872  99  
873  98  
874  74  
875  61  
876  1   
877  9   
878  10  
879  66  
880  8   
881  72  
882  90  
883  9   
884  79  
885  64  
886  8   
887  8   
888  1   
889  61  
890  79  
891  64  
892  2   
893  4   
894  75  
895  3   
896  73  
897  1   
898  71  
899  90  
900  8   
901  4   
902  9   
903  78  
904  86  
905  89  
906  96  
907  4   
908  10  
909  77  
910  7   
911  85  
912  8   
913  8   
914  6   
915  7   
916  3   
917  10  
918  55  
919  8   
920  10  
921  3   
922  1   
923  84  
924  7   
925  64  
926  2   
927  1   
928  7   
929  60  
930  2   
931  65  
932  1   
933  50  
934  3   
935  60  
936  74  
937  1   
938  61  
939  53  
940  50  
941  75  
942  7   
943  1   
944  80  
945  86  
946  50  
947  9   
948  8   
949  83  
950  3   
951  4   
952  56  
953  8   
954  86  
955  91  
956  2   
957  4   
958  70  
959  4   
960  2   
961  67  
962  76  
963  81  
964  76  
965  4   
966  3   
967  9   
968  1   
969  64  
970  51  
971  53  
972  5   
973  94  
974  79  
975  79  
976  92  
977  85  
978  6   
979  81  
980  9   
981  74  
982  90  
983  82  
984  2   
985  56  
986  55  
987  3   
988  83  
989  70  
990  90  
991  94  
992  69  
993  5   
994  3   
995  94  
996  6   
997  62  
998  79  
999  10  
1000 6   
1001 64  
DEPOT_SECTION
1
-1
EOF
