NAME : XML1000_1322_50
COMMENT : Generated as the XML100 dataset from the CVRPLIB
TYPE : CVRP
DIMENSION : 1001
EDGE_WEIGHT_TYPE : EUC_2D
CAPACITY : 41
NODE_COORD_SECTION
1    281  339 
2    435  467 
3    41   159 
4    886  879 
5    826  447 
6    855  254 
7    231  319 
8    382  52  
9    435  67  
10   703  623 
11   339  90  
12   576  439 
13   880  603 
14   536  137 
15   591  311 
16   473  197 
17   855  537 
18   396  499 
19   431  191 
20   599  422 
21   142  363 
22   253  441 
23   367  36  
24   660  298 
25   813  540 
26   335  879 
27   606  327 
28   94   286 
29   492  732 
30   665  138 
31   187  343 
32   79   163 
33   475  261 
34   947  229 
35   103  758 
36   616  776 
37   505  271 
38   698  19  
39   723  103 
40   39   346 
41   465  207 
42   797  290 
43   17   444 
44   329  45  
45   577  128 
46   768  510 
47   737  513 
48   296  133 
49   104  448 
50   430  460 
51   825  217 
52   741  245 
53   118  126 
54   160  608 
55   285  114 
56   565  19  
57   531  957 
58   906  992 
59   919  544 
60   318  175 
61   324  69  
62   509  142 
63   384  120 
64   76   394 
65   425  786 
66   289  349 
67   845  338 
68   378  58  
69   675  403 
70   345  128 
71   89   440 
72   549  681 
73   553  77  
74   575  590 
75   644  433 
76   323  783 
77   368  791 
78   864  73  
79   78   961 
80   783  237 
81   196  41  
82   610  413 
83   516  131 
84   700  617 
85   189  392 
86   858  398 
87   297  102 
88   438  50  
89   715  349 
90   114  883 
91   331  94  
92   595  927 
93   14   387 
94   341  126 
95   838  38  
96   440  922 
97   555  482 
98   108  687 
99   518  442 
100  529  353 
101  13   446 
102  17   596 
103  159  500 
104  996  224 
105  61   355 
106  383  6   
107  220  357 
108  904  504 
109  882  894 
110  634  918 
111  145  592 
112  585  388 
113  415  852 
114  973  860 
115  772  214 
116  153  465 
117  393  47  
118  591  440 
119  303  153 
120  697  687 
121  415  205 
122  112  424 
123  179  621 
124  626  416 
125  475  107 
126  271  844 
127  413  43  
128  60   404 
129  858  146 
130  708  467 
131  434  66  
132  200  146 
133  746  579 
134  256  59  
135  746  817 
136  555  630 
137  390  157 
138  492  25  
139  160  180 
140  460  240 
141  260  38  
142  112  289 
143  440  234 
144  501  250 
145  752  259 
146  282  44  
147  433  631 
148  357  901 
149  470  15  
150  573  98  
151  132  621 
152  832  358 
153  327  213 
154  163  636 
155  494  479 
156  792  322 
157  632  431 
158  724  267 
159  706  237 
160  724  285 
161  27   366 
162  205  480 
163  418  108 
164  565  130 
165  698  242 
166  653  490 
167  279  11  
168  406  106 
169  747  265 
170  361  211 
171  124  146 
172  176  849 
173  677  475 
174  416  16  
175  613  54  
176  472  353 
177  933  144 
178  164  447 
179  361  247 
180  568  397 
181  402  108 
182  339  70  
183  854  107 
184  411  989 
185  275  827 
186  582  322 
187  786  210 
188  666  730 
189  179  710 
190  652  405 
191  836  485 
192  224  879 
193  368  493 
194  55   423 
195  315  72  
196  410  480 
197  837  306 
198  501  119 
199  769  526 
200  413  6   
201  912  318 
202  169  283 
203  155  385 
204  252  299 
205  824  870 
206  40   407 
207  678  398 
208  328  38  
209  356  109 
210  536  314 
211  771  217 
212  198  35  
213  983  234 
214  649  218 
215  730  310 
216  933  898 
217  61   84  
218  595  503 
219  500  113 
220  561  370 
221  78   402 
222  463  649 
223  307  472 
224  766  897 
225  762  140 
226  357  73  
227  180  953 
228  134  428 
229  526  287 
230  34   499 
231  492  154 
232  285  480 
233  508  656 
234  692  337 
235  803  424 
236  450  166 
237  477  421 
238  662  67  
239  828  179 
240  791  306 
241  586  175 
242  814  546 
243  424  113 
244  104  270 
245  748  192 
246  659  254 
247  451  243 
248  443  1   
249  931  75  
250  502  50  
251  727  425 
252  273  892 
253  150  422 
254  660  115 
255  36   647 
256  523  100 
257  808  489 
258  338  73  
259  327  36  
260  558  970 
261  414  706 
262  533  141 
263  619  482 
264  408  128 
265  863  452 
266  839  333 
267  309  15  
268  188  808 
269  715  297 
270  72   349 
271  157  146 
272  879  158 
273  35   556 
274  154  266 
275  801  86  
276  507  533 
277  349  96  
278  158  901 
279  866  560 
280  788  897 
281  923  713 
282  311  78  
283  582  154 
284  561  598 
285  768  421 
286  637  337 
287  577  295 
288  131  376 
289  783  162 
290  884  870 
291  829  40  
292  101  622 
293  635  422 
294  914  740 
295  725  724 
296  591  406 
297  470  116 
298  327  58  
299  356  759 
300  468  290 
301  735  127 
302  242  374 
303  157  815 
304  462  377 
305  743  247 
306  811  265 
307  561  81  
308  337  74  
309  340  360 
310  116  881 
311  824  55  
312  540  961 
313  370  132 
314  58   540 
315  313  501 
316  514  253 
317  868  18  
318  1000 793 
319  789  201 
320  919  576 
321  403  156 
322  507  622 
323  72   703 
324  691  968 
325  566  290 
326  562  338 
327  338  54  
328  505  469 
329  486  190 
330  552  135 
331  510  166 
332  566  546 
333  266  443 
334  151  694 
335  18   857 
336  812  211 
337  850  323 
338  335  295 
339  894  268 
340  403  448 
341  533  387 
342  490  178 
343  41   599 
344  824  203 
345  267  762 
346  602  505 
347  23   145 
348  312  19  
349  801  67  
350  239  434 
351  432  84  
352  448  199 
353  572  253 
354  458  231 
355  919  59  
356  202  790 
357  370  127 
358  272  68  
359  995  197 
360  767  855 
361  390  877 
362  565  729 
363  919  333 
364  249  84  
365  161  398 
366  68   408 
367  995  35  
368  732  726 
369  749  141 
370  285  186 
371  810  673 
372  310  597 
373  727  666 
374  663  236 
375  722  560 
376  335  919 
377  399  28  
378  588  480 
379  634  438 
380  345  811 
381  85   506 
382  487  248 
383  399  37  
384  575  132 
385  522  126 
386  744  965 
387  199  119 
388  965  305 
389  617  116 
390  924  932 
391  667  462 
392  479  173 
393  477  203 
394  283  109 
395  836  163 
396  804  607 
397  608  156 
398  434  278 
399  608  403 
400  743  219 
401  185  876 
402  646  277 
403  24   779 
404  857  213 
405  528  541 
406  504  184 
407  824  36  
408  191  389 
409  278  259 
410  703  402 
411  342  42  
412  364  42  
413  824  283 
414  446  517 
415  417  957 
416  841  372 
417  699  279 
418  406  26  
419  769  213 
420  564  82  
421  638  458 
422  809  20  
423  545  221 
424  321  95  
425  521  120 
426  854  409 
427  164  529 
428  309  139 
429  218  82  
430  10   480 
431  593  145 
432  961  401 
433  569  187 
434  920  283 
435  915  461 
436  121  442 
437  411  6   
438  354  128 
439  838  586 
440  706  49  
441  505  971 
442  145  390 
443  15   271 
444  149  369 
445  724  182 
446  173  70  
447  864  342 
448  342  28  
449  639  242 
450  169  356 
451  277  298 
452  355  65  
453  279  106 
454  830  376 
455  991  55  
456  126  650 
457  722  285 
458  445  147 
459  129  167 
460  762  330 
461  682  221 
462  655  115 
463  603  413 
464  910  323 
465  141  397 
466  322  180 
467  508  181 
468  609  84  
469  16   909 
470  853  206 
471  650  521 
472  308  263 
473  467  9   
474  275  86  
475  886  877 
476  351  72  
477  141  24  
478  718  274 
479  628  609 
480  432  307 
481  692  374 
482  345  10  
483  523  425 
484  315  158 
485  493  192 
486  626  712 
487  665  365 
488  90   561 
489  657  34  
490  207  719 
491  494  663 
492  927  142 
493  761  747 
494  837  904 
495  890  996 
496  457  116 
497  396  106 
498  948  183 
499  798  275 
500  307  28  
501  93   68  
502  325  64  
503  200  469 
504  934  28  
505  357  105 
506  365  118 
507  2    66  
508  538  464 
509  539  289 
510  751  190 
511  846  827 
512  594  862 
513  503  106 
514  77   483 
515  306  980 
516  603  300 
517  17   69  
518  158  453 
519  195  93  
520  127  465 
521  626  963 
522  91   539 
523  672  512 
524  478  381 
525  654  387 
526  365  95  
527  50   367 
528  336  68  
529  720  579 
530  9    186 
531  677  227 
532  804  331 
533  416  195 
534  295  134 
535  637  163 
536  567  742 
537  445  240 
538  720  179 
539  706  281 
540  269  243 
541  335  517 
542  483  343 
543  264  48  
544  255  116 
545  197  812 
546  441  117 
547  59   290 
548  690  156 
549  339  78  
550  424  302 
551  314  3   
552  637  922 
553  275  597 
554  299  954 
555  880  173 
556  392  99  
557  771  266 
558  858  423 
559  312  88  
560  228  494 
561  713  670 
562  269  117 
563  28   338 
564  765  213 
565  375  284 
566  766  843 
567  852  227 
568  330  151 
569  486  380 
570  587  948 
571  604  125 
572  527  152 
573  636  962 
574  45   9   
575  559  221 
576  909  581 
577  368  25  
578  447  416 
579  924  889 
580  968  258 
581  259  603 
582  338  91  
583  480  849 
584  321  169 
585  980  3   
586  828  781 
587  621  52  
588  766  946 
589  693  822 
590  233  730 
591  335  112 
592  88   101 
593  434  82  
594  638  635 
595  509  94  
596  743  32  
597  410  133 
598  549  139 
599  131  62  
600  372  125 
601  881  231 
602  367  28  
603  970  717 
604  71   542 
605  939  748 
606  111  349 
607  766  411 
608  451  9   
609  830  176 
610  526  448 
611  293  60  
612  261  37  
613  317  18  
614  311  105 
615  911  128 
616  563  186 
617  239  354 
618  1    702 
619  151  3   
620  529  193 
621  640  707 
622  199  327 
623  155  379 
624  816  524 
625  668  388 
626  82   407 
627  797  291 
628  335  80  
629  369  82  
630  813  217 
631  52   384 
632  780  476 
633  357  611 
634  227  254 
635  713  395 
636  325  170 
637  500  22  
638  625  44  
639  93   412 
640  399  119 
641  56   372 
642  455  792 
643  243  198 
644  994  521 
645  215  136 
646  985  701 
647  211  422 
648  385  309 
649  396  68  
650  442  35  
651  597  485 
652  467  357 
653  873  905 
654  245  155 
655  878  80  
656  70   163 
657  676  360 
658  498  97  
659  692  466 
660  895  160 
661  638  86  
662  111  191 
663  224  59  
664  428  157 
665  549  682 
666  256  429 
667  588  512 
668  105  126 
669  843  253 
670  179  173 
671  424  251 
672  340  279 
673  325  129 
674  937  278 
675  825  186 
676  443  786 
677  200  790 
678  105  818 
679  704  314 
680  427  176 
681  606  682 
682  390  136 
683  724  390 
684  419  172 
685  252  571 
686  714  355 
687  569  525 
688  572  271 
689  509  331 
690  781  134 
691  900  890 
692  983  906 
693  458  38  
694  298  147 
695  851  854 
696  564  532 
697  137  306 
698  86   660 
699  216  370 
700  221  723 
701  547  70  
702  343  191 
703  332  154 
704  19   844 
705  432  268 
706  217  707 
707  730  209 
708  259  215 
709  277  739 
710  473  147 
711  545  163 
712  543  230 
713  652  146 
714  207  6   
715  812  98  
716  99   580 
717  33   882 
718  398  638 
719  655  956 
720  575  936 
721  258  326 
722  52   239 
723  900  229 
724  583  293 
725  800  389 
726  461  20  
727  483  206 
728  549  389 
729  135  502 
730  797  222 
731  878  308 
732  741  330 
733  491  286 
734  830  417 
735  669  463 
736  674  11  
737  854  207 
738  167  91  
739  546  496 
740  249  807 
741  452  730 
742  344  123 
743  517  42  
744  700  572 
745  753  160 
746  855  455 
747  284  374 
748  410  86  
749  559  560 
750  503  143 
751  318  116 
752  349  94  
753  129  100 
754  31   849 
755  522  13  
756  265  360 
757  325  411 
758  77   538 
759  632  800 
760  992  289 
761  427  4   
762  872  153 
763  353  55  
764  404  128 
765  287  128 
766  680  50  
767  980  589 
768  1    835 
769  317  7   
770  850  232 
771  314  72  
772  345  87  
773  431  1   
774  491  52  
775  286  675 
776  371  234 
777  705  259 
778  402  221 
779  944  779 
780  483  295 
781  147  498 
782  419  530 
783  137  561 
784  572  391 
785  122  819 
786  289  191 
787  735  534 
788  609  794 
789  946  52  
790  256  261 
791  685  533 
792  632  112 
793  557  347 
794  469  890 
795  645  469 
796  803  250 
797  548  51  
798  235  67  
799  589  187 
800  567  141 
801  466  107 
802  65   321 
803  792  250 
804  641  206 
805  202  802 
806  319  155 
807  923  468 
808  322  99  
809  117  206 
810  152  334 
811  755  722 
812  400  18  
813  574  45  
814  332  112 
815  454  901 
816  974  680 
817  220  78  
818  756  714 
819  595  342 
820  140  216 
821  793  196 
822  230  357 
823  188  778 
824  472  308 
825  614  877 
826  189  993 
827  195  408 
828  414  950 
829  901  543 
830  893  63  
831  365  145 
832  309  12  
833  869  191 
834  681  558 
835  328  25  
836  842  902 
837  371  94  
838  843  300 
839  281  20  
840  780  280 
841  53   589 
842  961  63  
843  374  257 
844  509  302 
845  76   316 
846  988  565 
847  807  224 
848  893  175 
849  209  455 
850  345  50  
851  497  184 
852  803  101 
853  206  776 
854  566  36  
855  456  304 
856  37   437 
857  838  77  
858  159  472 
859  100  386 
860  317  253 
861  867  549 
862  129  858 
863  684  693 
864  513  137 
865  663  243 
866  312  385 
867  367  83  
868  568  82  
869  524  466 
870  295  76  
871  392  167 
872  965  56  
873  240  536 
874  94   342 
875  428  605 
876  572  628 
877  52   583 
878  852  106 
879  348  78  
880  71   871 
881  257  207 
882  588  96  
883  616  405 
884  686  491 
885  764  667 
886  480  481 
887  301  21  
888  763  204 
889  347  146 
890  149  152 
891  352  75  
892  209  432 
893  556  903 
894  933  197 
895  204  335 
896  352  84  
897  343  103 
898  97   599 
899  985  671 
900  797  184 
901  160  408 
902  620  411 
903  491  248 
904  174  977 
905  714  195 
906  952  750 
907  335  427 
908  759  584 
909  991  314 
910  265  210 
911  159  705 
912  394  333 
913  396  114 
914  314  75  
915  928  383 
916  583  367 
917  428  582 
918  376  154 
919  359  83  
920  76   679 
921  309  649 
922  94   822 
923  234  88  
924  927  442 
925  302  106 
926  265  978 
927  913  534 
928  340  96  
929  995  158 
930  688  434 
931  510  257 
932  468  102 
933  444  55  
934  356  836 
935  267  130 
936  857  471 
937  785  223 
938  680  30  
939  892  20  
940  194  374 
941  583  335 
942  519  997 
943  386  306 
944  267  880 
945  229  121 
946  469  93  
947  84   944 
948  584  416 
949  248  619 
950  399  25  
951  438  609 
952  163  441 
953  192  715 
954  954  763 
955  856  139 
956  525  119 
957  811  207 
958  399  537 
959  824  433 
960  193  441 
961  429  398 
962  452  790 
963  378  612 
964  798  152 
965  215  69  
966  758  744 
967  168  375 
968  856  233 
969  975  193 
970  289  930 
971  339  760 
972  669  397 
973  339  104 
974  552  248 
975  310  68  
976  106  418 
977  761  489 
978  291  73  
979  87   423 
980  219  871 
981  348  189 
982  32   636 
983  278  768 
984  780  130 
985  980  164 
986  118  1   
987  743  337 
988  278  795 
989  105  971 
990  89   450 
991  407  360 
992  205  24  
993  979  186 
994  517  250 
995  414  930 
996  628  764 
997  129  25  
998  653  281 
999  466  46  
1000 252  513 
1001 823  213 
DEMAND_SECTION
1    0   
2    10  
3    6   
4    4   
5    10  
6    2   
7    6   
8    10  
9    4   
10   5   
11   6   
12   4   
13   4   
14   6   
15   5   
16   5   
17   8   
18   1   
19   3   
20   9   
21   10  
22   9   
23   3   
24   8   
25   4   
26   1   
27   7   
28   6   
29   7   
30   6   
31   8   
32   5   
33   6   
34   9   
35   3   
36   5   
37   8   
38   6   
39   1   
40   5   
41   2   
42   5   
43   6   
44   1   
45   8   
46   7   
47   2   
48   2   
49   10  
50   3   
51   5   
52   7   
53   1   
54   1   
55   6   
56   4   
57   7   
58   10  
59   5   
60   5   
61   9   
62   6   
63   7   
64   8   
65   4   
66   3   
67   8   
68   9   
69   3   
70   9   
71   3   
72   9   
73   1   
74   1   
75   1   
76   6   
77   7   
78   10  
79   6   
80   7   
81   3   
82   4   
83   7   
84   9   
85   2   
86   6   
87   5   
88   6   
89   6   
90   3   
91   9   
92   7   
93   8   
94   2   
95   8   
96   4   
97   7   
98   6   
99   9   
100  3   
101  2   
102  6   
103  5   
104  2   
105  3   
106  2   
107  10  
108  6   
109  1   
110  2   
111  1   
112  7   
113  3   
114  1   
115  6   
116  6   
117  6   
118  5   
119  3   
120  1   
121  6   
122  9   
123  2   
124  6   
125  1   
126  3   
127  10  
128  6   
129  6   
130  6   
131  2   
132  1   
133  9   
134  4   
135  3   
136  3   
137  5   
138  7   
139  3   
140  7   
141  7   
142  3   
143  10  
144  2   
145  10  
146  2   
147  9   
148  5   
149  4   
150  2   
151  4   
152  5   
153  7   
154  10  
155  5   
156  3   
157  3   
158  3   
159  8   
160  4   
161  2   
162  1   
163  2   
164  9   
165  2   
166  1   
167  6   
168  3   
169  9   
170  5   
171  4   
172  10  
173  9   
174  9   
175  8   
176  8   
177  2   
178  8   
179  5   
180  2   
181  2   
182  7   
183  3   
184  8   
185  5   
186  1   
187  2   
188  7   
189  7   
190  10  
191  10  
192  5   
193  7   
194  5   
195  2   
196  7   
197  1   
198  2   
199  1   
200  4   
201  10  
202  5   
203  2   
204  9   
205  2   
206  1   
207  2   
208  9   
209  4   
210  10  
211  2   
212  4   
213  9   
214  3   
215  5   
216  7   
217  3   
218  2   
219  5   
220  7   
221  1   
222  7   
223  3   
224  1   
225  4   
226  9   
227  9   
228  6   
229  10  
230  2   
231  10  
232  9   
233  1   
234  4   
235  3   
236  9   
237  10  
238  6   
239  1   
240  6   
241  4   
242  5   
243  1   
244  9   
245  10  
246  7   
247  10  
248  1   
249  5   
250  1   
251  4   
252  8   
253  4   
254  6   
255  10  
256  1   
257  3   
258  9   
259  9   
260  5   
261  8   
262  6   
263  3   
264  8   
265  9   
266  10  
267  9   
268  6   
269  3   
270  7   
271  7   
272  3   
273  6   
274  5   
275  10  
276  1   
277  2   
278  5   
279  7   
280  10  
281  9   
282  7   
283  4   
284  2   
285  9   
286  5   
287  10  
288  9   
289  1   
290  3   
291  9   
292  10  
293  7   
294  2   
295  7   
296  8   
297  3   
298  1   
299  10  
300  5   
301  3   
302  3   
303  3   
304  7   
305  6   
306  7   
307  9   
308  9   
309  7   
310  2   
311  5   
312  3   
313  1   
314  9   
315  5   
316  2   
317  3   
318  1   
319  1   
320  6   
321  5   
322  5   
323  7   
324  4   
325  2   
326  4   
327  1   
328  10  
329  6   
330  2   
331  10  
332  3   
333  4   
334  5   
335  3   
336  7   
337  7   
338  4   
339  8   
340  9   
341  1   
342  5   
343  10  
344  3   
345  10  
346  5   
347  2   
348  8   
349  8   
350  5   
351  6   
352  9   
353  9   
354  5   
355  7   
356  10  
357  4   
358  8   
359  4   
360  8   
361  4   
362  5   
363  10  
364  9   
365  10  
366  8   
367  1   
368  2   
369  1   
370  8   
371  4   
372  2   
373  8   
374  3   
375  5   
376  7   
377  2   
378  9   
379  2   
380  6   
381  6   
382  3   
383  2   
384  10  
385  1   
386  9   
387  10  
388  1   
389  3   
390  1   
391  4   
392  9   
393  5   
394  3   
395  4   
396  5   
397  9   
398  8   
399  4   
400  3   
401  8   
402  6   
403  2   
404  5   
405  4   
406  4   
407  8   
408  4   
409  5   
410  2   
411  7   
412  10  
413  5   
414  8   
415  6   
416  7   
417  1   
418  1   
419  3   
420  8   
421  9   
422  5   
423  7   
424  10  
425  1   
426  10  
427  5   
428  10  
429  1   
430  5   
431  8   
432  1   
433  6   
434  4   
435  4   
436  5   
437  10  
438  6   
439  5   
440  3   
441  5   
442  8   
443  7   
444  5   
445  8   
446  7   
447  5   
448  4   
449  2   
450  4   
451  10  
452  8   
453  1   
454  7   
455  8   
456  7   
457  1   
458  5   
459  7   
460  5   
461  7   
462  8   
463  1   
464  10  
465  2   
466  4   
467  1   
468  6   
469  8   
470  5   
471  4   
472  7   
473  5   
474  8   
475  2   
476  9   
477  10  
478  3   
479  6   
480  3   
481  1   
482  10  
483  9   
484  7   
485  5   
486  10  
487  6   
488  9   
489  6   
490  7   
491  10  
492  10  
493  5   
494  5   
495  4   
496  2   
497  2   
498  7   
499  5   
500  4   
501  6   
502  4   
503  8   
504  9   
505  9   
506  1   
507  8   
508  7   
509  6   
510  8   
511  5   
512  7   
513  10  
514  5   
515  4   
516  2   
517  6   
518  2   
519  3   
520  1   
521  4   
522  1   
523  1   
524  2   
525  2   
526  10  
527  5   
528  7   
529  6   
530  9   
531  8   
532  3   
533  2   
534  6   
535  2   
536  6   
537  6   
538  4   
539  5   
540  4   
541  9   
542  6   
543  2   
544  10  
545  6   
546  8   
547  5   
548  7   
549  9   
550  8   
551  1   
552  7   
553  5   
554  10  
555  2   
556  2   
557  1   
558  7   
559  9   
560  1   
561  4   
562  7   
563  8   
564  6   
565  2   
566  3   
567  2   
568  2   
569  4   
570  6   
571  7   
572  10  
573  10  
574  3   
575  9   
576  6   
577  6   
578  8   
579  4   
580  3   
581  2   
582  8   
583  4   
584  1   
585  8   
586  8   
587  5   
588  5   
589  5   
590  5   
591  3   
592  7   
593  2   
594  3   
595  4   
596  3   
597  4   
598  1   
599  2   
600  8   
601  10  
602  4   
603  2   
604  1   
605  4   
606  10  
607  10  
608  3   
609  2   
610  1   
611  5   
612  5   
613  3   
614  2   
615  2   
616  3   
617  9   
618  9   
619  8   
620  5   
621  3   
622  1   
623  4   
624  3   
625  7   
626  1   
627  7   
628  1   
629  5   
630  2   
631  10  
632  1   
633  9   
634  1   
635  2   
636  2   
637  6   
638  3   
639  1   
640  3   
641  5   
642  4   
643  5   
644  3   
645  10  
646  9   
647  6   
648  2   
649  6   
650  8   
651  8   
652  8   
653  8   
654  3   
655  3   
656  1   
657  1   
658  6   
659  5   
660  1   
661  5   
662  3   
663  2   
664  6   
665  4   
666  4   
667  7   
668  10  
669  7   
670  4   
671  4   
672  8   
673  6   
674  4   
675  1   
676  10  
677  2   
678  9   
679  4   
680  6   
681  3   
682  6   
683  9   
684  2   
685  2   
686  7   
687  6   
688  3   
689  2   
690  6   
691  5   
692  3   
693  10  
694  8   
695  2   
696  9   
697  4   
698  7   
699  3   
700  8   
701  10  
702  4   
703  2   
704  6   
705  8   
706  6   
707  3   
708  8   
709  6   
710  2   
711  2   
712  6   
713  7   
714  3   
715  2   
716  1   
717  1   
718  5   
719  3   
720  6   
721  1   
722  1   
723  10  
724  3   
725  5   
726  1   
727  8   
728  4   
729  6   
730  3   
731  8   
732  7   
733  2   
734  1   
735  4   
736  6   
737  10  
738  9   
739  6   
740  4   
741  8   
742  1   
743  2   
744  3   
745  3   
746  7   
747  1   
748  4   
749  8   
750  9   
751  3   
752  6   
753  6   
754  6   
755  3   
756  10  
757  7   
758  4   
759  4   
760  2   
761  7   
762  8   
763  4   
764  10  
765  2   
766  6   
767  2   
768  8   
769  2   
770  10  
771  9   
772  5   
773  4   
774  9   
775  3   
776  8   
777  2   
778  4   
779  4   
780  1   
781  6   
782  7   
783  3   
784  6   
785  3   
786  2   
787  10  
788  4   
789  5   
790  2   
791  3   
792  3   
793  3   
794  9   
795  5   
796  10  
797  2   
798  8   
799  5   
800  3   
801  5   
802  3   
803  8   
804  3   
805  5   
806  6   
807  7   
808  5   
809  5   
810  1   
811  9   
812  8   
813  10  
814  8   
815  3   
816  4   
817  5   
818  7   
819  9   
820  2   
821  9   
822  6   
823  2   
824  3   
825  4   
826  7   
827  9   
828  1   
829  2   
830  8   
831  8   
832  2   
833  7   
834  7   
835  8   
836  8   
837  9   
838  7   
839  3   
840  8   
841  9   
842  10  
843  3   
844  6   
845  5   
846  9   
847  5   
848  9   
849  7   
850  10  
851  6   
852  3   
853  10  
854  4   
855  6   
856  3   
857  5   
858  2   
859  6   
860  7   
861  5   
862  9   
863  5   
864  1   
865  10  
866  4   
867  5   
868  4   
869  2   
870  5   
871  7   
872  2   
873  10  
874  6   
875  10  
876  3   
877  4   
878  4   
879  8   
880  4   
881  2   
882  7   
883  9   
884  3   
885  4   
886  8   
887  1   
888  6   
889  5   
890  8   
891  6   
892  10  
893  6   
894  10  
895  9   
896  7   
897  10  
898  1   
899  2   
900  5   
901  2   
902  2   
903  8   
904  7   
905  8   
906  6   
907  6   
908  2   
909  3   
910  3   
911  6   
912  5   
913  7   
914  8   
915  3   
916  9   
917  7   
918  6   
919  8   
920  9   
921  7   
922  5   
923  7   
924  1   
925  7   
926  7   
927  5   
928  7   
929  1   
930  1   
931  7   
932  2   
933  4   
934  8   
935  2   
936  6   
937  9   
938  10  
939  6   
940  8   
941  6   
942  1   
943  10  
944  3   
945  7   
946  2   
947  9   
948  7   
949  8   
950  9   
951  1   
952  5   
953  6   
954  2   
955  10  
956  8   
957  10  
958  2   
959  6   
960  10  
961  8   
962  1   
963  5   
964  6   
965  10  
966  5   
967  3   
968  3   
969  9   
970  2   
971  6   
972  1   
973  6   
974  8   
975  4   
976  6   
977  5   
978  8   
979  6   
980  4   
981  10  
982  3   
983  2   
984  6   
985  3   
986  9   
987  5   
988  7   
989  8   
990  1   
991  2   
992  10  
993  9   
994  6   
995  10  
996  2   
997  2   
998  8   
999  8   
1000 10  
1001 6   
DEPOT_SECTION
1
-1
EOF
