NAME : XML1000_3322_54
COMMENT : Generated as the XML100 dataset from the CVRPLIB
TYPE : CVRP
DIMENSION : 1001
EDGE_WEIGHT_TYPE : EUC_2D
CAPACITY : 31
NODE_COORD_SECTION
1    0    0   
2    275  326 
3    587  592 
4    803  207 
5    607  570 
6    785  595 
7    890  221 
8    804  181 
9    733  139 
10   399  123 
11   755  414 
12   868  193 
13   87   809 
14   559  777 
15   572  469 
16   721  183 
17   124  202 
18   286  362 
19   269  282 
20   643  529 
21   756  159 
22   802  364 
23   397  962 
24   978  333 
25   81   478 
26   264  999 
27   440  11  
28   700  227 
29   592  563 
30   203  184 
31   624  506 
32   418  923 
33   89   836 
34   812  575 
35   748  420 
36   540  781 
37   135  952 
38   830  193 
39   524  675 
40   983  48  
41   640  212 
42   360  405 
43   672  519 
44   871  63  
45   950  365 
46   297  233 
47   790  147 
48   916  223 
49   513  373 
50   809  106 
51   783  633 
52   955  498 
53   813  405 
54   420  968 
55   725  292 
56   164  624 
57   947  76  
58   416  31  
59   891  324 
60   608  381 
61   848  628 
62   45   551 
63   858  165 
64   334  245 
65   822  984 
66   927  521 
67   761  461 
68   437  239 
69   805  257 
70   899  273 
71   877  938 
72   440  900 
73   385  299 
74   691  253 
75   564  734 
76   820  385 
77   304  240 
78   132  146 
79   702  370 
80   811  345 
81   116  296 
82   294  482 
83   211  951 
84   474  925 
85   760  236 
86   695  417 
87   702  551 
88   197  131 
89   496  455 
90   392  236 
91   886  631 
92   28   457 
93   938  242 
94   900  148 
95   774  399 
96   613  64  
97   322  257 
98   999  746 
99   712  424 
100  353  235 
101  415  457 
102  153  973 
103  90   41  
104  650  360 
105  829  362 
106  839  394 
107  344  195 
108  396  233 
109  199  204 
110  263  207 
111  842  301 
112  813  265 
113  879  210 
114  345  496 
115  848  241 
116  455  804 
117  843  135 
118  914  186 
119  810  196 
120  770  550 
121  718  360 
122  170  662 
123  735  858 
124  795  305 
125  296  896 
126  742  70  
127  841  430 
128  749  356 
129  182  227 
130  161  204 
131  434  628 
132  801  403 
133  761  92  
134  208  374 
135  640  696 
136  847  379 
137  350  476 
138  764  610 
139  669  741 
140  596  388 
141  135  142 
142  493  552 
143  569  910 
144  600  498 
145  801  250 
146  230  169 
147  802  75  
148  458  414 
149  124  825 
150  833  956 
151  646  483 
152  542  682 
153  885  765 
154  805  229 
155  160  351 
156  396  210 
157  438  463 
158  865  945 
159  841  322 
160  824  251 
161  290  210 
162  293  206 
163  716  309 
164  293  444 
165  521  61  
166  665  325 
167  662  347 
168  770  536 
169  877  281 
170  827  262 
171  927  776 
172  261  250 
173  212  156 
174  713  676 
175  511  303 
176  146  309 
177  804  278 
178  278  339 
179  554  94  
180  704  200 
181  917  164 
182  376  362 
183  342  369 
184  860  66  
185  550  892 
186  675  267 
187  666  209 
188  481  145 
189  106  366 
190  29   3   
191  805  233 
192  781  541 
193  728  260 
194  260  15  
195  659  426 
196  543  233 
197  929  439 
198  215  111 
199  989  161 
200  697  300 
201  311  246 
202  782  249 
203  248  306 
204  775  210 
205  711  216 
206  114  464 
207  307  221 
208  491  707 
209  904  211 
210  839  905 
211  268  122 
212  2    915 
213  542  380 
214  799  194 
215  630  511 
216  655  168 
217  371  925 
218  114  756 
219  97   20  
220  735  286 
221  413  662 
222  360  3   
223  215  12  
224  491  572 
225  915  262 
226  658  420 
227  485  120 
228  647  191 
229  773  178 
230  802  303 
231  166  403 
232  664  271 
233  596  216 
234  979  246 
235  55   288 
236  467  480 
237  289  464 
238  698  758 
239  170  373 
240  278  464 
241  467  71  
242  846  238 
243  835  903 
244  500  504 
245  565  246 
246  164  469 
247  907  95  
248  732  908 
249  838  261 
250  178  471 
251  316  185 
252  359  254 
253  254  210 
254  694  396 
255  935  697 
256  296  234 
257  788  269 
258  318  231 
259  873  493 
260  662  440 
261  995  500 
262  409  358 
263  688  349 
264  998  17  
265  808  265 
266  261  770 
267  860  303 
268  273  79  
269  910  142 
270  365  827 
271  685  716 
272  921  160 
273  288  333 
274  224  995 
275  649  375 
276  792  671 
277  299  253 
278  700  179 
279  226  278 
280  157  169 
281  490  458 
282  897  306 
283  828  197 
284  512  217 
285  818  162 
286  294  165 
287  536  345 
288  747  138 
289  156  42  
290  812  356 
291  922  237 
292  267  413 
293  646  580 
294  14   632 
295  700  709 
296  408  955 
297  134  414 
298  802  455 
299  690  515 
300  731  413 
301  311  357 
302  391  484 
303  487  281 
304  258  458 
305  666  423 
306  617  558 
307  126  976 
308  884  255 
309  491  818 
310  676  226 
311  963  646 
312  338  594 
313  508  907 
314  607  373 
315  751  256 
316  805  703 
317  705  387 
318  971  259 
319  690  398 
320  103  440 
321  993  683 
322  824  725 
323  255  187 
324  730  291 
325  238  256 
326  792  275 
327  960  515 
328  983  480 
329  775  213 
330  838  260 
331  734  270 
332  574  946 
333  776  285 
334  804  267 
335  60   990 
336  331  401 
337  911  357 
338  126  279 
339  816  735 
340  364  178 
341  559  701 
342  995  319 
343  477  631 
344  319  292 
345  534  793 
346  525  397 
347  474  324 
348  540  925 
349  246  335 
350  277  313 
351  74   628 
352  389  640 
353  229  282 
354  672  452 
355  702  462 
356  882  819 
357  783  130 
358  880  886 
359  681  21  
360  797  214 
361  792  773 
362  165  126 
363  477  105 
364  255  267 
365  176  550 
366  825  303 
367  864  231 
368  837  277 
369  354  309 
370  927  845 
371  319  449 
372  17   880 
373  693  358 
374  907  192 
375  697  230 
376  774  831 
377  372  708 
378  871  126 
379  957  705 
380  585  434 
381  545  132 
382  614  479 
383  814  504 
384  201  170 
385  88   302 
386  462  601 
387  855  276 
388  187  671 
389  841  103 
390  683  331 
391  906  269 
392  636  408 
393  639  908 
394  303  446 
395  391  568 
396  546  353 
397  651  644 
398  899  62  
399  27   53  
400  861  346 
401  742  264 
402  466  180 
403  897  385 
404  897  394 
405  152  160 
406  504  72  
407  212  220 
408  87   952 
409  493  567 
410  498  159 
411  794  158 
412  313  132 
413  730  393 
414  801  206 
415  827  344 
416  322  190 
417  244  14  
418  526  761 
419  382  887 
420  503  530 
421  814  252 
422  75   834 
423  772  246 
424  791  259 
425  636  623 
426  815  198 
427  7    708 
428  415  911 
429  51   378 
430  796  212 
431  408  234 
432  82   320 
433  307  429 
434  694  182 
435  790  317 
436  225  634 
437  302  252 
438  467  585 
439  876  604 
440  580  453 
441  772  138 
442  663  231 
443  757  247 
444  749  810 
445  350  247 
446  261  974 
447  955  250 
448  683  456 
449  74   739 
450  997  94  
451  521  412 
452  993  380 
453  340  727 
454  675  470 
455  573  184 
456  208  199 
457  7    20  
458  740  181 
459  838  186 
460  692  379 
461  274  629 
462  936  349 
463  355  474 
464  851  570 
465  756  171 
466  739  100 
467  717  579 
468  679  287 
469  282  898 
470  785  216 
471  366  641 
472  888  290 
473  678  480 
474  671  441 
475  230  488 
476  579  614 
477  225  391 
478  679  323 
479  840  277 
480  323  953 
481  856  132 
482  181  869 
483  753  119 
484  914  738 
485  139  305 
486  860  358 
487  604  670 
488  730  657 
489  790  6   
490  148  276 
491  368  152 
492  959  71  
493  264  979 
494  892  179 
495  399  139 
496  601  372 
497  484  363 
498  18   289 
499  845  67  
500  792  241 
501  382  980 
502  280  969 
503  268  738 
504  71   328 
505  773  84  
506  574  503 
507  494  254 
508  892  938 
509  9    591 
510  211  42  
511  293  93  
512  946  411 
513  866  391 
514  778  845 
515  912  269 
516  399  260 
517  978  879 
518  854  255 
519  342  400 
520  645  172 
521  748  521 
522  584  13  
523  980  22  
524  707  403 
525  579  721 
526  696  501 
527  771  415 
528  410  534 
529  894  504 
530  215  286 
531  861  52  
532  104  446 
533  610  416 
534  63   27  
535  641  394 
536  334  252 
537  491  873 
538  338  402 
539  260  464 
540  465  744 
541  791  756 
542  704  599 
543  891  178 
544  770  306 
545  253  434 
546  200  428 
547  674  427 
548  86   415 
549  745  389 
550  135  945 
551  729  134 
552  670  57  
553  671  449 
554  565  529 
555  880  205 
556  250  136 
557  773  88  
558  447  174 
559  481  944 
560  792  339 
561  813  371 
562  30   788 
563  130  485 
564  176  363 
565  933  305 
566  716  209 
567  787  260 
568  138  745 
569  520  5   
570  168  331 
571  509  908 
572  812  262 
573  843  277 
574  688  403 
575  803  442 
576  252  330 
577  843  286 
578  999  515 
579  637  428 
580  947  990 
581  714  123 
582  204  290 
583  683  535 
584  448  650 
585  604  260 
586  761  454 
587  153  324 
588  253  411 
589  456  245 
590  900  658 
591  729  102 
592  234  169 
593  463  806 
594  620  195 
595  951  224 
596  817  224 
597  582  101 
598  578  616 
599  348  401 
600  682  435 
601  668  784 
602  367  289 
603  303  286 
604  314  533 
605  624  341 
606  787  228 
607  441  256 
608  641  281 
609  742  333 
610  601  492 
611  771  378 
612  201  122 
613  711  345 
614  834  196 
615  433  90  
616  513  864 
617  889  141 
618  330  254 
619  542  433 
620  218  183 
621  68   513 
622  78   706 
623  334  233 
624  597  207 
625  795  213 
626  992  489 
627  400  187 
628  285  776 
629  640  586 
630  779  363 
631  713  427 
632  198  488 
633  632  591 
634  642  385 
635  817  237 
636  752  257 
637  365  247 
638  664  382 
639  100  578 
640  323  241 
641  794  101 
642  901  236 
643  639  325 
644  807  52  
645  977  213 
646  552  329 
647  410  236 
648  213  482 
649  799  862 
650  584  645 
651  455  671 
652  724  530 
653  280  163 
654  672  349 
655  126  971 
656  703  992 
657  666  198 
658  413  921 
659  445  715 
660  612  465 
661  729  483 
662  47   705 
663  406  378 
664  724  148 
665  993  202 
666  837  174 
667  867  224 
668  851  118 
669  97   800 
670  435  539 
671  289  494 
672  348  153 
673  814  325 
674  689  968 
675  59   801 
676  156  477 
677  343  569 
678  55   165 
679  242  257 
680  789  417 
681  805  343 
682  671  25  
683  9    580 
684  785  47  
685  573  347 
686  364  124 
687  915  889 
688  770  156 
689  644  398 
690  806  88  
691  831  926 
692  711  317 
693  355  161 
694  897  215 
695  391  254 
696  720  402 
697  89   270 
698  906  678 
699  935  336 
700  349  495 
701  340  526 
702  506  976 
703  356  781 
704  908  202 
705  585  470 
706  457  940 
707  133  718 
708  508  268 
709  960  29  
710  7    740 
711  883  810 
712  624  708 
713  925  309 
714  301  967 
715  9    301 
716  613  577 
717  1    598 
718  358  854 
719  923  483 
720  140  375 
721  721  259 
722  409  100 
723  218  532 
724  925  165 
725  422  228 
726  981  591 
727  618  777 
728  738  693 
729  287  668 
730  809  982 
731  12   311 
732  258  214 
733  351  680 
734  628  561 
735  223  265 
736  627  453 
737  989  311 
738  357  592 
739  889  373 
740  799  281 
741  542  903 
742  806  177 
743  633  267 
744  312  288 
745  782  237 
746  742  439 
747  313  689 
748  430  936 
749  283  172 
750  835  249 
751  820  349 
752  540  313 
753  801  116 
754  803  287 
755  935  205 
756  710  334 
757  700  451 
758  810  192 
759  849  412 
760  971  118 
761  736  224 
762  301  580 
763  797  240 
764  861  633 
765  368  252 
766  483  956 
767  773  557 
768  155  782 
769  672  325 
770  800  245 
771  512  772 
772  720  145 
773  584  221 
774  665  456 
775  727  288 
776  701  388 
777  360  247 
778  731  249 
779  701  397 
780  331  687 
781  428  211 
782  801  484 
783  144  879 
784  753  169 
785  925  34  
786  732  384 
787  737  737 
788  614  276 
789  30   695 
790  353  720 
791  196  108 
792  932  823 
793  910  921 
794  279  133 
795  959  139 
796  941  261 
797  797  235 
798  319  196 
799  256  158 
800  423  900 
801  394  775 
802  720  360 
803  617  286 
804  263  301 
805  851  462 
806  231  488 
807  949  210 
808  849  281 
809  98   898 
810  833  264 
811  939  193 
812  990  504 
813  168  139 
814  745  727 
815  609  803 
816  431  122 
817  82   243 
818  488  513 
819  24   558 
820  364  468 
821  278  276 
822  571  529 
823  886  266 
824  675  357 
825  848  703 
826  747  382 
827  306  392 
828  683  855 
829  428  754 
830  234  233 
831  989  4   
832  749  144 
833  366  263 
834  860  268 
835  546  230 
836  553  516 
837  869  344 
838  203  254 
839  255  292 
840  758  238 
841  369  286 
842  213  295 
843  168  543 
844  567  527 
845  890  412 
846  148  305 
847  722  190 
848  660  444 
849  574  175 
850  358  133 
851  776  646 
852  772  267 
853  828  180 
854  703  158 
855  841  110 
856  132  77  
857  190  329 
858  346  186 
859  954  176 
860  844  292 
861  691  440 
862  327  145 
863  787  139 
864  676  308 
865  822  124 
866  902  907 
867  44   885 
868  538  612 
869  138  422 
870  189  705 
871  656  366 
872  925  374 
873  828  283 
874  658  546 
875  652  234 
876  332  781 
877  769  490 
878  335  270 
879  687  429 
880  858  338 
881  924  939 
882  929  209 
883  397  236 
884  863  273 
885  854  304 
886  520  59  
887  670  641 
888  629  878 
889  811  262 
890  887  895 
891  545  637 
892  948  344 
893  684  652 
894  601  416 
895  997  227 
896  800  198 
897  610  721 
898  748  435 
899  699  304 
900  460  535 
901  575  107 
902  574  529 
903  810  248 
904  65   670 
905  228  795 
906  568  742 
907  890  137 
908  924  916 
909  970  138 
910  842  218 
911  549  481 
912  702  333 
913  598  266 
914  841  500 
915  664  477 
916  804  609 
917  540  252 
918  916  283 
919  855  264 
920  252  114 
921  850  585 
922  961  44  
923  115  225 
924  422  135 
925  796  852 
926  75   427 
927  680  421 
928  772  257 
929  59   986 
930  832  280 
931  722  256 
932  785  205 
933  816  183 
934  324  246 
935  565  34  
936  731  332 
937  173  86  
938  813  285 
939  276  355 
940  723  239 
941  659  483 
942  714  428 
943  115  99  
944  970  753 
945  587  314 
946  240  517 
947  833  217 
948  858  301 
949  813  159 
950  863  654 
951  759  426 
952  674  489 
953  245  214 
954  770  197 
955  327  274 
956  859  382 
957  719  231 
958  531  684 
959  104  867 
960  353  668 
961  246  969 
962  433  121 
963  669  379 
964  917  252 
965  900  419 
966  33   852 
967  85   853 
968  741  273 
969  518  619 
970  496  582 
971  271  244 
972  998  173 
973  233  617 
974  791  121 
975  212  832 
976  553  469 
977  13   632 
978  921  496 
979  194  149 
980  438  775 
981  413  840 
982  667  180 
983  450  84  
984  527  596 
985  422  251 
986  617  737 
987  920  271 
988  907  161 
989  747  447 
990  804  325 
991  821  256 
992  296  273 
993  916  228 
994  466  28  
995  808  57  
996  371  294 
997  828  789 
998  598  485 
999  777  991 
1000 945  291 
1001 332  622 
DEMAND_SECTION
1    0   
2    3   
3    2   
4    9   
5    9   
6    2   
7    9   
8    6   
9    1   
10   5   
11   5   
12   3   
13   7   
14   6   
15   8   
16   7   
17   3   
18   2   
19   9   
20   2   
21   4   
22   3   
23   1   
24   5   
25   7   
26   3   
27   4   
28   10  
29   7   
30   4   
31   1   
32   1   
33   4   
34   2   
35   7   
36   4   
37   3   
38   10  
39   9   
40   2   
41   3   
42   1   
43   7   
44   3   
45   10  
46   7   
47   4   
48   9   
49   6   
50   5   
51   2   
52   8   
53   1   
54   5   
55   6   
56   8   
57   6   
58   7   
59   10  
60   3   
61   5   
62   10  
63   8   
64   2   
65   5   
66   5   
67   3   
68   10  
69   9   
70   8   
71   9   
72   4   
73   3   
74   7   
75   7   
76   7   
77   10  
78   1   
79   9   
80   7   
81   1   
82   2   
83   10  
84   4   
85   10  
86   7   
87   6   
88   5   
89   4   
90   9   
91   2   
92   7   
93   9   
94   1   
95   10  
96   8   
97   9   
98   4   
99   10  
100  5   
101  5   
102  7   
103  4   
104  7   
105  1   
106  4   
107  9   
108  5   
109  6   
110  9   
111  10  
112  5   
113  5   
114  8   
115  10  
116  5   
117  8   
118  3   
119  9   
120  5   
121  7   
122  8   
123  3   
124  3   
125  10  
126  6   
127  2   
128  5   
129  6   
130  2   
131  1   
132  10  
133  2   
134  2   
135  1   
136  5   
137  10  
138  6   
139  9   
140  5   
141  6   
142  1   
143  7   
144  7   
145  8   
146  4   
147  10  
148  8   
149  2   
150  4   
151  3   
152  4   
153  3   
154  3   
155  2   
156  4   
157  2   
158  1   
159  6   
160  7   
161  7   
162  8   
163  4   
164  7   
165  8   
166  4   
167  7   
168  1   
169  8   
170  7   
171  8   
172  10  
173  4   
174  8   
175  8   
176  9   
177  3   
178  9   
179  9   
180  7   
181  3   
182  9   
183  2   
184  6   
185  2   
186  6   
187  7   
188  9   
189  9   
190  7   
191  1   
192  7   
193  1   
194  6   
195  8   
196  6   
197  3   
198  10  
199  10  
200  7   
201  5   
202  9   
203  8   
204  5   
205  6   
206  8   
207  2   
208  9   
209  5   
210  10  
211  7   
212  3   
213  3   
214  10  
215  6   
216  2   
217  10  
218  4   
219  7   
220  10  
221  4   
222  8   
223  10  
224  1   
225  5   
226  9   
227  5   
228  9   
229  1   
230  5   
231  2   
232  9   
233  4   
234  9   
235  1   
236  3   
237  5   
238  9   
239  7   
240  10  
241  8   
242  7   
243  6   
244  10  
245  7   
246  5   
247  5   
248  9   
249  5   
250  3   
251  9   
252  3   
253  9   
254  6   
255  5   
256  3   
257  3   
258  1   
259  4   
260  10  
261  1   
262  10  
263  6   
264  7   
265  3   
266  7   
267  8   
268  7   
269  3   
270  4   
271  4   
272  8   
273  10  
274  9   
275  4   
276  8   
277  9   
278  10  
279  3   
280  3   
281  4   
282  8   
283  9   
284  3   
285  1   
286  3   
287  8   
288  2   
289  2   
290  7   
291  10  
292  9   
293  3   
294  9   
295  10  
296  6   
297  1   
298  5   
299  5   
300  8   
301  3   
302  5   
303  1   
304  7   
305  2   
306  5   
307  7   
308  1   
309  5   
310  5   
311  7   
312  3   
313  6   
314  6   
315  9   
316  6   
317  1   
318  5   
319  2   
320  10  
321  10  
322  5   
323  7   
324  7   
325  8   
326  7   
327  2   
328  8   
329  9   
330  1   
331  2   
332  10  
333  3   
334  2   
335  5   
336  9   
337  9   
338  1   
339  5   
340  10  
341  8   
342  8   
343  2   
344  5   
345  9   
346  2   
347  10  
348  8   
349  10  
350  9   
351  8   
352  8   
353  2   
354  10  
355  5   
356  4   
357  1   
358  5   
359  9   
360  4   
361  1   
362  1   
363  10  
364  10  
365  8   
366  5   
367  9   
368  2   
369  3   
370  3   
371  3   
372  2   
373  9   
374  5   
375  3   
376  8   
377  9   
378  8   
379  2   
380  5   
381  6   
382  1   
383  5   
384  5   
385  3   
386  10  
387  9   
388  2   
389  6   
390  2   
391  4   
392  10  
393  10  
394  10  
395  9   
396  10  
397  3   
398  4   
399  4   
400  2   
401  10  
402  5   
403  3   
404  10  
405  7   
406  6   
407  2   
408  9   
409  10  
410  4   
411  9   
412  2   
413  9   
414  7   
415  5   
416  4   
417  3   
418  10  
419  1   
420  2   
421  4   
422  6   
423  10  
424  10  
425  3   
426  6   
427  7   
428  8   
429  1   
430  10  
431  5   
432  10  
433  8   
434  7   
435  6   
436  10  
437  5   
438  8   
439  1   
440  2   
441  3   
442  2   
443  8   
444  4   
445  9   
446  9   
447  10  
448  5   
449  6   
450  5   
451  4   
452  7   
453  8   
454  3   
455  10  
456  6   
457  10  
458  8   
459  8   
460  4   
461  6   
462  2   
463  9   
464  2   
465  5   
466  7   
467  6   
468  1   
469  8   
470  3   
471  10  
472  6   
473  9   
474  8   
475  7   
476  2   
477  4   
478  7   
479  3   
480  1   
481  1   
482  5   
483  4   
484  6   
485  1   
486  7   
487  6   
488  6   
489  10  
490  1   
491  1   
492  4   
493  6   
494  3   
495  6   
496  9   
497  10  
498  7   
499  7   
500  3   
501  1   
502  8   
503  4   
504  4   
505  5   
506  4   
507  9   
508  5   
509  9   
510  4   
511  2   
512  8   
513  1   
514  4   
515  8   
516  7   
517  5   
518  7   
519  4   
520  6   
521  4   
522  10  
523  6   
524  10  
525  4   
526  2   
527  8   
528  8   
529  6   
530  2   
531  1   
532  2   
533  5   
534  5   
535  8   
536  8   
537  10  
538  7   
539  7   
540  4   
541  1   
542  10  
543  6   
544  6   
545  2   
546  10  
547  10  
548  10  
549  7   
550  3   
551  2   
552  9   
553  10  
554  4   
555  5   
556  2   
557  1   
558  1   
559  10  
560  7   
561  1   
562  4   
563  5   
564  7   
565  5   
566  3   
567  2   
568  3   
569  3   
570  5   
571  9   
572  9   
573  8   
574  5   
575  9   
576  10  
577  4   
578  2   
579  4   
580  4   
581  5   
582  5   
583  6   
584  3   
585  10  
586  4   
587  2   
588  5   
589  6   
590  3   
591  3   
592  10  
593  1   
594  2   
595  2   
596  2   
597  6   
598  3   
599  3   
600  1   
601  3   
602  1   
603  5   
604  2   
605  4   
606  7   
607  8   
608  6   
609  7   
610  5   
611  2   
612  3   
613  1   
614  6   
615  9   
616  5   
617  10  
618  8   
619  9   
620  9   
621  5   
622  9   
623  8   
624  2   
625  4   
626  3   
627  3   
628  10  
629  1   
630  9   
631  10  
632  2   
633  7   
634  10  
635  8   
636  4   
637  1   
638  9   
639  2   
640  1   
641  5   
642  2   
643  1   
644  7   
645  8   
646  3   
647  5   
648  7   
649  5   
650  8   
651  10  
652  7   
653  4   
654  6   
655  7   
656  10  
657  9   
658  4   
659  9   
660  4   
661  5   
662  1   
663  6   
664  8   
665  2   
666  2   
667  10  
668  8   
669  10  
670  9   
671  10  
672  9   
673  9   
674  9   
675  1   
676  3   
677  4   
678  1   
679  4   
680  6   
681  2   
682  8   
683  7   
684  7   
685  5   
686  8   
687  1   
688  8   
689  6   
690  3   
691  5   
692  8   
693  2   
694  7   
695  6   
696  8   
697  2   
698  10  
699  6   
700  1   
701  6   
702  6   
703  10  
704  1   
705  7   
706  8   
707  7   
708  5   
709  5   
710  3   
711  4   
712  7   
713  6   
714  9   
715  4   
716  9   
717  9   
718  6   
719  6   
720  3   
721  7   
722  8   
723  5   
724  6   
725  6   
726  4   
727  5   
728  9   
729  8   
730  9   
731  4   
732  3   
733  4   
734  5   
735  6   
736  5   
737  9   
738  10  
739  1   
740  2   
741  9   
742  1   
743  2   
744  7   
745  4   
746  8   
747  1   
748  5   
749  3   
750  4   
751  1   
752  9   
753  1   
754  5   
755  2   
756  8   
757  3   
758  9   
759  2   
760  5   
761  3   
762  1   
763  9   
764  7   
765  8   
766  7   
767  6   
768  1   
769  9   
770  1   
771  2   
772  5   
773  5   
774  4   
775  6   
776  5   
777  3   
778  9   
779  7   
780  9   
781  4   
782  2   
783  4   
784  8   
785  3   
786  5   
787  8   
788  5   
789  3   
790  7   
791  3   
792  2   
793  4   
794  2   
795  5   
796  9   
797  4   
798  3   
799  3   
800  3   
801  4   
802  4   
803  9   
804  5   
805  10  
806  10  
807  5   
808  2   
809  2   
810  7   
811  8   
812  8   
813  7   
814  5   
815  3   
816  8   
817  4   
818  3   
819  7   
820  7   
821  8   
822  9   
823  2   
824  9   
825  3   
826  2   
827  9   
828  4   
829  9   
830  4   
831  1   
832  1   
833  3   
834  7   
835  3   
836  6   
837  8   
838  4   
839  10  
840  8   
841  1   
842  3   
843  5   
844  7   
845  9   
846  3   
847  2   
848  6   
849  3   
850  3   
851  2   
852  10  
853  1   
854  9   
855  2   
856  4   
857  3   
858  8   
859  3   
860  10  
861  10  
862  8   
863  1   
864  1   
865  9   
866  10  
867  9   
868  5   
869  8   
870  9   
871  9   
872  1   
873  4   
874  4   
875  8   
876  2   
877  1   
878  6   
879  6   
880  7   
881  6   
882  4   
883  8   
884  4   
885  1   
886  5   
887  1   
888  1   
889  10  
890  6   
891  6   
892  8   
893  7   
894  5   
895  9   
896  6   
897  4   
898  6   
899  6   
900  10  
901  2   
902  10  
903  8   
904  9   
905  1   
906  1   
907  6   
908  8   
909  7   
910  3   
911  5   
912  10  
913  8   
914  10  
915  8   
916  1   
917  9   
918  8   
919  7   
920  9   
921  5   
922  7   
923  5   
924  2   
925  1   
926  1   
927  8   
928  3   
929  7   
930  2   
931  2   
932  1   
933  5   
934  6   
935  5   
936  5   
937  6   
938  7   
939  8   
940  6   
941  6   
942  10  
943  7   
944  1   
945  4   
946  2   
947  9   
948  5   
949  8   
950  7   
951  2   
952  10  
953  10  
954  7   
955  8   
956  4   
957  9   
958  3   
959  1   
960  1   
961  2   
962  6   
963  5   
964  3   
965  1   
966  5   
967  4   
968  5   
969  1   
970  5   
971  10  
972  2   
973  9   
974  3   
975  9   
976  5   
977  3   
978  5   
979  8   
980  10  
981  2   
982  6   
983  4   
984  9   
985  1   
986  5   
987  8   
988  5   
989  7   
990  8   
991  7   
992  1   
993  5   
994  7   
995  7   
996  1   
997  10  
998  9   
999  10  
1000 5   
1001 6   
DEPOT_SECTION
1
-1
EOF
