NAME : XML1000_2344_55
COMMENT : Generated as the XML100 dataset from the CVRPLIB
TYPE : CVRP
DIMENSION : 1001
EDGE_WEIGHT_TYPE : EUC_2D
CAPACITY : 614
NODE_COORD_SECTION
1    500  500 
2    44   811 
3    657  162 
4    15   924 
5    595  843 
6    878  646 
7    572  460 
8    205  118 
9    117  801 
10   99   109 
11   467  285 
12   33   847 
13   28   970 
14   130  627 
15   702  444 
16   163  813 
17   525  244 
18   120  842 
19   724  26  
20   177  958 
21   646  363 
22   61   765 
23   230  970 
24   39   737 
25   290  755 
26   870  247 
27   985  750 
28   25   52  
29   497  685 
30   840  768 
31   256  869 
32   391  258 
33   342  393 
34   983  807 
35   924  730 
36   59   706 
37   17   791 
38   26   681 
39   934  960 
40   184  310 
41   72   797 
42   343  483 
43   360  288 
44   122  636 
45   977  760 
46   87   804 
47   488  959 
48   819  183 
49   209  412 
50   636  619 
51   739  312 
52   10   840 
53   969  765 
54   68   772 
55   883  823 
56   528  366 
57   92   757 
58   512  687 
59   23   648 
60   973  753 
61   70   827 
62   469  69  
63   8    754 
64   210  56  
65   59   827 
66   145  750 
67   555  505 
68   590  206 
69   120  922 
70   932  473 
71   37   677 
72   781  448 
73   102  141 
74   997  728 
75   994  830 
76   955  713 
77   169  469 
78   945  681 
79   891  63  
80   923  788 
81   798  775 
82   964  798 
83   976  107 
84   34   766 
85   97   300 
86   461  177 
87   517  505 
88   862  759 
89   291  678 
90   424  286 
91   101  697 
92   988  755 
93   75   645 
94   137  867 
95   988  764 
96   125  246 
97   34   802 
98   632  580 
99   157  863 
100  10   426 
101  128  400 
102  771  268 
103  89   808 
104  152  757 
105  938  772 
106  81   724 
107  978  161 
108  949  790 
109  251  754 
110  587  47  
111  317  461 
112  113  811 
113  890  997 
114  76   874 
115  368  27  
116  114  510 
117  207  976 
118  37   663 
119  136  31  
120  137  741 
121  232  731 
122  47   438 
123  292  791 
124  71   405 
125  94   797 
126  155  804 
127  436  646 
128  941  800 
129  45   761 
130  980  490 
131  964  811 
132  141  905 
133  44   158 
134  139  795 
135  379  804 
136  985  196 
137  474  120 
138  435  299 
139  272  687 
140  111  742 
141  97   807 
142  952  931 
143  11   475 
144  15   765 
145  199  684 
146  115  712 
147  80   754 
148  82   782 
149  986  91  
150  941  692 
151  943  55  
152  821  218 
153  0    749 
154  293  736 
155  143  779 
156  943  729 
157  43   701 
158  960  809 
159  190  482 
160  9    834 
161  606  824 
162  822  686 
163  1000 863 
164  55   684 
165  99   718 
166  62   818 
167  941  786 
168  330  242 
169  688  615 
170  67   39  
171  970  831 
172  425  232 
173  40   659 
174  490  212 
175  962  845 
176  894  738 
177  54   850 
178  460  882 
179  357  204 
180  20   857 
181  904  602 
182  894  567 
183  270  474 
184  755  659 
185  891  165 
186  478  741 
187  635  325 
188  973  720 
189  979  860 
190  123  702 
191  714  627 
192  259  74  
193  97   820 
194  929  524 
195  807  278 
196  994  797 
197  354  747 
198  858  747 
199  407  573 
200  107  470 
201  909  829 
202  981  845 
203  640  704 
204  809  989 
205  485  767 
206  863  880 
207  846  153 
208  320  452 
209  840  595 
210  829  567 
211  431  130 
212  128  785 
213  143  657 
214  950  228 
215  4    835 
216  1    573 
217  77   730 
218  67   784 
219  80   726 
220  104  684 
221  64   620 
222  750  548 
223  80   735 
224  791  320 
225  453  819 
226  95   873 
227  332  947 
228  942  718 
229  79   767 
230  8    716 
231  995  873 
232  645  522 
233  892  241 
234  899  756 
235  895  804 
236  63   768 
237  54   710 
238  105  932 
239  952  777 
240  514  960 
241  909  806 
242  95   64  
243  983  764 
244  546  912 
245  173  648 
246  993  805 
247  10   761 
248  994  630 
249  982  903 
250  115  823 
251  901  84  
252  816  525 
253  796  129 
254  63   880 
255  901  569 
256  194  716 
257  49   725 
258  80   703 
259  271  420 
260  961  727 
261  788  161 
262  90   506 
263  857  660 
264  991  889 
265  975  872 
266  110  713 
267  689  286 
268  918  774 
269  78   788 
270  852  182 
271  187  713 
272  784  285 
273  953  633 
274  71   767 
275  28   796 
276  270  558 
277  886  561 
278  83   750 
279  502  953 
280  1000 821 
281  39   545 
282  27   818 
283  447  645 
284  126  711 
285  822  433 
286  941  771 
287  264  16  
288  958  851 
289  970  816 
290  54   808 
291  934  741 
292  930  878 
293  838  615 
294  771  863 
295  168  802 
296  138  798 
297  78   756 
298  924  309 
299  527  255 
300  86   769 
301  613  533 
302  176  681 
303  417  469 
304  974  386 
305  975  867 
306  6    669 
307  966  800 
308  52   883 
309  822  792 
310  28   773 
311  71   753 
312  922  223 
313  66   647 
314  91   731 
315  450  502 
316  224  199 
317  63   758 
318  522  518 
319  359  253 
320  2    235 
321  80   801 
322  776  285 
323  991  740 
324  273  869 
325  814  159 
326  52   757 
327  975  94  
328  688  577 
329  115  795 
330  239  583 
331  624  821 
332  981  839 
333  14   721 
334  162  229 
335  382  659 
336  318  860 
337  969  712 
338  931  847 
339  182  979 
340  998  757 
341  817  178 
342  124  867 
343  918  746 
344  664  997 
345  82   730 
346  172  794 
347  65   817 
348  24   160 
349  118  832 
350  246  838 
351  878  947 
352  122  942 
353  66   660 
354  304  461 
355  981  798 
356  168  927 
357  89   872 
358  983  740 
359  147  715 
360  997  922 
361  177  109 
362  35   919 
363  927  854 
364  7    848 
365  80   832 
366  36   655 
367  654  439 
368  32   514 
369  574  577 
370  573  850 
371  168  783 
372  350  531 
373  765  773 
374  535  177 
375  972  834 
376  248  245 
377  31   805 
378  43   779 
379  27   682 
380  926  327 
381  630  176 
382  796  864 
383  996  809 
384  835  483 
385  60   706 
386  951  914 
387  224  418 
388  488  119 
389  808  865 
390  1000 797 
391  229  780 
392  152  578 
393  377  260 
394  176  783 
395  73   761 
396  155  571 
397  62   779 
398  693  344 
399  648  592 
400  622  729 
401  908  826 
402  707  418 
403  63   869 
404  348  754 
405  832  449 
406  893  792 
407  941  841 
408  607  825 
409  107  786 
410  313  653 
411  532  26  
412  88   791 
413  17   749 
414  884  990 
415  77   763 
416  522  9   
417  110  958 
418  173  102 
419  48   745 
420  772  776 
421  145  507 
422  608  268 
423  981  779 
424  11   534 
425  778  837 
426  233  229 
427  911  809 
428  550  839 
429  808  469 
430  47   865 
431  851  687 
432  950  809 
433  953  707 
434  953  51  
435  42   805 
436  690  751 
437  986  750 
438  928  879 
439  951  801 
440  432  56  
441  740  599 
442  747  68  
443  75   829 
444  51   773 
445  646  919 
446  842  714 
447  852  368 
448  52   845 
449  966  780 
450  888  690 
451  988  777 
452  959  741 
453  645  38  
454  105  201 
455  965  821 
456  935  631 
457  677  781 
458  532  524 
459  36   348 
460  841  614 
461  753  501 
462  151  832 
463  986  889 
464  81   746 
465  261  66  
466  37   676 
467  584  409 
468  0    776 
469  966  910 
470  93   747 
471  154  852 
472  892  790 
473  67   713 
474  0    812 
475  169  742 
476  653  297 
477  43   764 
478  25   576 
479  170  805 
480  12   795 
481  207  854 
482  953  796 
483  560  502 
484  984  811 
485  872  579 
486  202  101 
487  97   1000
488  915  806 
489  38   780 
490  2    201 
491  845  323 
492  129  818 
493  798  19  
494  105  708 
495  983  949 
496  924  634 
497  703  257 
498  885  661 
499  943  742 
500  590  636 
501  122  769 
502  968  686 
503  971  822 
504  0    124 
505  751  172 
506  922  728 
507  316  918 
508  418  786 
509  268  603 
510  991  818 
511  155  830 
512  376  649 
513  155  174 
514  95   788 
515  53   782 
516  961  921 
517  179  629 
518  98   704 
519  86   550 
520  631  539 
521  718  934 
522  710  265 
523  239  652 
524  951  867 
525  63   701 
526  172  342 
527  49   766 
528  553  201 
529  953  818 
530  940  745 
531  114  10  
532  964  684 
533  147  663 
534  902  471 
535  895  813 
536  95   671 
537  469  961 
538  156  510 
539  842  816 
540  995  253 
541  92   602 
542  925  841 
543  62   750 
544  91   786 
545  272  569 
546  587  315 
547  168  740 
548  285  660 
549  104  594 
550  229  616 
551  773  600 
552  130  741 
553  997  326 
554  366  343 
555  170  130 
556  247  917 
557  940  466 
558  57   747 
559  715  994 
560  887  859 
561  350  353 
562  862  784 
563  866  89  
564  223  797 
565  111  754 
566  57   783 
567  15   777 
568  483  464 
569  796  695 
570  91   772 
571  407  990 
572  135  967 
573  371  259 
574  157  726 
575  970  758 
576  627  621 
577  86   693 
578  55   687 
579  628  329 
580  225  479 
581  332  843 
582  983  813 
583  928  221 
584  976  774 
585  14   524 
586  64   781 
587  56   777 
588  17   706 
589  994  679 
590  941  825 
591  833  972 
592  279  962 
593  933  830 
594  148  789 
595  268  278 
596  216  515 
597  313  39  
598  12   865 
599  958  734 
600  105  675 
601  27   737 
602  957  778 
603  748  879 
604  218  713 
605  154  796 
606  669  231 
607  942  744 
608  71   798 
609  51   703 
610  482  14  
611  971  807 
612  961  632 
613  594  829 
614  741  610 
615  127  796 
616  840  360 
617  621  56  
618  93   565 
619  717  280 
620  821  746 
621  157  339 
622  777  142 
623  98   500 
624  46   737 
625  193  252 
626  48   688 
627  813  482 
628  958  720 
629  962  870 
630  520  336 
631  198  474 
632  74   844 
633  98   774 
634  912  860 
635  638  230 
636  216  757 
637  83   920 
638  920  882 
639  781  822 
640  581  379 
641  967  823 
642  445  180 
643  988  855 
644  11   742 
645  997  684 
646  565  761 
647  808  668 
648  735  455 
649  29   558 
650  785  950 
651  872  680 
652  429  92  
653  66   696 
654  94   776 
655  728  150 
656  63   807 
657  964  125 
658  10   782 
659  366  984 
660  588  103 
661  816  537 
662  938  899 
663  200  552 
664  554  635 
665  560  944 
666  213  580 
667  117  127 
668  885  1000
669  915  763 
670  892  630 
671  808  807 
672  934  367 
673  341  100 
674  367  0   
675  890  706 
676  185  926 
677  1    827 
678  981  317 
679  88   603 
680  731  560 
681  299  777 
682  905  596 
683  206  320 
684  377  687 
685  280  544 
686  459  348 
687  111  824 
688  579  184 
689  837  708 
690  900  764 
691  866  622 
692  60   131 
693  183  40  
694  742  830 
695  796  145 
696  940  684 
697  908  853 
698  732  618 
699  653  96  
700  931  864 
701  986  809 
702  40   674 
703  69   710 
704  891  809 
705  878  690 
706  7    735 
707  67   786 
708  465  301 
709  760  1000
710  702  650 
711  882  571 
712  214  966 
713  888  740 
714  932  837 
715  28   803 
716  63   770 
717  333  127 
718  871  925 
719  1000 581 
720  400  931 
721  790  344 
722  69   813 
723  563  827 
724  784  786 
725  526  33  
726  961  846 
727  620  49  
728  120  913 
729  505  724 
730  118  714 
731  238  389 
732  456  840 
733  34   748 
734  781  506 
735  215  265 
736  974  793 
737  772  942 
738  236  315 
739  961  738 
740  907  730 
741  596  716 
742  72   859 
743  985  924 
744  443  879 
745  69   552 
746  606  110 
747  222  892 
748  996  853 
749  45   887 
750  64   473 
751  917  816 
752  5    823 
753  993  784 
754  938  848 
755  721  990 
756  75   995 
757  876  873 
758  669  67  
759  896  851 
760  643  442 
761  804  121 
762  18   860 
763  47   658 
764  993  811 
765  953  738 
766  947  695 
767  185  857 
768  201  582 
769  165  659 
770  737  476 
771  989  112 
772  968  745 
773  905  945 
774  57   717 
775  414  79  
776  921  633 
777  621  530 
778  627  34  
779  99   970 
780  10   605 
781  6    653 
782  30   443 
783  957  735 
784  132  747 
785  889  866 
786  96   812 
787  177  898 
788  193  726 
789  927  740 
790  142  788 
791  13   387 
792  606  514 
793  968  839 
794  76   824 
795  950  723 
796  956  227 
797  62   926 
798  82   764 
799  562  80  
800  106  694 
801  925  797 
802  246  854 
803  387  713 
804  21   763 
805  108  920 
806  36   397 
807  906  811 
808  827  756 
809  700  953 
810  649  75  
811  66   923 
812  69   821 
813  56   702 
814  834  386 
815  904  701 
816  195  817 
817  922  746 
818  945  711 
819  577  553 
820  652  504 
821  0    816 
822  74   765 
823  696  272 
824  184  744 
825  32   768 
826  986  776 
827  844  27  
828  893  566 
829  50   682 
830  830  766 
831  301  691 
832  867  666 
833  19   676 
834  958  695 
835  893  813 
836  118  807 
837  72   184 
838  567  154 
839  967  771 
840  744  186 
841  816  858 
842  142  365 
843  192  622 
844  205  830 
845  825  40  
846  58   780 
847  560  371 
848  921  264 
849  70   605 
850  49   820 
851  119  390 
852  832  573 
853  350  668 
854  875  800 
855  844  831 
856  56   706 
857  166  349 
858  148  462 
859  53   957 
860  99   695 
861  856  814 
862  747  480 
863  472  550 
864  235  686 
865  877  437 
866  750  256 
867  217  934 
868  943  809 
869  843  960 
870  18   697 
871  64   822 
872  243  159 
873  58   937 
874  317  621 
875  27   37  
876  617  406 
877  7    962 
878  852  636 
879  106  428 
880  673  139 
881  940  767 
882  63   741 
883  522  928 
884  45   854 
885  891  874 
886  862  838 
887  143  733 
888  749  125 
889  525  268 
890  663  876 
891  538  198 
892  290  514 
893  41   722 
894  100  799 
895  73   754 
896  241  91  
897  487  650 
898  640  892 
899  60   735 
900  115  760 
901  118  914 
902  930  829 
903  826  601 
904  400  511 
905  709  363 
906  87   298 
907  163  693 
908  535  812 
909  96   941 
910  898  644 
911  584  30  
912  455  721 
913  989  762 
914  386  850 
915  976  801 
916  593  26  
917  187  659 
918  821  787 
919  447  317 
920  25   606 
921  0    671 
922  55   759 
923  928  742 
924  100  758 
925  720  713 
926  70   757 
927  378  882 
928  977  555 
929  74   867 
930  133  953 
931  997  869 
932  795  496 
933  991  709 
934  283  641 
935  48   747 
936  922  219 
937  705  450 
938  391  403 
939  37   845 
940  847  781 
941  586  916 
942  937  863 
943  978  864 
944  245  861 
945  906  616 
946  115  355 
947  122  781 
948  977  667 
949  994  827 
950  662  8   
951  781  701 
952  765  100 
953  938  675 
954  116  585 
955  899  854 
956  664  948 
957  700  138 
958  122  161 
959  857  848 
960  959  487 
961  27   674 
962  696  104 
963  185  28  
964  752  670 
965  895  740 
966  487  110 
967  30   670 
968  110  937 
969  46   782 
970  724  858 
971  178  663 
972  893  160 
973  146  729 
974  63   722 
975  315  3   
976  947  625 
977  49   805 
978  912  667 
979  505  667 
980  79   815 
981  547  920 
982  195  114 
983  721  300 
984  390  42  
985  61   797 
986  868  746 
987  994  822 
988  109  694 
989  887  759 
990  930  828 
991  472  755 
992  84   768 
993  49   661 
994  123  610 
995  774  809 
996  900  796 
997  748  290 
998  901  105 
999  184  724 
1000 762  435 
1001 1    742 
DEMAND_SECTION
1    0   
2    29  
3    43  
4    51  
5    100 
6    19  
7    8   
8    62  
9    8   
10   86  
11   91  
12   79  
13   65  
14   30  
15   69  
16   91  
17   8   
18   1   
19   38  
20   34  
21   31  
22   49  
23   91  
24   11  
25   61  
26   9   
27   26  
28   16  
29   70  
30   7   
31   53  
32   30  
33   8   
34   60  
35   68  
36   10  
37   64  
38   92  
39   61  
40   84  
41   78  
42   77  
43   34  
44   61  
45   11  
46   57  
47   63  
48   32  
49   21  
50   7   
51   34  
52   97  
53   14  
54   11  
55   41  
56   10  
57   94  
58   15  
59   78  
60   72  
61   1   
62   68  
63   67  
64   53  
65   66  
66   68  
67   3   
68   65  
69   27  
70   9   
71   94  
72   19  
73   13  
74   99  
75   33  
76   8   
77   1   
78   4   
79   93  
80   19  
81   11  
82   16  
83   90  
84   57  
85   91  
86   90  
87   41  
88   96  
89   78  
90   29  
91   51  
92   35  
93   24  
94   57  
95   32  
96   49  
97   78  
98   9   
99   57  
100  28  
101  88  
102  7   
103  98  
104  2   
105  62  
106  71  
107  52  
108  18  
109  6   
110  69  
111  92  
112  36  
113  68  
114  6   
115  66  
116  17  
117  90  
118  60  
119  83  
120  55  
121  43  
122  84  
123  83  
124  52  
125  81  
126  1   
127  62  
128  9   
129  78  
130  21  
131  68  
132  62  
133  16  
134  68  
135  41  
136  4   
137  29  
138  3   
139  87  
140  80  
141  35  
142  7   
143  24  
144  49  
145  41  
146  62  
147  82  
148  34  
149  35  
150  39  
151  78  
152  72  
153  60  
154  83  
155  15  
156  98  
157  20  
158  64  
159  70  
160  84  
161  19  
162  52  
163  35  
164  15  
165  36  
166  84  
167  21  
168  33  
169  26  
170  53  
171  71  
172  77  
173  98  
174  31  
175  3   
176  49  
177  32  
178  98  
179  75  
180  84  
181  29  
182  50  
183  67  
184  35  
185  99  
186  52  
187  60  
188  28  
189  6   
190  79  
191  31  
192  91  
193  76  
194  12  
195  3   
196  99  
197  17  
198  87  
199  88  
200  48  
201  8   
202  55  
203  12  
204  13  
205  72  
206  56  
207  34  
208  1   
209  7   
210  28  
211  95  
212  32  
213  66  
214  32  
215  93  
216  83  
217  95  
218  98  
219  67  
220  51  
221  60  
222  31  
223  11  
224  32  
225  53  
226  56  
227  72  
228  21  
229  87  
230  42  
231  38  
232  4   
233  33  
234  11  
235  49  
236  96  
237  37  
238  45  
239  14  
240  36  
241  91  
242  20  
243  94  
244  18  
245  84  
246  20  
247  86  
248  44  
249  57  
250  100 
251  95  
252  40  
253  57  
254  8   
255  75  
256  56  
257  24  
258  19  
259  92  
260  55  
261  58  
262  4   
263  15  
264  42  
265  90  
266  7   
267  83  
268  88  
269  73  
270  22  
271  72  
272  25  
273  60  
274  89  
275  20  
276  30  
277  28  
278  59  
279  96  
280  13  
281  73  
282  57  
283  68  
284  65  
285  50  
286  16  
287  77  
288  62  
289  94  
290  15  
291  68  
292  55  
293  15  
294  73  
295  77  
296  64  
297  96  
298  50  
299  30  
300  32  
301  29  
302  54  
303  86  
304  47  
305  2   
306  15  
307  14  
308  29  
309  58  
310  83  
311  88  
312  48  
313  71  
314  49  
315  52  
316  66  
317  98  
318  24  
319  27  
320  59  
321  16  
322  24  
323  87  
324  89  
325  82  
326  94  
327  15  
328  67  
329  88  
330  46  
331  83  
332  38  
333  76  
334  84  
335  50  
336  96  
337  52  
338  7   
339  61  
340  98  
341  37  
342  24  
343  75  
344  20  
345  60  
346  37  
347  49  
348  88  
349  24  
350  37  
351  82  
352  13  
353  12  
354  82  
355  13  
356  41  
357  39  
358  86  
359  86  
360  17  
361  63  
362  90  
363  98  
364  37  
365  80  
366  59  
367  11  
368  60  
369  56  
370  32  
371  11  
372  77  
373  2   
374  96  
375  56  
376  73  
377  27  
378  32  
379  55  
380  3   
381  16  
382  40  
383  52  
384  37  
385  33  
386  69  
387  91  
388  58  
389  55  
390  41  
391  48  
392  26  
393  70  
394  22  
395  89  
396  86  
397  9   
398  42  
399  73  
400  76  
401  18  
402  36  
403  36  
404  13  
405  67  
406  72  
407  85  
408  71  
409  60  
410  80  
411  78  
412  89  
413  68  
414  41  
415  94  
416  5   
417  77  
418  3   
419  96  
420  95  
421  93  
422  62  
423  32  
424  75  
425  58  
426  29  
427  25  
428  13  
429  34  
430  59  
431  92  
432  32  
433  13  
434  81  
435  87  
436  75  
437  21  
438  28  
439  49  
440  54  
441  61  
442  68  
443  82  
444  47  
445  71  
446  17  
447  23  
448  45  
449  36  
450  100 
451  34  
452  10  
453  17  
454  84  
455  68  
456  42  
457  82  
458  86  
459  35  
460  100 
461  11  
462  19  
463  17  
464  29  
465  96  
466  9   
467  91  
468  62  
469  32  
470  24  
471  47  
472  60  
473  55  
474  25  
475  82  
476  39  
477  71  
478  47  
479  69  
480  50  
481  6   
482  20  
483  27  
484  85  
485  42  
486  45  
487  27  
488  49  
489  87  
490  50  
491  68  
492  84  
493  8   
494  75  
495  70  
496  68  
497  43  
498  4   
499  3   
500  26  
501  63  
502  7   
503  58  
504  14  
505  60  
506  92  
507  17  
508  88  
509  95  
510  54  
511  31  
512  84  
513  32  
514  15  
515  90  
516  2   
517  29  
518  6   
519  75  
520  31  
521  50  
522  95  
523  93  
524  29  
525  62  
526  69  
527  48  
528  88  
529  18  
530  24  
531  59  
532  11  
533  72  
534  42  
535  8   
536  34  
537  90  
538  47  
539  63  
540  99  
541  16  
542  22  
543  11  
544  46  
545  74  
546  87  
547  38  
548  70  
549  48  
550  17  
551  7   
552  81  
553  32  
554  98  
555  32  
556  41  
557  32  
558  5   
559  80  
560  71  
561  64  
562  70  
563  100 
564  58  
565  28  
566  77  
567  54  
568  6   
569  96  
570  13  
571  56  
572  6   
573  42  
574  44  
575  74  
576  87  
577  70  
578  14  
579  79  
580  22  
581  27  
582  37  
583  20  
584  91  
585  68  
586  92  
587  10  
588  92  
589  79  
590  7   
591  84  
592  89  
593  9   
594  43  
595  37  
596  6   
597  19  
598  53  
599  78  
600  49  
601  22  
602  3   
603  94  
604  74  
605  58  
606  29  
607  12  
608  45  
609  92  
610  6   
611  87  
612  78  
613  13  
614  1   
615  36  
616  65  
617  89  
618  89  
619  15  
620  7   
621  56  
622  71  
623  81  
624  72  
625  53  
626  26  
627  31  
628  47  
629  61  
630  3   
631  40  
632  81  
633  19  
634  20  
635  72  
636  16  
637  92  
638  71  
639  34  
640  48  
641  72  
642  42  
643  38  
644  70  
645  14  
646  76  
647  65  
648  14  
649  75  
650  11  
651  63  
652  16  
653  99  
654  56  
655  55  
656  47  
657  7   
658  49  
659  40  
660  44  
661  44  
662  97  
663  14  
664  35  
665  36  
666  50  
667  48  
668  21  
669  28  
670  90  
671  54  
672  92  
673  73  
674  18  
675  95  
676  15  
677  68  
678  10  
679  3   
680  86  
681  87  
682  49  
683  49  
684  9   
685  3   
686  76  
687  59  
688  14  
689  93  
690  67  
691  2   
692  91  
693  79  
694  28  
695  39  
696  48  
697  11  
698  13  
699  57  
700  65  
701  84  
702  68  
703  5   
704  51  
705  60  
706  18  
707  21  
708  99  
709  88  
710  14  
711  12  
712  52  
713  75  
714  62  
715  28  
716  85  
717  30  
718  74  
719  93  
720  1   
721  74  
722  69  
723  41  
724  47  
725  77  
726  33  
727  50  
728  65  
729  25  
730  63  
731  74  
732  83  
733  27  
734  14  
735  27  
736  76  
737  6   
738  59  
739  46  
740  21  
741  47  
742  50  
743  24  
744  42  
745  34  
746  10  
747  10  
748  74  
749  12  
750  98  
751  100 
752  19  
753  88  
754  7   
755  21  
756  61  
757  19  
758  43  
759  6   
760  99  
761  76  
762  53  
763  18  
764  4   
765  22  
766  96  
767  70  
768  48  
769  1   
770  67  
771  24  
772  92  
773  81  
774  19  
775  59  
776  53  
777  6   
778  43  
779  67  
780  56  
781  88  
782  5   
783  63  
784  25  
785  37  
786  100 
787  85  
788  90  
789  18  
790  15  
791  42  
792  90  
793  30  
794  35  
795  33  
796  97  
797  61  
798  95  
799  54  
800  27  
801  62  
802  6   
803  20  
804  13  
805  81  
806  100 
807  73  
808  25  
809  63  
810  37  
811  83  
812  100 
813  44  
814  33  
815  71  
816  70  
817  34  
818  80  
819  31  
820  53  
821  26  
822  73  
823  23  
824  48  
825  13  
826  75  
827  32  
828  51  
829  64  
830  51  
831  82  
832  53  
833  41  
834  89  
835  31  
836  15  
837  86  
838  30  
839  48  
840  31  
841  46  
842  31  
843  28  
844  3   
845  35  
846  11  
847  97  
848  97  
849  85  
850  73  
851  13  
852  15  
853  58  
854  30  
855  55  
856  18  
857  30  
858  55  
859  74  
860  67  
861  48  
862  37  
863  37  
864  15  
865  42  
866  87  
867  24  
868  75  
869  11  
870  59  
871  31  
872  74  
873  50  
874  36  
875  4   
876  78  
877  87  
878  21  
879  11  
880  81  
881  46  
882  1   
883  26  
884  78  
885  85  
886  32  
887  7   
888  40  
889  45  
890  53  
891  12  
892  55  
893  28  
894  25  
895  55  
896  61  
897  85  
898  43  
899  54  
900  78  
901  51  
902  48  
903  40  
904  3   
905  55  
906  60  
907  55  
908  66  
909  55  
910  58  
911  46  
912  49  
913  39  
914  93  
915  44  
916  53  
917  70  
918  79  
919  38  
920  66  
921  62  
922  24  
923  87  
924  15  
925  7   
926  70  
927  8   
928  96  
929  34  
930  49  
931  40  
932  41  
933  65  
934  58  
935  46  
936  62  
937  21  
938  92  
939  37  
940  33  
941  64  
942  52  
943  79  
944  53  
945  65  
946  85  
947  54  
948  62  
949  66  
950  26  
951  48  
952  46  
953  76  
954  100 
955  66  
956  46  
957  3   
958  40  
959  1   
960  86  
961  40  
962  21  
963  21  
964  1   
965  35  
966  84  
967  59  
968  52  
969  20  
970  31  
971  75  
972  74  
973  56  
974  93  
975  33  
976  2   
977  98  
978  57  
979  11  
980  27  
981  72  
982  45  
983  94  
984  21  
985  9   
986  5   
987  11  
988  45  
989  88  
990  81  
991  73  
992  18  
993  7   
994  42  
995  86  
996  11  
997  100 
998  50  
999  86  
1000 8   
1001 19  
DEPOT_SECTION
1
-1
EOF
