NAME : XML1000_2164_57
COMMENT : Generated as the XML100 dataset from the CVRPLIB
TYPE : CVRP
DIMENSION : 1001
EDGE_WEIGHT_TYPE : EUC_2D
CAPACITY : 763
NODE_COORD_SECTION
1    500  500 
2    677  257 
3    360  275 
4    826  209 
5    726  271 
6    647  881 
7    464  787 
8    258  35  
9    146  459 
10   24   115 
11   889  908 
12   377  867 
13   332  725 
14   37   161 
15   749  757 
16   456  940 
17   441  888 
18   125  548 
19   59   185 
20   508  578 
21   135  970 
22   893  249 
23   332  581 
24   192  696 
25   272  576 
26   402  905 
27   989  711 
28   91   137 
29   246  676 
30   714  930 
31   919  643 
32   288  511 
33   30   148 
34   754  319 
35   43   78  
36   301  877 
37   38   247 
38   65   502 
39   970  370 
40   208  420 
41   59   715 
42   327  758 
43   777  586 
44   522  207 
45   905  97  
46   693  205 
47   569  538 
48   85   187 
49   544  234 
50   465  984 
51   712  38  
52   886  74  
53   818  861 
54   633  559 
55   339  112 
56   690  675 
57   720  298 
58   215  580 
59   300  377 
60   125  772 
61   324  743 
62   131  339 
63   533  81  
64   776  742 
65   465  593 
66   288  897 
67   527  150 
68   693  973 
69   895  186 
70   664  430 
71   730  604 
72   688  360 
73   131  177 
74   603  661 
75   926  30  
76   219  546 
77   736  516 
78   865  438 
79   465  876 
80   161  56  
81   219  555 
82   737  508 
83   896  681 
84   782  659 
85   527  271 
86   490  231 
87   815  189 
88   65   771 
89   42   477 
90   991  909 
91   589  875 
92   996  359 
93   977  355 
94   446  966 
95   359  440 
96   711  882 
97   520  784 
98   169  846 
99   326  272 
100  917  569 
101  687  781 
102  341  809 
103  53   6   
104  425  125 
105  908  93  
106  140  630 
107  848  753 
108  774  538 
109  934  905 
110  751  811 
111  967  853 
112  981  370 
113  692  734 
114  481  532 
115  782  133 
116  475  736 
117  670  566 
118  312  858 
119  664  254 
120  90   427 
121  988  485 
122  286  73  
123  504  799 
124  256  459 
125  120  297 
126  685  66  
127  72   787 
128  288  528 
129  436  664 
130  542  682 
131  578  339 
132  343  55  
133  365  622 
134  635  65  
135  992  473 
136  774  650 
137  262  228 
138  136  399 
139  162  964 
140  781  802 
141  346  883 
142  671  176 
143  541  713 
144  461  37  
145  796  683 
146  514  705 
147  209  258 
148  794  521 
149  464  884 
150  98   143 
151  966  865 
152  918  160 
153  979  130 
154  908  515 
155  887  959 
156  398  673 
157  951  68  
158  990  414 
159  45   900 
160  683  662 
161  894  208 
162  101  395 
163  94   118 
164  868  70  
165  314  539 
166  868  317 
167  92   850 
168  954  320 
169  690  530 
170  998  27  
171  546  37  
172  231  928 
173  911  633 
174  152  217 
175  341  242 
176  354  361 
177  738  67  
178  49   241 
179  426  704 
180  712  832 
181  863  476 
182  996  978 
183  778  261 
184  813  228 
185  688  206 
186  107  331 
187  951  607 
188  0    205 
189  731  46  
190  321  678 
191  87   609 
192  402  773 
193  497  126 
194  714  789 
195  498  481 
196  930  264 
197  474  789 
198  621  808 
199  783  321 
200  815  920 
201  975  909 
202  354  711 
203  805  745 
204  892  902 
205  438  305 
206  527  126 
207  164  739 
208  103  720 
209  846  288 
210  962  957 
211  993  307 
212  384  361 
213  155  776 
214  417  785 
215  442  302 
216  283  705 
217  227  615 
218  978  663 
219  349  223 
220  616  338 
221  275  939 
222  412  32  
223  495  704 
224  763  357 
225  653  476 
226  213  70  
227  939  839 
228  344  791 
229  912  80  
230  247  886 
231  670  574 
232  937  927 
233  865  908 
234  896  221 
235  319  725 
236  597  599 
237  380  732 
238  881  605 
239  382  683 
240  241  415 
241  756  592 
242  470  387 
243  791  55  
244  42   453 
245  233  560 
246  838  652 
247  456  888 
248  63   265 
249  317  648 
250  639  946 
251  115  46  
252  346  702 
253  860  685 
254  336  917 
255  828  49  
256  689  794 
257  188  45  
258  417  353 
259  135  527 
260  170  732 
261  890  146 
262  132  211 
263  423  256 
264  329  249 
265  959  663 
266  792  824 
267  659  560 
268  587  782 
269  605  818 
270  459  871 
271  224  312 
272  688  843 
273  337  756 
274  976  96  
275  865  274 
276  843  991 
277  66   814 
278  433  589 
279  61   708 
280  352  753 
281  879  657 
282  181  773 
283  630  209 
284  543  488 
285  782  68  
286  969  349 
287  59   137 
288  424  360 
289  562  739 
290  903  614 
291  915  616 
292  75   728 
293  323  475 
294  454  895 
295  105  500 
296  563  811 
297  729  596 
298  858  481 
299  705  913 
300  798  952 
301  546  889 
302  774  509 
303  809  723 
304  244  438 
305  966  23  
306  340  235 
307  275  691 
308  125  356 
309  235  200 
310  41   115 
311  321  160 
312  786  92  
313  83   368 
314  98   896 
315  899  207 
316  735  541 
317  117  101 
318  852  797 
319  490  435 
320  788  803 
321  468  533 
322  562  222 
323  252  136 
324  830  778 
325  203  140 
326  58   298 
327  532  59  
328  259  297 
329  336  898 
330  506  406 
331  478  1000
332  978  383 
333  981  565 
334  687  356 
335  754  257 
336  111  825 
337  584  847 
338  788  497 
339  318  648 
340  529  822 
341  761  552 
342  680  326 
343  72   964 
344  596  592 
345  536  452 
346  480  637 
347  761  799 
348  804  114 
349  333  865 
350  799  435 
351  784  383 
352  33   106 
353  724  768 
354  290  149 
355  620  302 
356  897  687 
357  851  958 
358  598  930 
359  843  60  
360  741  430 
361  857  861 
362  163  310 
363  728  896 
364  726  963 
365  520  71  
366  259  27  
367  495  136 
368  500  480 
369  284  200 
370  730  277 
371  253  868 
372  209  691 
373  730  960 
374  148  604 
375  657  472 
376  55   614 
377  421  470 
378  712  515 
379  701  88  
380  923  955 
381  935  682 
382  673  416 
383  194  171 
384  170  52  
385  656  858 
386  740  326 
387  53   955 
388  317  745 
389  247  857 
390  870  710 
391  180  767 
392  799  668 
393  929  387 
394  15   690 
395  749  2   
396  771  188 
397  2    769 
398  985  157 
399  41   837 
400  156  409 
401  759  232 
402  386  462 
403  8    925 
404  237  757 
405  753  673 
406  149  406 
407  74   879 
408  983  52  
409  178  460 
410  243  669 
411  26   811 
412  808  209 
413  256  132 
414  355  102 
415  916  407 
416  782  327 
417  645  578 
418  695  835 
419  573  333 
420  708  387 
421  231  700 
422  218  779 
423  894  245 
424  560  894 
425  194  669 
426  845  212 
427  17   228 
428  272  625 
429  996  301 
430  10   597 
431  846  204 
432  820  304 
433  866  271 
434  460  663 
435  914  595 
436  338  399 
437  906  264 
438  782  686 
439  721  438 
440  884  334 
441  623  302 
442  221  646 
443  227  73  
444  228  38  
445  871  651 
446  927  323 
447  158  50  
448  857  487 
449  109  859 
450  287  618 
451  796  486 
452  419  499 
453  820  187 
454  764  799 
455  410  679 
456  43   248 
457  901  32  
458  924  244 
459  868  102 
460  726  9   
461  189  976 
462  393  901 
463  171  272 
464  443  969 
465  748  949 
466  749  410 
467  700  118 
468  10   992 
469  940  225 
470  554  171 
471  78   718 
472  799  487 
473  660  189 
474  308  515 
475  583  207 
476  140  949 
477  969  41  
478  339  493 
479  763  421 
480  609  790 
481  177  202 
482  122  644 
483  337  569 
484  898  902 
485  846  208 
486  314  418 
487  243  385 
488  707  431 
489  670  638 
490  704  362 
491  634  136 
492  156  8   
493  403  532 
494  723  241 
495  288  411 
496  846  720 
497  130  877 
498  269  141 
499  184  866 
500  655  780 
501  346  937 
502  998  198 
503  200  465 
504  361  562 
505  514  750 
506  64   693 
507  114  523 
508  888  811 
509  62   769 
510  470  78  
511  437  795 
512  98   435 
513  753  357 
514  353  405 
515  871  340 
516  791  2   
517  730  648 
518  56   307 
519  819  824 
520  357  802 
521  33   818 
522  804  179 
523  153  734 
524  423  338 
525  720  463 
526  310  717 
527  809  648 
528  594  723 
529  719  983 
530  485  426 
531  940  750 
532  572  732 
533  939  507 
534  470  446 
535  815  700 
536  47   581 
537  166  62  
538  375  294 
539  696  627 
540  42   103 
541  599  447 
542  101  152 
543  28   604 
544  371  687 
545  177  983 
546  210  742 
547  615  809 
548  539  927 
549  992  378 
550  139  700 
551  886  369 
552  134  222 
553  30   384 
554  359  331 
555  682  310 
556  175  3   
557  569  698 
558  985  375 
559  737  273 
560  309  250 
561  597  635 
562  847  252 
563  78   317 
564  551  766 
565  690  597 
566  500  464 
567  482  815 
568  378  447 
569  498  503 
570  635  765 
571  579  586 
572  93   216 
573  218  476 
574  797  845 
575  453  608 
576  668  542 
577  708  578 
578  555  912 
579  59   169 
580  533  735 
581  208  548 
582  547  908 
583  272  551 
584  659  722 
585  866  139 
586  772  599 
587  911  138 
588  331  380 
589  660  803 
590  474  20  
591  641  951 
592  275  476 
593  46   226 
594  694  32  
595  273  533 
596  346  365 
597  286  750 
598  427  838 
599  294  345 
600  130  588 
601  529  77  
602  310  289 
603  553  861 
604  994  302 
605  141  773 
606  183  361 
607  176  978 
608  776  70  
609  221  900 
610  65   634 
611  50   362 
612  445  208 
613  387  285 
614  497  255 
615  576  548 
616  902  569 
617  118  496 
618  148  497 
619  412  952 
620  642  511 
621  63   417 
622  991  637 
623  510  221 
624  893  767 
625  987  774 
626  278  463 
627  99   92  
628  307  368 
629  221  603 
630  637  670 
631  894  997 
632  530  553 
633  975  427 
634  132  116 
635  925  319 
636  28   324 
637  59   150 
638  742  72  
639  199  727 
640  776  321 
641  51   47  
642  545  717 
643  95   517 
644  727  712 
645  272  159 
646  704  728 
647  423  62  
648  729  910 
649  8    207 
650  433  768 
651  792  679 
652  987  360 
653  769  812 
654  605  871 
655  510  710 
656  156  450 
657  489  925 
658  375  903 
659  618  670 
660  94   902 
661  820  121 
662  495  828 
663  214  311 
664  745  365 
665  905  354 
666  405  126 
667  586  439 
668  238  287 
669  947  180 
670  957  364 
671  655  984 
672  582  585 
673  576  35  
674  785  923 
675  98   383 
676  36   835 
677  770  812 
678  823  815 
679  129  218 
680  317  40  
681  420  937 
682  470  767 
683  492  148 
684  475  980 
685  778  663 
686  905  466 
687  820  251 
688  342  865 
689  567  974 
690  210  578 
691  506  73  
692  499  34  
693  273  347 
694  351  950 
695  707  459 
696  323  851 
697  104  17  
698  767  370 
699  242  634 
700  662  564 
701  70   778 
702  550  768 
703  557  389 
704  258  767 
705  826  532 
706  878  960 
707  41   253 
708  682  420 
709  795  59  
710  463  629 
711  664  381 
712  908  76  
713  65   192 
714  797  654 
715  154  130 
716  975  264 
717  207  294 
718  784  544 
719  887  53  
720  711  721 
721  455  881 
722  304  492 
723  471  996 
724  535  999 
725  249  794 
726  78   903 
727  740  775 
728  806  986 
729  679  616 
730  920  971 
731  206  167 
732  715  700 
733  852  306 
734  538  924 
735  458  388 
736  629  139 
737  918  251 
738  556  155 
739  509  470 
740  613  936 
741  591  661 
742  625  7   
743  416  678 
744  20   827 
745  759  910 
746  945  106 
747  622  365 
748  595  411 
749  602  545 
750  814  535 
751  799  308 
752  406  871 
753  36   789 
754  276  798 
755  299  763 
756  951  33  
757  975  915 
758  738  441 
759  282  301 
760  995  722 
761  418  747 
762  472  62  
763  673  442 
764  846  123 
765  519  622 
766  332  814 
767  240  313 
768  936  35  
769  371  742 
770  788  536 
771  791  452 
772  644  918 
773  923  437 
774  958  705 
775  417  485 
776  348  376 
777  440  450 
778  315  864 
779  407  282 
780  595  500 
781  781  389 
782  255  688 
783  471  303 
784  43   5   
785  591  804 
786  379  485 
787  85   514 
788  144  173 
789  15   199 
790  558  963 
791  831  75  
792  912  72  
793  427  143 
794  289  429 
795  80   673 
796  202  281 
797  572  894 
798  950  440 
799  886  675 
800  347  565 
801  430  5   
802  1000 41  
803  615  41  
804  89   529 
805  761  662 
806  679  480 
807  615  715 
808  95   847 
809  753  667 
810  524  844 
811  647  695 
812  403  69  
813  683  590 
814  474  587 
815  545  638 
816  112  509 
817  111  782 
818  707  718 
819  865  109 
820  97   380 
821  933  643 
822  871  650 
823  84   685 
824  665  810 
825  484  646 
826  800  873 
827  297  420 
828  432  626 
829  931  548 
830  317  258 
831  259  564 
832  500  123 
833  874  840 
834  525  296 
835  806  306 
836  172  657 
837  352  862 
838  47   882 
839  941  94  
840  178  984 
841  713  990 
842  261  762 
843  42   404 
844  270  838 
845  313  153 
846  753  806 
847  948  664 
848  129  45  
849  595  378 
850  306  742 
851  800  747 
852  113  711 
853  341  718 
854  813  686 
855  280  470 
856  757  794 
857  101  489 
858  725  582 
859  807  395 
860  43   139 
861  669  830 
862  851  578 
863  284  211 
864  440  440 
865  960  732 
866  295  207 
867  239  41  
868  599  869 
869  282  924 
870  386  69  
871  690  898 
872  491  271 
873  461  508 
874  31   933 
875  135  743 
876  242  488 
877  201  963 
878  520  850 
879  850  60  
880  517  436 
881  630  304 
882  61   156 
883  366  514 
884  708  879 
885  170  81  
886  888  181 
887  401  499 
888  417  187 
889  458  624 
890  6    634 
891  394  203 
892  108  362 
893  169  103 
894  670  394 
895  96   137 
896  185  712 
897  686  576 
898  171  158 
899  999  142 
900  312  533 
901  85   881 
902  814  124 
903  79   331 
904  414  181 
905  250  567 
906  279  374 
907  492  756 
908  541  532 
909  801  846 
910  335  256 
911  9    379 
912  536  673 
913  387  65  
914  947  244 
915  16   665 
916  695  846 
917  819  742 
918  153  234 
919  314  340 
920  950  825 
921  699  825 
922  744  311 
923  231  967 
924  70   65  
925  991  426 
926  630  155 
927  515  744 
928  338  154 
929  301  254 
930  223  316 
931  612  933 
932  788  363 
933  594  470 
934  370  762 
935  893  803 
936  447  79  
937  859  414 
938  390  173 
939  812  985 
940  601  393 
941  689  753 
942  854  811 
943  373  507 
944  705  450 
945  640  204 
946  87   437 
947  380  183 
948  409  973 
949  868  504 
950  471  548 
951  250  162 
952  781  216 
953  639  361 
954  560  882 
955  154  621 
956  545  88  
957  925  876 
958  645  175 
959  872  492 
960  110  834 
961  927  10  
962  701  848 
963  243  122 
964  789  76  
965  409  420 
966  114  386 
967  0    410 
968  25   583 
969  154  50  
970  256  735 
971  795  226 
972  289  921 
973  851  792 
974  20   397 
975  993  229 
976  265  564 
977  299  297 
978  575  479 
979  50   267 
980  622  838 
981  997  617 
982  143  458 
983  703  646 
984  853  752 
985  538  597 
986  242  446 
987  569  157 
988  871  477 
989  515  186 
990  486  159 
991  795  100 
992  749  798 
993  500  579 
994  679  819 
995  690  968 
996  996  257 
997  433  934 
998  517  677 
999  71   420 
1000 2    82  
1001 420  744 
DEMAND_SECTION
1    0   
2    13  
3    55  
4    49  
5    8   
6    55  
7    28  
8    54  
9    52  
10   89  
11   84  
12   41  
13   43  
14   72  
15   66  
16   4   
17   13  
18   33  
19   78  
20   65  
21   12  
22   44  
23   17  
24   20  
25   17  
26   4   
27   79  
28   61  
29   14  
30   51  
31   55  
32   38  
33   69  
34   46  
35   63  
36   46  
37   83  
38   49  
39   22  
40   82  
41   41  
42   25  
43   59  
44   32  
45   5   
46   28  
47   94  
48   68  
49   11  
50   23  
51   16  
52   35  
53   97  
54   61  
55   85  
56   79  
57   47  
58   14  
59   67  
60   6   
61   31  
62   92  
63   21  
64   91  
65   42  
66   5   
67   17  
68   53  
69   1   
70   32  
71   63  
72   21  
73   59  
74   55  
75   33  
76   5   
77   86  
78   18  
79   20  
80   98  
81   27  
82   98  
83   52  
84   61  
85   47  
86   55  
87   24  
88   26  
89   91  
90   51  
91   90  
92   36  
93   31  
94   43  
95   65  
96   96  
97   79  
98   33  
99   51  
100  63  
101  51  
102  42  
103  98  
104  80  
105  17  
106  15  
107  93  
108  52  
109  86  
110  69  
111  90  
112  3   
113  90  
114  47  
115  8   
116  12  
117  83  
118  12  
119  50  
120  83  
121  22  
122  54  
123  59  
124  77  
125  86  
126  42  
127  25  
128  46  
129  10  
130  87  
131  4   
132  70  
133  47  
134  47  
135  43  
136  94  
137  72  
138  59  
139  20  
140  51  
141  12  
142  32  
143  61  
144  58  
145  56  
146  100 
147  99  
148  55  
149  26  
150  65  
151  90  
152  20  
153  18  
154  52  
155  99  
156  26  
157  23  
158  18  
159  47  
160  77  
161  45  
162  91  
163  59  
164  11  
165  23  
166  42  
167  50  
168  3   
169  54  
170  3   
171  4   
172  22  
173  69  
174  79  
175  67  
176  95  
177  27  
178  79  
179  27  
180  74  
181  21  
182  51  
183  21  
184  18  
185  28  
186  94  
187  82  
188  86  
189  32  
190  31  
191  31  
192  28  
193  51  
194  66  
195  70  
196  36  
197  33  
198  65  
199  49  
200  55  
201  97  
202  25  
203  62  
204  68  
205  95  
206  39  
207  34  
208  18  
209  32  
210  78  
211  50  
212  99  
213  13  
214  36  
215  79  
216  6   
217  46  
218  62  
219  68  
220  46  
221  47  
222  76  
223  37  
224  1   
225  34  
226  59  
227  83  
228  46  
229  13  
230  3   
231  76  
232  53  
233  94  
234  15  
235  49  
236  69  
237  12  
238  63  
239  8   
240  70  
241  97  
242  97  
243  14  
244  90  
245  12  
246  53  
247  44  
248  73  
249  18  
250  69  
251  71  
252  1   
253  52  
254  24  
255  14  
256  87  
257  93  
258  59  
259  32  
260  15  
261  48  
262  52  
263  79  
264  51  
265  90  
266  100 
267  93  
268  66  
269  52  
270  37  
271  57  
272  55  
273  34  
274  25  
275  41  
276  88  
277  26  
278  49  
279  12  
280  15  
281  67  
282  39  
283  10  
284  45  
285  4   
286  26  
287  89  
288  100 
289  76  
290  84  
291  77  
292  38  
293  82  
294  44  
295  12  
296  61  
297  63  
298  33  
299  95  
300  79  
301  100 
302  51  
303  75  
304  59  
305  17  
306  96  
307  29  
308  87  
309  92  
310  64  
311  55  
312  34  
313  69  
314  22  
315  2   
316  72  
317  67  
318  74  
319  99  
320  68  
321  37  
322  2   
323  70  
324  72  
325  96  
326  84  
327  38  
328  83  
329  16  
330  39  
331  35  
332  26  
333  91  
334  1   
335  49  
336  12  
337  89  
338  22  
339  25  
340  97  
341  99  
342  14  
343  23  
344  100 
345  7   
346  17  
347  98  
348  30  
349  23  
350  17  
351  42  
352  88  
353  73  
354  63  
355  19  
356  87  
357  84  
358  70  
359  36  
360  38  
361  86  
362  82  
363  72  
364  82  
365  20  
366  95  
367  54  
368  29  
369  74  
370  8   
371  24  
372  27  
373  83  
374  18  
375  22  
376  33  
377  68  
378  69  
379  42  
380  90  
381  92  
382  30  
383  63  
384  83  
385  91  
386  23  
387  45  
388  19  
389  16  
390  71  
391  9   
392  80  
393  32  
394  47  
395  4   
396  25  
397  15  
398  49  
399  48  
400  53  
401  24  
402  72  
403  49  
404  13  
405  82  
406  88  
407  44  
408  32  
409  92  
410  31  
411  11  
412  46  
413  58  
414  52  
415  2   
416  37  
417  89  
418  92  
419  22  
420  8   
421  7   
422  5   
423  12  
424  51  
425  37  
426  24  
427  66  
428  16  
429  34  
430  36  
431  4   
432  1   
433  36  
434  34  
435  73  
436  92  
437  30  
438  51  
439  30  
440  7   
441  26  
442  17  
443  52  
444  68  
445  83  
446  42  
447  95  
448  50  
449  29  
450  18  
451  34  
452  60  
453  31  
454  74  
455  6   
456  79  
457  4   
458  45  
459  44  
460  17  
461  31  
462  3   
463  93  
464  29  
465  87  
466  36  
467  17  
468  13  
469  19  
470  13  
471  38  
472  28  
473  36  
474  21  
475  35  
476  5   
477  42  
478  75  
479  5   
480  63  
481  100 
482  16  
483  24  
484  63  
485  5   
486  75  
487  53  
488  6   
489  92  
490  20  
491  34  
492  56  
493  18  
494  5   
495  79  
496  82  
497  16  
498  70  
499  40  
500  85  
501  4   
502  19  
503  62  
504  17  
505  84  
506  33  
507  38  
508  60  
509  10  
510  96  
511  23  
512  84  
513  43  
514  92  
515  6   
516  50  
517  56  
518  55  
519  92  
520  1   
521  39  
522  30  
523  31  
524  68  
525  46  
526  13  
527  88  
528  72  
529  52  
530  86  
531  75  
532  66  
533  94  
534  97  
535  84  
536  4   
537  53  
538  100 
539  55  
540  72  
541  29  
542  55  
543  13  
544  6   
545  49  
546  35  
547  100 
548  74  
549  45  
550  2   
551  7   
552  81  
553  71  
554  77  
555  17  
556  59  
557  58  
558  21  
559  34  
560  56  
561  72  
562  12  
563  54  
564  81  
565  81  
566  47  
567  25  
568  76  
569  27  
570  60  
571  100 
572  84  
573  85  
574  69  
575  28  
576  75  
577  92  
578  62  
579  85  
580  83  
581  45  
582  86  
583  29  
584  70  
585  21  
586  87  
587  9   
588  76  
589  81  
590  97  
591  94  
592  56  
593  78  
594  40  
595  2   
596  68  
597  24  
598  32  
599  81  
600  20  
601  3   
602  78  
603  95  
604  20  
605  6   
606  57  
607  34  
608  33  
609  38  
610  23  
611  71  
612  99  
613  82  
614  68  
615  89  
616  100 
617  85  
618  88  
619  14  
620  89  
621  52  
622  61  
623  44  
624  86  
625  89  
626  90  
627  100 
628  57  
629  17  
630  51  
631  82  
632  58  
633  35  
634  98  
635  23  
636  77  
637  52  
638  37  
639  22  
640  16  
641  76  
642  65  
643  17  
644  78  
645  100 
646  96  
647  63  
648  72  
649  76  
650  9   
651  60  
652  36  
653  63  
654  100 
655  66  
656  95  
657  9   
658  18  
659  66  
660  39  
661  32  
662  40  
663  70  
664  33  
665  24  
666  59  
667  50  
668  65  
669  22  
670  47  
671  72  
672  73  
673  21  
674  54  
675  63  
676  42  
677  94  
678  60  
679  89  
680  90  
681  2   
682  11  
683  78  
684  47  
685  86  
686  29  
687  3   
688  4   
689  88  
690  8   
691  9   
692  65  
693  89  
694  49  
695  39  
696  35  
697  74  
698  26  
699  21  
700  79  
701  21  
702  92  
703  38  
704  44  
705  97  
706  86  
707  53  
708  35  
709  7   
710  20  
711  25  
712  26  
713  62  
714  64  
715  63  
716  27  
717  85  
718  71  
719  48  
720  88  
721  1   
722  63  
723  49  
724  56  
725  11  
726  10  
727  58  
728  92  
729  66  
730  98  
731  67  
732  96  
733  11  
734  64  
735  56  
736  3   
737  43  
738  24  
739  9   
740  54  
741  59  
742  32  
743  5   
744  25  
745  66  
746  39  
747  20  
748  43  
749  97  
750  86  
751  48  
752  20  
753  10  
754  40  
755  18  
756  10  
757  70  
758  48  
759  66  
760  70  
761  44  
762  75  
763  18  
764  26  
765  51  
766  36  
767  86  
768  48  
769  7   
770  85  
771  19  
772  92  
773  2   
774  75  
775  90  
776  62  
777  80  
778  32  
779  84  
780  61  
781  43  
782  13  
783  70  
784  100 
785  55  
786  81  
787  49  
788  66  
789  74  
790  84  
791  23  
792  43  
793  64  
794  89  
795  1   
796  100 
797  87  
798  40  
799  100 
800  50  
801  80  
802  16  
803  12  
804  25  
805  64  
806  14  
807  94  
808  39  
809  84  
810  75  
811  66  
812  56  
813  94  
814  25  
815  56  
816  20  
817  23  
818  73  
819  9   
820  94  
821  54  
822  93  
823  46  
824  54  
825  43  
826  92  
827  95  
828  16  
829  57  
830  53  
831  9   
832  37  
833  51  
834  29  
835  44  
836  4   
837  28  
838  6   
839  31  
840  14  
841  58  
842  30  
843  96  
844  10  
845  90  
846  60  
847  83  
848  52  
849  9   
850  23  
851  97  
852  26  
853  38  
854  59  
855  74  
856  100 
857  60  
858  63  
859  20  
860  93  
861  93  
862  82  
863  63  
864  93  
865  64  
866  51  
867  82  
868  73  
869  44  
870  73  
871  79  
872  84  
873  31  
874  6   
875  4   
876  52  
877  36  
878  95  
879  20  
880  17  
881  25  
882  72  
883  44  
884  96  
885  94  
886  5   
887  66  
888  81  
889  33  
890  46  
891  63  
892  97  
893  69  
894  48  
895  73  
896  45  
897  79  
898  82  
899  29  
900  36  
901  21  
902  15  
903  70  
904  97  
905  39  
906  82  
907  44  
908  73  
909  65  
910  99  
911  84  
912  75  
913  58  
914  42  
915  41  
916  94  
917  96  
918  99  
919  77  
920  87  
921  95  
922  40  
923  21  
924  61  
925  50  
926  38  
927  77  
928  70  
929  96  
930  64  
931  54  
932  22  
933  41  
934  28  
935  74  
936  84  
937  35  
938  91  
939  75  
940  16  
941  78  
942  76  
943  40  
944  39  
945  44  
946  75  
947  54  
948  5   
949  70  
950  11  
951  53  
952  26  
953  39  
954  61  
955  26  
956  48  
957  73  
958  10  
959  24  
960  39  
961  22  
962  54  
963  88  
964  28  
965  93  
966  79  
967  93  
968  16  
969  99  
970  38  
971  44  
972  34  
973  93  
974  66  
975  6   
976  20  
977  75  
978  5   
979  52  
980  82  
981  55  
982  75  
983  68  
984  53  
985  54  
986  71  
987  5   
988  2   
989  23  
990  93  
991  9   
992  57  
993  60  
994  92  
995  78  
996  35  
997  22  
998  56  
999  55  
1000 96  
1001 49  
DEPOT_SECTION
1
-1
EOF
