NAME : XML1000_1124_49
COMMENT : Generated as the XML100 dataset from the CVRPLIB
TYPE : CVRP
DIMENSION : 1001
EDGE_WEIGHT_TYPE : EUC_2D
CAPACITY : 70
NODE_COORD_SECTION
1    769  189 
2    199  596 
3    570  750 
4    726  927 
5    536  519 
6    972  412 
7    431  573 
8    448  415 
9    227  694 
10   732  848 
11   714  809 
12   236  123 
13   7    300 
14   324  65  
15   903  824 
16   361  541 
17   143  291 
18   198  87  
19   493  697 
20   888  552 
21   748  11  
22   439  973 
23   870  903 
24   53   928 
25   742  336 
26   493  971 
27   1000 631 
28   419  91  
29   904  932 
30   15   663 
31   766  711 
32   948  459 
33   704  736 
34   545  334 
35   113  686 
36   672  384 
37   317  583 
38   535  424 
39   153  987 
40   617  853 
41   386  444 
42   750  977 
43   218  222 
44   551  786 
45   521  736 
46   397  975 
47   815  697 
48   213  876 
49   714  651 
50   366  889 
51   918  399 
52   205  890 
53   298  187 
54   616  97  
55   181  178 
56   714  669 
57   22   14  
58   701  986 
59   199  312 
60   360  418 
61   370  868 
62   862  247 
63   240  93  
64   505  940 
65   213  85  
66   480  438 
67   235  899 
68   173  21  
69   586  330 
70   426  903 
71   561  17  
72   224  768 
73   18   672 
74   208  6   
75   864  976 
76   631  109 
77   5    711 
78   391  536 
79   104  214 
80   260  681 
81   592  764 
82   711  626 
83   77   736 
84   619  790 
85   641  400 
86   195  481 
87   591  63  
88   674  168 
89   143  690 
90   63   945 
91   454  174 
92   491  461 
93   395  97  
94   720  949 
95   360  377 
96   317  443 
97   794  764 
98   694  658 
99   164  340 
100  475  489 
101  330  638 
102  880  40  
103  135  551 
104  572  827 
105  97   924 
106  134  434 
107  519  833 
108  450  572 
109  150  945 
110  984  106 
111  295  140 
112  352  912 
113  864  59  
114  923  383 
115  146  673 
116  610  399 
117  72   369 
118  501  641 
119  752  650 
120  313  450 
121  773  453 
122  332  36  
123  170  401 
124  345  253 
125  841  587 
126  195  76  
127  520  361 
128  869  286 
129  158  939 
130  778  140 
131  64   230 
132  396  978 
133  374  563 
134  982  401 
135  76   631 
136  729  382 
137  691  99  
138  365  761 
139  275  288 
140  341  889 
141  252  951 
142  630  107 
143  555  769 
144  651  328 
145  781  276 
146  745  493 
147  591  673 
148  651  157 
149  374  675 
150  720  427 
151  432  289 
152  217  966 
153  309  57  
154  486  507 
155  575  930 
156  587  1   
157  177  255 
158  206  718 
159  306  805 
160  116  672 
161  742  42  
162  806  472 
163  199  279 
164  340  416 
165  180  702 
166  617  285 
167  241  541 
168  138  705 
169  765  43  
170  982  423 
171  913  692 
172  494  739 
173  62   157 
174  198  179 
175  241  815 
176  94   378 
177  155  394 
178  596  634 
179  831  757 
180  193  887 
181  965  766 
182  76   73  
183  571  699 
184  917  671 
185  645  895 
186  930  906 
187  168  165 
188  200  810 
189  861  528 
190  42   700 
191  243  842 
192  775  196 
193  113  86  
194  443  397 
195  236  574 
196  93   665 
197  365  468 
198  408  677 
199  838  926 
200  733  217 
201  881  479 
202  22   214 
203  582  820 
204  99   852 
205  103  59  
206  520  607 
207  472  945 
208  905  189 
209  100  170 
210  209  980 
211  446  816 
212  442  953 
213  266  620 
214  374  382 
215  60   344 
216  695  626 
217  665  436 
218  606  158 
219  977  461 
220  471  351 
221  291  402 
222  868  136 
223  16   54  
224  491  167 
225  359  402 
226  350  811 
227  791  306 
228  1000 965 
229  244  573 
230  365  454 
231  247  90  
232  222  634 
233  62   26  
234  132  768 
235  716  788 
236  126  190 
237  908  720 
238  61   973 
239  40   532 
240  650  214 
241  991  754 
242  963  772 
243  129  628 
244  305  305 
245  27   342 
246  753  544 
247  444  374 
248  990  655 
249  999  438 
250  483  55  
251  360  213 
252  716  653 
253  52   1000
254  326  346 
255  844  192 
256  654  440 
257  768  700 
258  161  678 
259  937  481 
260  759  898 
261  509  476 
262  438  663 
263  768  309 
264  874  52  
265  418  614 
266  600  316 
267  589  185 
268  262  684 
269  474  365 
270  774  239 
271  477  510 
272  707  298 
273  715  827 
274  824  316 
275  325  898 
276  152  988 
277  304  210 
278  177  514 
279  42   317 
280  489  777 
281  266  430 
282  741  821 
283  43   34  
284  183  432 
285  189  753 
286  285  461 
287  615  852 
288  792  405 
289  202  274 
290  714  315 
291  787  964 
292  729  47  
293  695  45  
294  688  195 
295  773  648 
296  749  681 
297  395  287 
298  565  222 
299  313  245 
300  244  563 
301  831  607 
302  54   430 
303  431  389 
304  647  517 
305  802  162 
306  761  929 
307  752  481 
308  862  850 
309  800  866 
310  609  14  
311  161  403 
312  808  214 
313  463  198 
314  30   975 
315  773  769 
316  638  59  
317  365  300 
318  907  354 
319  893  29  
320  231  458 
321  934  228 
322  690  78  
323  882  428 
324  761  794 
325  536  29  
326  398  315 
327  862  468 
328  489  372 
329  847  843 
330  210  124 
331  74   102 
332  383  699 
333  293  140 
334  848  161 
335  11   827 
336  932  294 
337  986  778 
338  183  692 
339  144  691 
340  287  93  
341  278  35  
342  559  561 
343  172  124 
344  658  930 
345  303  464 
346  535  698 
347  711  667 
348  31   670 
349  27   53  
350  815  904 
351  116  903 
352  494  916 
353  564  523 
354  838  735 
355  168  922 
356  274  275 
357  392  169 
358  520  843 
359  286  914 
360  490  802 
361  344  92  
362  416  624 
363  791  641 
364  745  18  
365  893  945 
366  141  663 
367  821  520 
368  742  138 
369  699  167 
370  869  844 
371  29   202 
372  131  887 
373  654  928 
374  925  250 
375  646  259 
376  220  407 
377  850  345 
378  881  827 
379  949  58  
380  252  795 
381  559  794 
382  659  881 
383  521  273 
384  750  334 
385  915  340 
386  788  864 
387  470  856 
388  372  568 
389  393  362 
390  704  376 
391  420  608 
392  127  224 
393  625  101 
394  695  565 
395  573  966 
396  240  915 
397  453  632 
398  762  335 
399  893  666 
400  207  738 
401  30   538 
402  238  991 
403  53   689 
404  401  460 
405  44   64  
406  41   77  
407  665  649 
408  995  57  
409  330  198 
410  800  47  
411  612  414 
412  585  833 
413  926  470 
414  695  439 
415  916  20  
416  463  727 
417  613  733 
418  580  983 
419  78   736 
420  746  112 
421  77   920 
422  468  522 
423  437  427 
424  326  11  
425  550  66  
426  940  81  
427  725  821 
428  31   651 
429  982  334 
430  227  297 
431  976  830 
432  56   833 
433  191  887 
434  442  469 
435  61   530 
436  111  360 
437  551  394 
438  922  459 
439  440  41  
440  552  749 
441  2    462 
442  817  275 
443  738  885 
444  907  159 
445  525  759 
446  153  878 
447  652  711 
448  921  103 
449  618  569 
450  796  984 
451  200  65  
452  355  613 
453  46   254 
454  140  935 
455  372  37  
456  549  734 
457  50   660 
458  46   281 
459  895  953 
460  778  944 
461  952  441 
462  955  766 
463  187  894 
464  229  482 
465  958  255 
466  686  321 
467  167  418 
468  917  501 
469  931  256 
470  692  639 
471  199  886 
472  830  600 
473  882  799 
474  862  165 
475  577  252 
476  553  480 
477  162  824 
478  498  117 
479  497  665 
480  991  306 
481  535  530 
482  332  94  
483  728  997 
484  921  983 
485  666  366 
486  328  865 
487  160  494 
488  746  484 
489  43   485 
490  332  597 
491  882  893 
492  771  150 
493  976  281 
494  197  790 
495  678  587 
496  714  281 
497  25   315 
498  66   743 
499  918  694 
500  958  403 
501  923  800 
502  769  324 
503  858  563 
504  672  144 
505  470  585 
506  696  510 
507  29   443 
508  779  764 
509  880  578 
510  355  455 
511  308  532 
512  163  541 
513  234  830 
514  338  402 
515  563  749 
516  268  715 
517  132  553 
518  608  244 
519  928  752 
520  415  78  
521  418  916 
522  611  389 
523  720  67  
524  30   514 
525  935  230 
526  266  391 
527  556  746 
528  504  708 
529  407  339 
530  835  319 
531  685  878 
532  372  418 
533  335  908 
534  242  290 
535  712  328 
536  65   895 
537  603  412 
538  985  343 
539  577  768 
540  291  173 
541  688  376 
542  250  644 
543  814  214 
544  787  507 
545  168  340 
546  552  613 
547  631  98  
548  616  863 
549  25   148 
550  946  518 
551  721  180 
552  134  311 
553  929  685 
554  661  367 
555  276  980 
556  713  414 
557  432  553 
558  731  310 
559  463  150 
560  388  901 
561  712  943 
562  996  384 
563  762  544 
564  138  875 
565  312  106 
566  690  30  
567  850  913 
568  580  6   
569  426  375 
570  879  64  
571  893  902 
572  587  957 
573  118  231 
574  520  400 
575  532  365 
576  716  860 
577  556  579 
578  860  316 
579  389  978 
580  107  69  
581  861  15  
582  396  608 
583  370  717 
584  439  170 
585  823  681 
586  540  234 
587  703  359 
588  609  590 
589  266  89  
590  537  821 
591  670  429 
592  708  721 
593  952  26  
594  34   139 
595  978  981 
596  194  91  
597  576  431 
598  152  512 
599  504  662 
600  650  389 
601  181  795 
602  136  653 
603  104  966 
604  62   960 
605  157  465 
606  700  722 
607  855  367 
608  376  122 
609  907  795 
610  819  283 
611  465  599 
612  270  351 
613  525  74  
614  122  98  
615  885  475 
616  81   344 
617  800  934 
618  447  11  
619  1    55  
620  811  427 
621  851  738 
622  655  863 
623  995  108 
624  146  428 
625  45   98  
626  568  148 
627  213  338 
628  178  142 
629  905  71  
630  932  326 
631  412  547 
632  811  27  
633  947  324 
634  834  694 
635  553  406 
636  94   884 
637  541  450 
638  846  250 
639  140  780 
640  976  625 
641  377  198 
642  291  293 
643  272  518 
644  598  166 
645  629  270 
646  54   466 
647  458  52  
648  287  817 
649  172  174 
650  656  144 
651  538  161 
652  284  501 
653  146  558 
654  571  832 
655  334  111 
656  639  329 
657  282  311 
658  836  321 
659  632  15  
660  1000 600 
661  568  952 
662  522  320 
663  26   870 
664  746  711 
665  366  728 
666  464  980 
667  369  971 
668  62   591 
669  460  610 
670  897  53  
671  460  628 
672  22   109 
673  938  490 
674  893  348 
675  357  615 
676  519  259 
677  9    45  
678  145  872 
679  67   782 
680  868  422 
681  783  723 
682  19   467 
683  454  157 
684  447  109 
685  375  4   
686  150  816 
687  699  64  
688  590  584 
689  417  104 
690  702  493 
691  582  827 
692  721  268 
693  450  299 
694  963  793 
695  438  163 
696  745  225 
697  448  347 
698  537  950 
699  660  612 
700  149  963 
701  55   681 
702  195  414 
703  601  59  
704  83   371 
705  70   917 
706  768  721 
707  101  895 
708  452  573 
709  434  296 
710  32   572 
711  625  272 
712  996  575 
713  631  352 
714  263  850 
715  890  701 
716  1    813 
717  987  377 
718  90   751 
719  11   467 
720  493  656 
721  304  869 
722  219  654 
723  207  927 
724  262  58  
725  647  970 
726  110  338 
727  242  256 
728  435  623 
729  614  802 
730  459  361 
731  616  555 
732  536  208 
733  794  342 
734  616  326 
735  103  79  
736  1    687 
737  211  506 
738  45   721 
739  647  817 
740  864  922 
741  224  970 
742  171  726 
743  788  545 
744  81   396 
745  245  684 
746  91   199 
747  730  433 
748  210  815 
749  125  866 
750  923  846 
751  68   960 
752  864  531 
753  68   969 
754  489  901 
755  466  94  
756  99   557 
757  760  977 
758  285  985 
759  238  16  
760  499  774 
761  78   134 
762  564  275 
763  67   134 
764  726  346 
765  828  693 
766  809  689 
767  840  704 
768  813  323 
769  904  432 
770  977  840 
771  63   765 
772  568  254 
773  321  773 
774  648  97  
775  110  342 
776  52   508 
777  36   402 
778  208  356 
779  877  591 
780  500  128 
781  870  704 
782  152  842 
783  929  134 
784  335  707 
785  789  487 
786  306  909 
787  429  571 
788  290  138 
789  764  839 
790  612  863 
791  906  645 
792  686  245 
793  658  174 
794  419  130 
795  163  479 
796  245  14  
797  714  84  
798  291  219 
799  767  337 
800  155  206 
801  784  417 
802  631  562 
803  117  350 
804  73   423 
805  548  289 
806  730  693 
807  839  847 
808  33   863 
809  332  27  
810  133  959 
811  59   354 
812  517  576 
813  426  794 
814  667  115 
815  392  325 
816  595  913 
817  689  539 
818  578  424 
819  372  176 
820  477  759 
821  27   977 
822  837  922 
823  378  506 
824  690  485 
825  851  201 
826  903  867 
827  809  720 
828  454  483 
829  186  979 
830  917  393 
831  48   609 
832  19   573 
833  973  819 
834  641  736 
835  480  410 
836  234  89  
837  454  748 
838  379  318 
839  768  706 
840  408  125 
841  750  908 
842  76   945 
843  326  172 
844  615  436 
845  311  848 
846  348  986 
847  217  265 
848  218  391 
849  801  56  
850  455  740 
851  923  845 
852  427  632 
853  625  486 
854  531  470 
855  715  123 
856  53   589 
857  128  363 
858  256  759 
859  647  928 
860  869  474 
861  934  603 
862  110  67  
863  195  767 
864  656  595 
865  909  119 
866  814  385 
867  609  254 
868  613  633 
869  61   556 
870  312  803 
871  670  102 
872  783  168 
873  798  971 
874  564  377 
875  370  911 
876  161  917 
877  22   960 
878  634  54  
879  784  627 
880  165  887 
881  236  273 
882  988  48  
883  749  4   
884  395  684 
885  588  572 
886  57   289 
887  247  50  
888  928  918 
889  164  15  
890  152  953 
891  579  114 
892  675  994 
893  388  919 
894  439  903 
895  249  724 
896  964  459 
897  309  546 
898  19   289 
899  662  386 
900  687  330 
901  890  101 
902  428  317 
903  105  478 
904  323  273 
905  698  187 
906  840  518 
907  641  470 
908  584  830 
909  178  718 
910  778  844 
911  923  543 
912  164  554 
913  434  653 
914  486  843 
915  146  604 
916  155  344 
917  51   506 
918  356  68  
919  34   966 
920  856  400 
921  321  870 
922  696  509 
923  519  876 
924  429  165 
925  335  130 
926  176  897 
927  415  10  
928  953  579 
929  30   675 
930  330  555 
931  402  812 
932  112  76  
933  237  505 
934  520  139 
935  786  11  
936  544  496 
937  762  984 
938  446  110 
939  390  685 
940  937  845 
941  786  267 
942  182  427 
943  742  517 
944  49   401 
945  370  636 
946  688  546 
947  790  804 
948  655  369 
949  913  893 
950  659  510 
951  135  989 
952  622  955 
953  964  557 
954  145  792 
955  886  381 
956  659  339 
957  424  445 
958  116  576 
959  986  990 
960  877  180 
961  366  778 
962  649  581 
963  376  5   
964  472  796 
965  453  755 
966  119  739 
967  623  690 
968  775  815 
969  456  433 
970  573  680 
971  977  114 
972  893  798 
973  970  892 
974  541  904 
975  735  617 
976  752  697 
977  41   456 
978  285  807 
979  661  411 
980  60   280 
981  706  837 
982  558  673 
983  812  162 
984  267  875 
985  389  245 
986  139  451 
987  379  33  
988  631  901 
989  587  965 
990  421  277 
991  410  914 
992  124  319 
993  276  444 
994  671  479 
995  419  87  
996  330  424 
997  923  551 
998  643  655 
999  867  619 
1000 37   49  
1001 956  328 
DEMAND_SECTION
1    0   
2    3   
3    3   
4    7   
5    8   
6    7   
7    6   
8    8   
9    6   
10   2   
11   3   
12   7   
13   4   
14   3   
15   6   
16   3   
17   5   
18   3   
19   7   
20   4   
21   8   
22   2   
23   5   
24   4   
25   6   
26   5   
27   1   
28   1   
29   10  
30   5   
31   4   
32   1   
33   10  
34   5   
35   2   
36   8   
37   7   
38   8   
39   9   
40   3   
41   6   
42   6   
43   6   
44   5   
45   9   
46   7   
47   6   
48   4   
49   9   
50   3   
51   2   
52   8   
53   7   
54   4   
55   6   
56   5   
57   2   
58   8   
59   9   
60   1   
61   3   
62   9   
63   8   
64   10  
65   7   
66   8   
67   8   
68   3   
69   8   
70   9   
71   4   
72   2   
73   4   
74   4   
75   1   
76   3   
77   6   
78   3   
79   6   
80   10  
81   3   
82   7   
83   6   
84   7   
85   10  
86   8   
87   5   
88   2   
89   1   
90   3   
91   5   
92   3   
93   10  
94   5   
95   10  
96   3   
97   6   
98   4   
99   7   
100  2   
101  6   
102  8   
103  7   
104  5   
105  5   
106  3   
107  4   
108  6   
109  3   
110  5   
111  3   
112  4   
113  7   
114  9   
115  5   
116  3   
117  10  
118  6   
119  10  
120  3   
121  8   
122  9   
123  1   
124  5   
125  3   
126  10  
127  8   
128  5   
129  5   
130  1   
131  8   
132  6   
133  10  
134  4   
135  4   
136  2   
137  7   
138  9   
139  3   
140  2   
141  9   
142  5   
143  4   
144  2   
145  4   
146  3   
147  6   
148  4   
149  9   
150  10  
151  2   
152  1   
153  8   
154  6   
155  10  
156  6   
157  5   
158  4   
159  8   
160  2   
161  1   
162  10  
163  7   
164  9   
165  4   
166  2   
167  3   
168  2   
169  3   
170  8   
171  5   
172  2   
173  3   
174  4   
175  1   
176  2   
177  8   
178  2   
179  7   
180  3   
181  10  
182  6   
183  6   
184  8   
185  10  
186  2   
187  4   
188  4   
189  7   
190  8   
191  8   
192  2   
193  3   
194  5   
195  7   
196  1   
197  3   
198  4   
199  4   
200  8   
201  2   
202  10  
203  9   
204  5   
205  3   
206  6   
207  3   
208  9   
209  4   
210  4   
211  2   
212  8   
213  6   
214  3   
215  3   
216  3   
217  9   
218  4   
219  2   
220  9   
221  9   
222  3   
223  8   
224  8   
225  1   
226  3   
227  8   
228  6   
229  9   
230  6   
231  4   
232  9   
233  2   
234  3   
235  4   
236  4   
237  8   
238  7   
239  7   
240  2   
241  2   
242  6   
243  10  
244  1   
245  7   
246  6   
247  8   
248  7   
249  4   
250  8   
251  1   
252  6   
253  2   
254  2   
255  5   
256  7   
257  1   
258  10  
259  5   
260  7   
261  7   
262  1   
263  2   
264  8   
265  6   
266  6   
267  3   
268  5   
269  7   
270  6   
271  5   
272  1   
273  3   
274  9   
275  1   
276  1   
277  8   
278  5   
279  4   
280  3   
281  9   
282  2   
283  3   
284  2   
285  4   
286  7   
287  4   
288  1   
289  5   
290  6   
291  7   
292  7   
293  6   
294  3   
295  2   
296  2   
297  10  
298  9   
299  8   
300  8   
301  9   
302  4   
303  4   
304  10  
305  8   
306  9   
307  1   
308  2   
309  5   
310  4   
311  1   
312  4   
313  8   
314  6   
315  9   
316  4   
317  8   
318  10  
319  10  
320  3   
321  10  
322  10  
323  4   
324  1   
325  9   
326  9   
327  9   
328  6   
329  7   
330  3   
331  5   
332  2   
333  5   
334  10  
335  5   
336  5   
337  8   
338  6   
339  3   
340  5   
341  1   
342  4   
343  1   
344  3   
345  6   
346  9   
347  1   
348  1   
349  3   
350  6   
351  3   
352  5   
353  9   
354  3   
355  8   
356  3   
357  6   
358  8   
359  4   
360  4   
361  7   
362  8   
363  10  
364  5   
365  1   
366  3   
367  7   
368  8   
369  4   
370  3   
371  5   
372  6   
373  7   
374  7   
375  2   
376  4   
377  4   
378  5   
379  2   
380  1   
381  8   
382  5   
383  5   
384  8   
385  2   
386  2   
387  9   
388  5   
389  9   
390  8   
391  8   
392  4   
393  1   
394  5   
395  1   
396  6   
397  4   
398  2   
399  5   
400  10  
401  2   
402  2   
403  8   
404  3   
405  7   
406  10  
407  1   
408  5   
409  8   
410  5   
411  8   
412  5   
413  1   
414  1   
415  8   
416  4   
417  2   
418  1   
419  9   
420  6   
421  6   
422  7   
423  10  
424  10  
425  8   
426  8   
427  8   
428  2   
429  8   
430  10  
431  9   
432  7   
433  9   
434  7   
435  10  
436  8   
437  6   
438  9   
439  8   
440  6   
441  4   
442  10  
443  7   
444  8   
445  5   
446  8   
447  9   
448  1   
449  8   
450  3   
451  1   
452  2   
453  1   
454  1   
455  3   
456  1   
457  2   
458  9   
459  3   
460  9   
461  4   
462  5   
463  3   
464  7   
465  1   
466  8   
467  7   
468  6   
469  10  
470  2   
471  6   
472  5   
473  6   
474  4   
475  7   
476  9   
477  4   
478  10  
479  3   
480  2   
481  2   
482  10  
483  8   
484  2   
485  1   
486  10  
487  2   
488  3   
489  7   
490  7   
491  7   
492  2   
493  2   
494  3   
495  4   
496  3   
497  8   
498  2   
499  1   
500  8   
501  1   
502  10  
503  2   
504  7   
505  9   
506  4   
507  10  
508  8   
509  10  
510  4   
511  2   
512  5   
513  5   
514  4   
515  8   
516  8   
517  6   
518  8   
519  4   
520  4   
521  6   
522  4   
523  1   
524  8   
525  9   
526  4   
527  6   
528  1   
529  6   
530  2   
531  8   
532  6   
533  7   
534  6   
535  4   
536  1   
537  9   
538  3   
539  3   
540  8   
541  4   
542  2   
543  6   
544  6   
545  1   
546  2   
547  9   
548  7   
549  8   
550  7   
551  7   
552  9   
553  10  
554  6   
555  7   
556  1   
557  8   
558  3   
559  10  
560  6   
561  2   
562  8   
563  9   
564  3   
565  6   
566  9   
567  5   
568  1   
569  9   
570  10  
571  1   
572  5   
573  2   
574  8   
575  3   
576  8   
577  7   
578  3   
579  8   
580  6   
581  7   
582  8   
583  6   
584  7   
585  6   
586  9   
587  6   
588  6   
589  1   
590  6   
591  8   
592  4   
593  1   
594  3   
595  2   
596  10  
597  3   
598  1   
599  1   
600  2   
601  7   
602  1   
603  3   
604  5   
605  2   
606  1   
607  2   
608  8   
609  5   
610  1   
611  4   
612  1   
613  9   
614  6   
615  10  
616  2   
617  4   
618  5   
619  5   
620  8   
621  2   
622  5   
623  6   
624  7   
625  9   
626  2   
627  8   
628  3   
629  10  
630  3   
631  10  
632  7   
633  8   
634  7   
635  1   
636  7   
637  10  
638  6   
639  8   
640  10  
641  6   
642  4   
643  6   
644  6   
645  9   
646  8   
647  1   
648  1   
649  6   
650  9   
651  10  
652  5   
653  4   
654  3   
655  1   
656  5   
657  2   
658  9   
659  4   
660  4   
661  1   
662  2   
663  6   
664  10  
665  4   
666  7   
667  5   
668  7   
669  2   
670  7   
671  6   
672  10  
673  7   
674  4   
675  6   
676  2   
677  7   
678  3   
679  1   
680  2   
681  8   
682  1   
683  7   
684  10  
685  2   
686  9   
687  3   
688  4   
689  5   
690  3   
691  7   
692  9   
693  6   
694  8   
695  6   
696  2   
697  8   
698  6   
699  9   
700  8   
701  1   
702  4   
703  6   
704  6   
705  3   
706  7   
707  8   
708  1   
709  8   
710  5   
711  2   
712  10  
713  4   
714  3   
715  7   
716  1   
717  6   
718  1   
719  4   
720  6   
721  2   
722  10  
723  8   
724  2   
725  3   
726  7   
727  1   
728  6   
729  3   
730  10  
731  10  
732  4   
733  8   
734  1   
735  9   
736  5   
737  4   
738  7   
739  6   
740  4   
741  2   
742  6   
743  4   
744  9   
745  5   
746  9   
747  9   
748  7   
749  3   
750  5   
751  10  
752  7   
753  1   
754  2   
755  6   
756  5   
757  6   
758  9   
759  5   
760  8   
761  7   
762  3   
763  10  
764  7   
765  8   
766  3   
767  7   
768  6   
769  5   
770  3   
771  4   
772  10  
773  9   
774  9   
775  9   
776  6   
777  8   
778  8   
779  8   
780  1   
781  4   
782  10  
783  6   
784  1   
785  10  
786  8   
787  2   
788  3   
789  9   
790  4   
791  9   
792  3   
793  2   
794  10  
795  1   
796  5   
797  8   
798  10  
799  3   
800  7   
801  6   
802  4   
803  5   
804  4   
805  1   
806  2   
807  5   
808  3   
809  4   
810  3   
811  3   
812  5   
813  9   
814  1   
815  8   
816  1   
817  10  
818  8   
819  1   
820  3   
821  6   
822  4   
823  2   
824  7   
825  8   
826  4   
827  4   
828  10  
829  4   
830  5   
831  3   
832  1   
833  3   
834  2   
835  8   
836  6   
837  8   
838  8   
839  1   
840  1   
841  6   
842  9   
843  10  
844  2   
845  8   
846  6   
847  7   
848  5   
849  3   
850  10  
851  10  
852  7   
853  8   
854  5   
855  6   
856  9   
857  3   
858  6   
859  9   
860  5   
861  6   
862  10  
863  2   
864  10  
865  9   
866  1   
867  9   
868  3   
869  7   
870  4   
871  3   
872  2   
873  2   
874  4   
875  5   
876  10  
877  3   
878  4   
879  2   
880  9   
881  7   
882  8   
883  6   
884  2   
885  3   
886  8   
887  3   
888  9   
889  5   
890  4   
891  8   
892  1   
893  7   
894  1   
895  10  
896  7   
897  4   
898  8   
899  9   
900  6   
901  1   
902  1   
903  1   
904  2   
905  8   
906  4   
907  8   
908  8   
909  2   
910  1   
911  2   
912  2   
913  4   
914  8   
915  6   
916  10  
917  7   
918  2   
919  1   
920  4   
921  8   
922  3   
923  1   
924  7   
925  10  
926  1   
927  4   
928  4   
929  10  
930  9   
931  9   
932  7   
933  4   
934  6   
935  10  
936  8   
937  1   
938  2   
939  10  
940  2   
941  7   
942  5   
943  2   
944  6   
945  3   
946  6   
947  3   
948  5   
949  9   
950  5   
951  4   
952  4   
953  5   
954  5   
955  2   
956  3   
957  1   
958  1   
959  10  
960  1   
961  8   
962  1   
963  1   
964  9   
965  10  
966  5   
967  7   
968  5   
969  5   
970  7   
971  3   
972  9   
973  8   
974  6   
975  6   
976  1   
977  3   
978  9   
979  2   
980  7   
981  9   
982  7   
983  5   
984  9   
985  4   
986  10  
987  7   
988  3   
989  1   
990  8   
991  10  
992  5   
993  8   
994  8   
995  3   
996  10  
997  6   
998  3   
999  1   
1000 2   
1001 7   
DEPOT_SECTION
1
-1
EOF
