NAME : XML1000_2362_60
COMMENT : Generated as the XML100 dataset from the CVRPLIB
TYPE : CVRP
DIMENSION : 1001
EDGE_WEIGHT_TYPE : EUC_2D
CAPACITY : 410
NODE_COORD_SECTION
1    500  500 
2    324  618 
3    380  519 
4    189  573 
5    554  177 
6    849  979 
7    356  561 
8    351  483 
9    169  79  
10   292  406 
11   408  608 
12   686  952 
13   149  604 
14   40   468 
15   435  979 
16   50   500 
17   230  458 
18   207  465 
19   146  733 
20   40   59  
21   641  428 
22   189  20  
23   930  549 
24   130  874 
25   191  466 
26   903  833 
27   417  967 
28   700  483 
29   398  23  
30   907  794 
31   531  571 
32   311  531 
33   273  675 
34   815  73  
35   382  600 
36   74   66  
37   385  178 
38   163  13  
39   98   5   
40   79   428 
41   840  359 
42   342  402 
43   663  964 
44   554  819 
45   620  337 
46   49   18  
47   164  624 
48   205  522 
49   241  606 
50   710  914 
51   284  168 
52   557  982 
53   333  936 
54   514  859 
55   71   698 
56   169  339 
57   450  865 
58   202  89  
59   254  127 
60   833  993 
61   258  762 
62   285  788 
63   456  261 
64   121  128 
65   870  395 
66   306  591 
67   62   478 
68   207  51  
69   209  497 
70   349  382 
71   102  532 
72   756  10  
73   201  502 
74   120  666 
75   75   524 
76   454  691 
77   243  489 
78   38   633 
79   999  890 
80   152  627 
81   258  407 
82   979  176 
83   729  886 
84   426  885 
85   212  31  
86   820  21  
87   845  859 
88   518  312 
89   273  535 
90   323  792 
91   400  576 
92   894  492 
93   620  998 
94   500  16  
95   285  518 
96   739  298 
97   397  934 
98   482  129 
99   195  472 
100  102  244 
101  223  552 
102  241  457 
103  1000 747 
104  305  460 
105  40   49  
106  172  586 
107  777  199 
108  728  953 
109  960  958 
110  405  547 
111  133  524 
112  697  993 
113  500  537 
114  18   119 
115  20   238 
116  155  521 
117  268  541 
118  835  298 
119  426  606 
120  214  579 
121  83   105 
122  333  149 
123  335  469 
124  82   149 
125  304  500 
126  401  451 
127  204  660 
128  491  88  
129  529  618 
130  551  466 
131  986  67  
132  301  193 
133  705  960 
134  285  477 
135  235  647 
136  116  556 
137  187  180 
138  704  61  
139  161  42  
140  821  973 
141  283  553 
142  172  51  
143  547  114 
144  105  574 
145  952  419 
146  791  474 
147  148  755 
148  840  614 
149  222  564 
150  98   934 
151  673  976 
152  760  990 
153  277  518 
154  677  983 
155  665  87  
156  676  273 
157  259  488 
158  378  677 
159  844  989 
160  981  738 
161  756  220 
162  104  721 
163  210  464 
164  371  647 
165  307  653 
166  983  509 
167  610  291 
168  246  5   
169  528  221 
170  192  43  
171  920  89  
172  338  991 
173  292  130 
174  404  698 
175  351  27  
176  962  580 
177  756  997 
178  892  125 
179  666  447 
180  416  928 
181  621  970 
182  230  420 
183  839  375 
184  58   48  
185  551  753 
186  216  485 
187  68   92  
188  368  619 
189  267  576 
190  533  457 
191  712  688 
192  474  142 
193  263  444 
194  944  693 
195  127  7   
196  636  451 
197  622  880 
198  154  546 
199  666  977 
200  99   610 
201  761  293 
202  287  154 
203  208  526 
204  588  658 
205  220  729 
206  93   41  
207  266  616 
208  424  653 
209  732  769 
210  671  948 
211  76   711 
212  476  709 
213  319  716 
214  492  397 
215  307  760 
216  160  323 
217  152  459 
218  696  959 
219  182  91  
220  517  72  
221  363  679 
222  805  884 
223  369  573 
224  795  672 
225  28   945 
226  562  479 
227  98   762 
228  227  507 
229  547  863 
230  168  192 
231  128  394 
232  540  985 
233  525  39  
234  66   1   
235  659  933 
236  292  502 
237  565  84  
238  472  469 
239  50   331 
240  684  459 
241  158  520 
242  6    544 
243  747  655 
244  275  31  
245  599  262 
246  292  111 
247  202  446 
248  300  451 
249  999  461 
250  934  490 
251  111  435 
252  219  535 
253  210  566 
254  365  589 
255  733  994 
256  871  568 
257  26   476 
258  970  412 
259  266  723 
260  192  545 
261  336  153 
262  212  523 
263  76   86  
264  278  706 
265  357  194 
266  204  101 
267  509  746 
268  323  857 
269  991  233 
270  325  409 
271  109  614 
272  246  601 
273  288  616 
274  324  700 
275  298  373 
276  157  16  
277  911  991 
278  750  381 
279  376  567 
280  223  635 
281  297  859 
282  954  714 
283  281  567 
284  243  46  
285  381  663 
286  24   26  
287  107  698 
288  257  386 
289  578  948 
290  800  494 
291  24   938 
292  348  504 
293  160  313 
294  237  8   
295  273  986 
296  540  445 
297  445  940 
298  621  946 
299  295  605 
300  664  943 
301  275  547 
302  660  874 
303  223  509 
304  235  712 
305  162  508 
306  786  851 
307  68   989 
308  693  907 
309  752  477 
310  944  260 
311  576  242 
312  950  959 
313  256  551 
314  274  447 
315  466  608 
316  157  11  
317  214  554 
318  262  311 
319  692  938 
320  296  44  
321  156  549 
322  198  564 
323  187  564 
324  694  233 
325  389  528 
326  326  588 
327  992  183 
328  448  586 
329  656  890 
330  555  331 
331  90   222 
332  746  765 
333  814  15  
334  244  280 
335  559  539 
336  240  157 
337  407  661 
338  243  153 
339  513  679 
340  80   37  
341  466  756 
342  24   789 
343  487  123 
344  625  502 
345  780  943 
346  927  733 
347  303  460 
348  171  588 
349  949  980 
350  554  707 
351  512  234 
352  362  793 
353  933  883 
354  339  562 
355  200  642 
356  219  228 
357  689  779 
358  154  117 
359  763  966 
360  603  837 
361  503  899 
362  661  680 
363  177  91  
364  492  997 
365  42   550 
366  288  453 
367  736  463 
368  941  743 
369  485  500 
370  423  906 
371  200  507 
372  773  378 
373  222  745 
374  442  120 
375  229  403 
376  393  502 
377  938  463 
378  417  868 
379  711  393 
380  217  532 
381  316  565 
382  951  420 
383  778  977 
384  6    488 
385  763  467 
386  716  782 
387  343  784 
388  207  487 
389  540  547 
390  192  624 
391  189  689 
392  188  492 
393  150  636 
394  921  513 
395  178  51  
396  740  968 
397  53   694 
398  641  50  
399  201  300 
400  200  722 
401  154  615 
402  305  537 
403  117  724 
404  586  946 
405  200  75  
406  99   32  
407  157  104 
408  363  627 
409  97   489 
410  31   126 
411  172  492 
412  228  155 
413  223  58  
414  192  754 
415  208  442 
416  721  838 
417  555  824 
418  347  795 
419  403  281 
420  390  589 
421  198  675 
422  171  142 
423  113  308 
424  873  185 
425  363  501 
426  118  813 
427  331  530 
428  375  704 
429  551  799 
430  105  215 
431  938  552 
432  309  539 
433  614  995 
434  545  886 
435  770  995 
436  685  628 
437  138  239 
438  34   438 
439  198  531 
440  188  496 
441  347  242 
442  352  171 
443  290  772 
444  878  128 
445  270  147 
446  788  91  
447  70   229 
448  110  414 
449  643  932 
450  342  675 
451  618  857 
452  246  976 
453  842  58  
454  125  439 
455  456  660 
456  316  546 
457  605  896 
458  374  725 
459  975  209 
460  270  515 
461  757  871 
462  142  604 
463  960  324 
464  804  485 
465  313  742 
466  255  490 
467  350  660 
468  677  399 
469  997  480 
470  311  552 
471  251  547 
472  296  33  
473  107  8   
474  659  988 
475  863  656 
476  252  502 
477  601  516 
478  189  562 
479  295  580 
480  522  619 
481  822  493 
482  307  554 
483  288  541 
484  899  438 
485  686  959 
486  446  898 
487  773  875 
488  185  448 
489  667  964 
490  177  26  
491  281  263 
492  177  462 
493  708  983 
494  115  487 
495  114  6   
496  254  404 
497  789  837 
498  298  590 
499  668  538 
500  81   732 
501  728  979 
502  633  580 
503  481  702 
504  754  232 
505  504  942 
506  196  161 
507  978  852 
508  165  591 
509  649  951 
510  401  459 
511  174  578 
512  213  497 
513  554  808 
514  612  413 
515  997  978 
516  906  869 
517  625  203 
518  329  708 
519  768  926 
520  326  392 
521  343  472 
522  111  903 
523  565  408 
524  356  563 
525  647  883 
526  203  568 
527  291  461 
528  712  216 
529  361  507 
530  612  516 
531  796  197 
532  396  245 
533  306  580 
534  881  3   
535  957  550 
536  272  713 
537  198  498 
538  298  585 
539  159  9   
540  849  190 
541  6    306 
542  645  967 
543  495  205 
544  655  999 
545  475  236 
546  74   697 
547  197  511 
548  107  883 
549  51   228 
550  922  934 
551  313  323 
552  171  657 
553  279  172 
554  637  563 
555  617  78  
556  659  987 
557  205  488 
558  108  70  
559  152  634 
560  151  4   
561  717  919 
562  201  545 
563  569  437 
564  61   623 
565  707  389 
566  655  864 
567  150  54  
568  168  102 
569  181  32  
570  652  966 
571  509  252 
572  558  126 
573  265  538 
574  133  1   
575  640  982 
576  746  1000
577  353  4   
578  395  486 
579  689  704 
580  69   245 
581  955  576 
582  633  952 
583  379  151 
584  668  910 
585  723  864 
586  34   144 
587  198  475 
588  132  539 
589  517  777 
590  276  562 
591  645  935 
592  216  520 
593  275  179 
594  360  555 
595  151  552 
596  924  368 
597  915  814 
598  413  140 
599  168  879 
600  106  1   
601  356  423 
602  284  17  
603  448  497 
604  880  200 
605  312  1000
606  202  603 
607  248  570 
608  887  724 
609  641  919 
610  176  93  
611  272  546 
612  271  492 
613  228  530 
614  643  858 
615  220  526 
616  307  494 
617  363  831 
618  508  166 
619  309  622 
620  408  88  
621  192  46  
622  250  643 
623  261  554 
624  276  36  
625  44   565 
626  726  919 
627  247  485 
628  701  844 
629  490  889 
630  478  268 
631  519  696 
632  491  625 
633  358  361 
634  240  625 
635  967  981 
636  210  435 
637  385  952 
638  204  550 
639  132  543 
640  296  624 
641  592  784 
642  916  350 
643  306  817 
644  478  771 
645  294  434 
646  637  944 
647  503  199 
648  209  494 
649  291  545 
650  301  348 
651  624  98  
652  391  879 
653  825  982 
654  254  744 
655  32   461 
656  174  792 
657  706  662 
658  980  636 
659  303  110 
660  159  511 
661  275  48  
662  380  488 
663  837  89  
664  260  166 
665  510  863 
666  670  815 
667  540  449 
668  758  937 
669  598  957 
670  128  114 
671  178  371 
672  993  184 
673  275  560 
674  154  23  
675  880  801 
676  157  595 
677  348  553 
678  564  681 
679  110  910 
680  247  507 
681  219  399 
682  131  48  
683  230  18  
684  247  98  
685  956  418 
686  833  576 
687  268  529 
688  721  920 
689  419  698 
690  34   646 
691  403  363 
692  272  545 
693  969  622 
694  754  935 
695  962  79  
696  916  866 
697  250  624 
698  343  434 
699  906  849 
700  263  563 
701  694  920 
702  402  254 
703  369  306 
704  526  964 
705  228  367 
706  277  479 
707  650  761 
708  170  362 
709  738  981 
710  458  658 
711  894  978 
712  811  943 
713  239  897 
714  543  909 
715  42   716 
716  565  909 
717  738  828 
718  133  80  
719  170  227 
720  286  420 
721  280  535 
722  678  944 
723  279  390 
724  741  335 
725  828  739 
726  691  990 
727  703  61  
728  730  591 
729  191  533 
730  564  150 
731  111  195 
732  431  276 
733  669  971 
734  672  995 
735  851  490 
736  105  130 
737  181  21  
738  171  75  
739  962  595 
740  751  897 
741  602  954 
742  754  804 
743  894  964 
744  382  514 
745  849  565 
746  386  664 
747  144  484 
748  735  827 
749  521  956 
750  162  538 
751  610  247 
752  131  532 
753  390  643 
754  72   455 
755  403  1000
756  343  577 
757  157  32  
758  141  591 
759  313  545 
760  670  953 
761  275  918 
762  252  22  
763  276  416 
764  651  949 
765  178  82  
766  655  821 
767  871  952 
768  579  435 
769  92   415 
770  628  538 
771  738  944 
772  537  298 
773  166  611 
774  704  951 
775  296  995 
776  237  15  
777  150  523 
778  175  40  
779  250  470 
780  928  30  
781  460  209 
782  453  551 
783  772  48  
784  58   714 
785  206  45  
786  104  263 
787  476  809 
788  255  423 
789  236  571 
790  226  536 
791  375  479 
792  594  526 
793  209  474 
794  208  82  
795  973  968 
796  202  587 
797  51   665 
798  579  394 
799  393  402 
800  659  274 
801  168  27  
802  290  529 
803  587  923 
804  689  800 
805  701  536 
806  186  81  
807  621  903 
808  244  678 
809  721  761 
810  153  11  
811  1    35  
812  460  586 
813  47   905 
814  128  85  
815  685  277 
816  715  955 
817  295  369 
818  714  987 
819  425  475 
820  267  554 
821  646  968 
822  174  484 
823  332  503 
824  505  184 
825  211  631 
826  238  496 
827  206  525 
828  241  492 
829  249  514 
830  751  999 
831  461  931 
832  220  60  
833  699  970 
834  268  347 
835  980  840 
836  324  544 
837  625  383 
838  168  516 
839  328  416 
840  72   975 
841  102  836 
842  227  429 
843  771  842 
844  834  651 
845  809  576 
846  240  806 
847  246  975 
848  847  23  
849  66   123 
850  345  441 
851  288  572 
852  69   39  
853  444  483 
854  467  961 
855  558  841 
856  152  64  
857  612  970 
858  288  837 
859  522  21  
860  609  416 
861  346  680 
862  235  565 
863  270  532 
864  277  580 
865  823  772 
866  12   682 
867  658  537 
868  688  965 
869  593  804 
870  273  536 
871  611  196 
872  1000 386 
873  271  524 
874  97   887 
875  181  630 
876  812  195 
877  328  411 
878  700  957 
879  132  863 
880  103  311 
881  358  281 
882  744  963 
883  728  857 
884  724  100 
885  174  609 
886  582  910 
887  215  717 
888  14   974 
889  657  842 
890  254  565 
891  236  529 
892  260  886 
893  251  667 
894  70   744 
895  202  527 
896  317  612 
897  190  580 
898  208  476 
899  772  518 
900  285  561 
901  251  38  
902  268  499 
903  400  228 
904  301  771 
905  581  816 
906  318  613 
907  497  844 
908  577  687 
909  616  944 
910  236  632 
911  194  388 
912  316  423 
913  263  506 
914  186  66  
915  496  628 
916  213  29  
917  31   290 
918  199  521 
919  931  138 
920  34   45  
921  265  39  
922  906  639 
923  240  540 
924  289  643 
925  229  638 
926  709  848 
927  318  734 
928  341  699 
929  133  670 
930  245  484 
931  277  278 
932  620  361 
933  989  344 
934  308  531 
935  630  820 
936  661  798 
937  267  112 
938  205  555 
939  151  556 
940  536  794 
941  500  719 
942  94   40  
943  687  554 
944  426  797 
945  235  564 
946  657  940 
947  86   194 
948  891  878 
949  92   790 
950  71   340 
951  660  982 
952  212  428 
953  166  559 
954  912  263 
955  893  21  
956  257  350 
957  906  378 
958  336  76  
959  260  584 
960  468  659 
961  178  542 
962  319  14  
963  820  445 
964  819  984 
965  376  167 
966  449  627 
967  415  629 
968  134  490 
969  170  574 
970  235  694 
971  652  574 
972  646  930 
973  235  47  
974  92   264 
975  813  927 
976  11   666 
977  529  750 
978  226  84  
979  494  652 
980  185  64  
981  227  546 
982  858  449 
983  900  275 
984  207  497 
985  240  494 
986  755  293 
987  883  878 
988  315  30  
989  185  329 
990  119  622 
991  274  505 
992  162  840 
993  158  74  
994  239  556 
995  65   907 
996  871  86  
997  861  450 
998  170  551 
999  785  577 
1000 192  737 
1001 175  666 
DEMAND_SECTION
1    0   
2    36  
3    40  
4    29  
5    41  
6    86  
7    8   
8    67  
9    83  
10   85  
11   26  
12   64  
13   14  
14   95  
15   41  
16   19  
17   95  
18   98  
19   8   
20   55  
21   37  
22   62  
23   70  
24   31  
25   86  
26   58  
27   50  
28   17  
29   81  
30   67  
31   85  
32   29  
33   27  
34   50  
35   36  
36   98  
37   77  
38   64  
39   55  
40   74  
41   49  
42   94  
43   80  
44   78  
45   28  
46   84  
47   9   
48   23  
49   8   
50   54  
51   52  
52   81  
53   12  
54   70  
55   30  
56   67  
57   49  
58   61  
59   84  
60   92  
61   39  
62   29  
63   57  
64   92  
65   25  
66   8   
67   86  
68   93  
69   73  
70   98  
71   17  
72   37  
73   3   
74   43  
75   25  
76   12  
77   81  
78   48  
79   59  
80   14  
81   96  
82   23  
83   51  
84   7   
85   96  
86   12  
87   64  
88   26  
89   7   
90   8   
91   48  
92   31  
93   89  
94   27  
95   18  
96   32  
97   26  
98   60  
99   90  
100  82  
101  45  
102  74  
103  93  
104  97  
105  84  
106  47  
107  1   
108  88  
109  93  
110  22  
111  11  
112  69  
113  100 
114  93  
115  59  
116  36  
117  45  
118  34  
119  20  
120  9   
121  57  
122  53  
123  63  
124  57  
125  13  
126  51  
127  36  
128  78  
129  86  
130  11  
131  14  
132  87  
133  84  
134  64  
135  21  
136  33  
137  77  
138  5   
139  74  
140  63  
141  41  
142  97  
143  15  
144  5   
145  11  
146  47  
147  48  
148  74  
149  29  
150  13  
151  87  
152  94  
153  19  
154  67  
155  18  
156  32  
157  91  
158  26  
159  87  
160  88  
161  23  
162  3   
163  74  
164  28  
165  13  
166  71  
167  35  
168  88  
169  41  
170  95  
171  33  
172  1   
173  51  
174  45  
175  96  
176  76  
177  78  
178  27  
179  36  
180  29  
181  100 
182  55  
183  28  
184  62  
185  86  
186  98  
187  76  
188  22  
189  49  
190  46  
191  67  
192  88  
193  87  
194  65  
195  66  
196  36  
197  54  
198  4   
199  95  
200  17  
201  49  
202  67  
203  27  
204  86  
205  44  
206  53  
207  42  
208  47  
209  71  
210  71  
211  41  
212  21  
213  27  
214  67  
215  15  
216  51  
217  85  
218  97  
219  80  
220  49  
221  34  
222  78  
223  47  
224  78  
225  27  
226  17  
227  20  
228  13  
229  79  
230  64  
231  89  
232  73  
233  44  
234  70  
235  86  
236  22  
237  3   
238  81  
239  98  
240  42  
241  20  
242  50  
243  81  
244  61  
245  50  
246  100 
247  98  
248  52  
249  3   
250  2   
251  51  
252  28  
253  3   
254  44  
255  89  
256  69  
257  81  
258  42  
259  48  
260  34  
261  61  
262  45  
263  67  
264  13  
265  59  
266  65  
267  81  
268  43  
269  16  
270  51  
271  49  
272  28  
273  34  
274  29  
275  82  
276  62  
277  84  
278  10  
279  50  
280  41  
281  49  
282  63  
283  13  
284  67  
285  22  
286  62  
287  9   
288  64  
289  56  
290  49  
291  28  
292  22  
293  97  
294  80  
295  9   
296  2   
297  39  
298  89  
299  20  
300  74  
301  38  
302  75  
303  23  
304  47  
305  10  
306  69  
307  50  
308  51  
309  30  
310  28  
311  48  
312  67  
313  34  
314  68  
315  27  
316  73  
317  3   
318  51  
319  91  
320  56  
321  26  
322  22  
323  25  
324  47  
325  33  
326  43  
327  18  
328  29  
329  99  
330  49  
331  68  
332  67  
333  49  
334  84  
335  91  
336  99  
337  7   
338  85  
339  86  
340  66  
341  34  
342  24  
343  98  
344  87  
345  73  
346  61  
347  99  
348  5   
349  66  
350  68  
351  21  
352  7   
353  75  
354  41  
355  27  
356  94  
357  63  
358  65  
359  86  
360  80  
361  97  
362  52  
363  72  
364  14  
365  24  
366  64  
367  14  
368  62  
369  12  
370  16  
371  39  
372  43  
373  34  
374  66  
375  98  
376  10  
377  39  
378  1   
379  46  
380  30  
381  40  
382  44  
383  65  
384  91  
385  9   
386  82  
387  21  
388  64  
389  56  
390  17  
391  39  
392  72  
393  39  
394  90  
395  97  
396  84  
397  27  
398  27  
399  93  
400  25  
401  33  
402  43  
403  11  
404  56  
405  96  
406  70  
407  64  
408  20  
409  70  
410  60  
411  64  
412  64  
413  85  
414  16  
415  55  
416  78  
417  57  
418  2   
419  55  
420  34  
421  30  
422  60  
423  77  
424  27  
425  5   
426  16  
427  29  
428  41  
429  97  
430  88  
431  72  
432  8   
433  51  
434  71  
435  85  
436  76  
437  71  
438  78  
439  16  
440  59  
441  54  
442  95  
443  42  
444  9   
445  98  
446  17  
447  66  
448  97  
449  54  
450  5   
451  57  
452  16  
453  9   
454  83  
455  26  
456  46  
457  88  
458  35  
459  15  
460  31  
461  93  
462  34  
463  43  
464  7   
465  24  
466  91  
467  32  
468  8   
469  43  
470  22  
471  49  
472  96  
473  97  
474  96  
475  52  
476  22  
477  60  
478  3   
479  30  
480  75  
481  13  
482  9   
483  28  
484  30  
485  72  
486  32  
487  97  
488  51  
489  64  
490  92  
491  55  
492  96  
493  68  
494  83  
495  76  
496  73  
497  96  
498  25  
499  80  
500  29  
501  61  
502  68  
503  30  
504  24  
505  70  
506  74  
507  56  
508  35  
509  63  
510  56  
511  47  
512  64  
513  80  
514  27  
515  62  
516  91  
517  13  
518  16  
519  82  
520  56  
521  69  
522  37  
523  23  
524  49  
525  61  
526  28  
527  71  
528  48  
529  2   
530  86  
531  10  
532  82  
533  21  
534  8   
535  52  
536  20  
537  98  
538  25  
539  93  
540  50  
541  81  
542  76  
543  86  
544  86  
545  72  
546  32  
547  29  
548  12  
549  83  
550  100 
551  54  
552  33  
553  67  
554  54  
555  38  
556  63  
557  77  
558  63  
559  35  
560  95  
561  66  
562  49  
563  17  
564  28  
565  26  
566  89  
567  67  
568  68  
569  64  
570  79  
571  25  
572  20  
573  47  
574  73  
575  78  
576  60  
577  99  
578  84  
579  69  
580  59  
581  84  
582  91  
583  68  
584  79  
585  59  
586  52  
587  71  
588  23  
589  77  
590  15  
591  79  
592  4   
593  100 
594  38  
595  14  
596  35  
597  93  
598  96  
599  21  
600  79  
601  79  
602  88  
603  97  
604  44  
605  13  
606  49  
607  21  
608  84  
609  58  
610  63  
611  14  
612  64  
613  14  
614  61  
615  16  
616  72  
617  36  
618  36  
619  46  
620  95  
621  59  
622  33  
623  6   
624  58  
625  11  
626  70  
627  96  
628  52  
629  44  
630  81  
631  94  
632  32  
633  90  
634  35  
635  51  
636  76  
637  10  
638  11  
639  48  
640  6   
641  58  
642  14  
643  41  
644  23  
645  56  
646  66  
647  48  
648  57  
649  42  
650  100 
651  15  
652  50  
653  51  
654  13  
655  62  
656  5   
657  93  
658  98  
659  55  
660  9   
661  100 
662  92  
663  16  
664  60  
665  68  
666  63  
667  21  
668  73  
669  77  
670  68  
671  67  
672  14  
673  42  
674  78  
675  77  
676  42  
677  35  
678  87  
679  46  
680  25  
681  71  
682  84  
683  55  
684  93  
685  12  
686  55  
687  46  
688  83  
689  29  
690  10  
691  72  
692  17  
693  73  
694  65  
695  2   
696  60  
697  22  
698  98  
699  83  
700  34  
701  74  
702  67  
703  99  
704  77  
705  51  
706  62  
707  94  
708  74  
709  79  
710  26  
711  51  
712  100 
713  32  
714  99  
715  9   
716  83  
717  93  
718  76  
719  92  
720  69  
721  11  
722  97  
723  87  
724  9   
725  90  
726  69  
727  33  
728  80  
729  48  
730  46  
731  56  
732  98  
733  65  
734  51  
735  16  
736  85  
737  65  
738  92  
739  88  
740  61  
741  95  
742  86  
743  70  
744  11  
745  54  
746  23  
747  88  
748  52  
749  95  
750  46  
751  21  
752  6   
753  26  
754  54  
755  10  
756  7   
757  79  
758  46  
759  4   
760  93  
761  18  
762  79  
763  71  
764  70  
765  56  
766  62  
767  57  
768  17  
769  58  
770  68  
771  80  
772  45  
773  10  
774  88  
775  40  
776  59  
777  23  
778  54  
779  78  
780  16  
781  75  
782  49  
783  37  
784  3   
785  73  
786  95  
787  25  
788  67  
789  25  
790  26  
791  71  
792  58  
793  52  
794  74  
795  67  
796  30  
797  39  
798  28  
799  73  
800  19  
801  77  
802  10  
803  79  
804  98  
805  72  
806  68  
807  61  
808  44  
809  53  
810  96  
811  74  
812  50  
813  41  
814  70  
815  6   
816  65  
817  65  
818  84  
819  70  
820  28  
821  66  
822  90  
823  14  
824  34  
825  34  
826  68  
827  36  
828  75  
829  38  
830  64  
831  43  
832  90  
833  86  
834  69  
835  85  
836  22  
837  38  
838  2   
839  82  
840  49  
841  10  
842  68  
843  77  
844  81  
845  97  
846  45  
847  36  
848  26  
849  84  
850  56  
851  40  
852  77  
853  51  
854  17  
855  88  
856  60  
857  92  
858  47  
859  26  
860  12  
861  3   
862  39  
863  46  
864  19  
865  100 
866  30  
867  69  
868  63  
869  79  
870  11  
871  38  
872  34  
873  1   
874  31  
875  27  
876  1   
877  52  
878  57  
879  35  
880  92  
881  94  
882  76  
883  95  
884  31  
885  18  
886  80  
887  3   
888  13  
889  92  
890  17  
891  40  
892  7   
893  47  
894  34  
895  11  
896  35  
897  40  
898  58  
899  76  
900  35  
901  52  
902  75  
903  74  
904  5   
905  100 
906  14  
907  43  
908  90  
909  74  
910  31  
911  77  
912  84  
913  29  
914  56  
915  16  
916  59  
917  53  
918  9   
919  28  
920  76  
921  69  
922  71  
923  3   
924  16  
925  30  
926  88  
927  50  
928  48  
929  40  
930  94  
931  86  
932  20  
933  33  
934  31  
935  88  
936  68  
937  62  
938  13  
939  8   
940  93  
941  62  
942  58  
943  100 
944  22  
945  30  
946  86  
947  79  
948  86  
949  36  
950  57  
951  82  
952  54  
953  10  
954  35  
955  22  
956  84  
957  7   
958  57  
959  50  
960  34  
961  42  
962  75  
963  8   
964  88  
965  72  
966  46  
967  6   
968  69  
969  16  
970  9   
971  87  
972  80  
973  78  
974  70  
975  70  
976  44  
977  95  
978  78  
979  38  
980  53  
981  29  
982  46  
983  45  
984  93  
985  71  
986  33  
987  52  
988  83  
989  68  
990  17  
991  2   
992  47  
993  98  
994  28  
995  30  
996  23  
997  15  
998  6   
999  69  
1000 50  
1001 22  
DEPOT_SECTION
1
-1
EOF
