NAME : XML1000_3242_52
COMMENT : Generated as the XML100 dataset from the CVRPLIB
TYPE : CVRP
DIMENSION : 1001
EDGE_WEIGHT_TYPE : EUC_2D
CAPACITY : 343
NODE_COORD_SECTION
1    0    0   
2    721  583 
3    849  979 
4    68   939 
5    961  928 
6    753  624 
7    568  826 
8    867  884 
9    618  854 
10   247  947 
11   574  649 
12   196  972 
13   755  670 
14   215  985 
15   896  947 
16   174  944 
17   845  972 
18   739  1000
19   660  945 
20   719  756 
21   786  657 
22   131  982 
23   949  553 
24   762  974 
25   676  544 
26   637  952 
27   416  993 
28   690  689 
29   495  868 
30   838  951 
31   779  636 
32   689  581 
33   721  942 
34   745  405 
35   807  716 
36   650  909 
37   56   915 
38   743  808 
39   739  856 
40   742  992 
41   219  951 
42   717  670 
43   802  903 
44   685  894 
45   659  994 
46   528  901 
47   628  988 
48   779  919 
49   678  589 
50   831  539 
51   767  774 
52   746  751 
53   903  945 
54   695  916 
55   984  790 
56   813  899 
57   683  533 
58   918  952 
59   855  914 
60   756  801 
61   215  962 
62   471  888 
63   679  688 
64   911  922 
65   808  811 
66   659  868 
67   716  984 
68   734  880 
69   201  893 
70   700  878 
71   283  864 
72   655  983 
73   648  840 
74   822  593 
75   798  901 
76   691  927 
77   830  597 
78   230  956 
79   666  983 
80   705  682 
81   501  943 
82   667  835 
83   641  935 
84   585  793 
85   92   851 
86   190  919 
87   631  918 
88   840  772 
89   701  815 
90   767  760 
91   520  901 
92   83   811 
93   306  941 
94   761  600 
95   758  940 
96   259  866 
97   887  825 
98   617  592 
99   833  970 
100  762  690 
101  710  927 
102  89   970 
103  919  921 
104  645  919 
105  718  751 
106  824  921 
107  612  742 
108  473  834 
109  904  612 
110  744  632 
111  704  596 
112  674  842 
113  487  836 
114  762  964 
115  649  907 
116  956  915 
117  870  884 
118  722  995 
119  512  947 
120  904  895 
121  522  741 
122  902  962 
123  999  876 
124  653  904 
125  308  888 
126  749  612 
127  735  961 
128  355  838 
129  798  770 
130  773  597 
131  808  954 
132  769  545 
133  121  909 
134  761  604 
135  830  951 
136  801  906 
137  743  654 
138  936  969 
139  169  976 
140  181  941 
141  176  872 
142  804  831 
143  553  822 
144  156  875 
145  111  971 
146  760  999 
147  756  620 
148  594  939 
149  523  897 
150  158  912 
151  971  944 
152  751  950 
153  558  873 
154  543  921 
155  767  638 
156  213  866 
157  422  631 
158  726  606 
159  779  621 
160  783  344 
161  123  981 
162  606  797 
163  769  693 
164  74   945 
165  628  726 
166  879  973 
167  552  816 
168  203  937 
169  301  853 
170  601  965 
171  161  940 
172  184  942 
173  820  914 
174  129  917 
175  24   962 
176  822  951 
177  110  894 
178  96   996 
179  831  798 
180  154  937 
181  636  851 
182  726  992 
183  618  901 
184  195  947 
185  819  424 
186  789  801 
187  627  739 
188  773  933 
189  178  894 
190  898  973 
191  296  877 
192  787  620 
193  724  909 
194  937  626 
195  743  541 
196  931  988 
197  741  580 
198  88   875 
199  988  884 
200  589  748 
201  679  614 
202  640  933 
203  150  926 
204  700  993 
205  487  709 
206  759  652 
207  683  922 
208  694  931 
209  650  983 
210  918  923 
211  870  748 
212  615  885 
213  660  646 
214  803  667 
215  938  483 
216  760  971 
217  17   945 
218  734  851 
219  961  979 
220  711  858 
221  629  905 
222  202  999 
223  643  998 
224  324  934 
225  638  892 
226  867  962 
227  893  871 
228  606  549 
229  766  641 
230  595  939 
231  251  977 
232  764  986 
233  843  861 
234  788  925 
235  718  848 
236  783  828 
237  769  930 
238  557  912 
239  723  545 
240  817  988 
241  281  828 
242  609  959 
243  786  982 
244  14   911 
245  686  895 
246  710  871 
247  86   927 
248  782  612 
249  725  505 
250  818  971 
251  966  967 
252  760  957 
253  679  883 
254  654  948 
255  434  954 
256  902  403 
257  814  946 
258  899  895 
259  679  901 
260  572  677 
261  637  895 
262  82   920 
263  621  789 
264  729  740 
265  63   916 
266  46   985 
267  288  598 
268  737  991 
269  517  997 
270  707  968 
271  684  863 
272  832  990 
273  170  889 
274  713  908 
275  922  911 
276  835  763 
277  128  901 
278  962  956 
279  703  705 
280  758  650 
281  286  929 
282  168  955 
283  576  768 
284  665  858 
285  757  950 
286  951  574 
287  769  534 
288  791  683 
289  756  991 
290  224  981 
291  953  992 
292  156  837 
293  740  619 
294  660  874 
295  122  844 
296  803  666 
297  597  845 
298  594  681 
299  630  878 
300  668  981 
301  905  817 
302  885  848 
303  709  753 
304  727  649 
305  829  669 
306  954  929 
307  727  658 
308  634  857 
309  545  919 
310  723  944 
311  868  935 
312  209  970 
313  778  614 
314  698  860 
315  509  853 
316  295  991 
317  688  577 
318  806  551 
319  809  974 
320  747  910 
321  680  820 
322  614  884 
323  663  749 
324  465  904 
325  802  953 
326  343  915 
327  780  925 
328  746  783 
329  819  615 
330  684  570 
331  730  448 
332  626  885 
333  679  711 
334  668  482 
335  143  898 
336  652  614 
337  376  719 
338  973  947 
339  804  900 
340  848  696 
341  719  536 
342  721  893 
343  636  678 
344  734  921 
345  774  827 
346  707  976 
347  676  580 
348  693  749 
349  311  994 
350  755  980 
351  715  907 
352  796  752 
353  358  935 
354  810  934 
355  755  998 
356  605  803 
357  190  951 
358  784  378 
359  745  935 
360  800  502 
361  591  886 
362  696  939 
363  266  937 
364  22   976 
365  773  634 
366  725  975 
367  755  836 
368  764  665 
369  915  974 
370  971  887 
371  217  932 
372  579  930 
373  701  627 
374  275  784 
375  791  920 
376  13   784 
377  706  571 
378  672  856 
379  775  841 
380  140  986 
381  733  835 
382  151  995 
383  866  959 
384  964  875 
385  701  901 
386  153  785 
387  723  660 
388  651  891 
389  746  625 
390  861  773 
391  702  713 
392  849  646 
393  766  639 
394  785  729 
395  747  635 
396  885  676 
397  957  853 
398  136  728 
399  848  794 
400  727  922 
401  932  927 
402  682  743 
403  581  688 
404  233  926 
405  205  944 
406  713  996 
407  858  996 
408  689  895 
409  717  975 
410  741  667 
411  707  665 
412  800  991 
413  151  963 
414  593  936 
415  652  595 
416  622  832 
417  490  685 
418  807  630 
419  615  945 
420  842  746 
421  870  835 
422  199  905 
423  708  773 
424  540  780 
425  935  901 
426  817  927 
427  942  958 
428  836  949 
429  884  846 
430  799  631 
431  541  772 
432  770  842 
433  767  944 
434  776  773 
435  936  902 
436  962  765 
437  881  966 
438  907  829 
439  610  997 
440  692  532 
441  924  918 
442  224  952 
443  842  876 
444  613  486 
445  802  938 
446  666  879 
447  183  911 
448  811  870 
449  222  991 
450  681  779 
451  775  566 
452  736  974 
453  843  539 
454  771  672 
455  688  665 
456  767  809 
457  928  951 
458  666  915 
459  707  916 
460  862  561 
461  115  901 
462  743  479 
463  597  901 
464  710  531 
465  742  901 
466  317  865 
467  991  940 
468  637  955 
469  935  658 
470  805  957 
471  219  878 
472  165  996 
473  877  973 
474  741  536 
475  798  927 
476  743  991 
477  810  663 
478  479  783 
479  833  637 
480  197  966 
481  243  933 
482  756  939 
483  167  962 
484  772  627 
485  619  695 
486  665  900 
487  751  851 
488  225  912 
489  582  893 
490  717  947 
491  899  847 
492  737  925 
493  184  969 
494  480  464 
495  730  657 
496  639  875 
497  698  961 
498  790  671 
499  927  933 
500  198  894 
501  641  826 
502  156  888 
503  204  974 
504  278  923 
505  747  993 
506  645  936 
507  783  748 
508  281  928 
509  550  973 
510  715  604 
511  608  905 
512  810  622 
513  299  964 
514  757  628 
515  751  972 
516  672  926 
517  554  952 
518  540  779 
519  998  849 
520  326  954 
521  722  765 
522  566  926 
523  158  970 
524  715  887 
525  739  854 
526  614  832 
527  83   796 
528  567  918 
529  703  751 
530  681  751 
531  711  764 
532  923  791 
533  783  640 
534  885  935 
535  710  665 
536  857  836 
537  654  913 
538  598  734 
539  204  951 
540  695  932 
541  868  860 
542  824  924 
543  681  634 
544  711  647 
545  453  608 
546  837  881 
547  684  877 
548  114  913 
549  566  912 
550  737  632 
551  693  971 
552  713  711 
553  632  875 
554  959  852 
555  525  758 
556  205  915 
557  885  912 
558  643  881 
559  316  913 
560  492  819 
561  612  884 
562  728  848 
563  891  973 
564  723  590 
565  654  908 
566  537  988 
567  918  936 
568  540  886 
569  961  907 
570  222  814 
571  741  903 
572  534  601 
573  533  874 
574  554  668 
575  276  980 
576  397  941 
577  738  587 
578  611  784 
579  911  933 
580  771  922 
581  786  645 
582  864  821 
583  839  648 
584  898  972 
585  681  885 
586  605  499 
587  705  675 
588  744  657 
589  873  915 
590  653  884 
591  744  675 
592  630  928 
593  715  877 
594  816  691 
595  407  999 
596  697  847 
597  761  584 
598  149  969 
599  855  875 
600  274  1000
601  604  875 
602  223  936 
603  847  880 
604  435  926 
605  744  769 
606  564  848 
607  755  815 
608  702  562 
609  840  612 
610  924  983 
611  679  905 
612  771  890 
613  735  586 
614  657  886 
615  672  646 
616  746  595 
617  935  849 
618  754  837 
619  106  872 
620  892  896 
621  704  616 
622  721  925 
623  772  998 
624  127  931 
625  945  404 
626  594  982 
627  762  557 
628  777  695 
629  768  637 
630  802  877 
631  834  820 
632  826  578 
633  691  762 
634  736  913 
635  792  823 
636  647  832 
637  710  879 
638  41   793 
639  706  509 
640  552  841 
641  142  943 
642  160  991 
643  191  817 
644  807  820 
645  180  826 
646  711  605 
647  996  994 
648  789  781 
649  659  842 
650  750  951 
651  193  917 
652  708  954 
653  746  828 
654  310  944 
655  228  902 
656  208  506 
657  154  962 
658  678  931 
659  589  890 
660  886  969 
661  722  498 
662  848  723 
663  639  729 
664  887  943 
665  433  871 
666  99   855 
667  858  907 
668  669  891 
669  705  683 
670  953  897 
671  634  641 
672  678  967 
673  801  629 
674  632  671 
675  724  943 
676  191  956 
677  974  947 
678  558  740 
679  617  966 
680  634  479 
681  956  768 
682  765  562 
683  780  700 
684  738  972 
685  824  886 
686  758  950 
687  659  828 
688  674  789 
689  48   912 
690  757  805 
691  711  838 
692  693  659 
693  925  956 
694  849  579 
695  919  998 
696  224  872 
697  885  865 
698  726  850 
699  313  968 
700  840  970 
701  653  887 
702  108  944 
703  157  967 
704  203  943 
705  192  943 
706  750  914 
707  865  901 
708  856  843 
709  893  981 
710  138  981 
711  982  919 
712  697  917 
713  716  692 
714  628  817 
715  673  968 
716  905  973 
717  657  633 
718  272  908 
719  548  726 
720  971  918 
721  776  670 
722  146  930 
723  919  499 
724  961  981 
725  652  811 
726  558  856 
727  988  989 
728  736  606 
729  732  654 
730  687  512 
731  639  939 
732  705  646 
733  898  961 
734  964  906 
735  767  886 
736  904  873 
737  856  973 
738  644  806 
739  179  963 
740  922  918 
741  180  946 
742  770  622 
743  884  653 
744  786  975 
745  677  678 
746  598  686 
747  520  874 
748  901  971 
749  955  951 
750  727  953 
751  153  928 
752  594  652 
753  990  927 
754  674  532 
755  733  996 
756  227  886 
757  856  847 
758  589  830 
759  787  576 
760  658  929 
761  511  919 
762  627  960 
763  678  907 
764  646  973 
765  562  714 
766  939  701 
767  939  948 
768  726  993 
769  635  982 
770  850  870 
771  737  575 
772  271  687 
773  558  869 
774  175  979 
775  868  915 
776  224  862 
777  891  889 
778  769  900 
779  139  885 
780  346  946 
781  923  729 
782  706  633 
783  581  849 
784  282  952 
785  122  963 
786  818  923 
787  432  869 
788  666  816 
789  315  976 
790  333  872 
791  763  605 
792  112  644 
793  831  996 
794  603  485 
795  661  984 
796  678  646 
797  905  963 
798  852  808 
799  823  494 
800  745  983 
801  455  992 
802  258  725 
803  238  905 
804  744  600 
805  730  711 
806  767  858 
807  87   861 
808  722  954 
809  795  938 
810  153  806 
811  242  893 
812  442  918 
813  762  999 
814  737  826 
815  674  648 
816  769  895 
817  188  922 
818  554  741 
819  825  966 
820  675  631 
821  940  624 
822  683  891 
823  759  621 
824  922  746 
825  715  923 
826  984  968 
827  801  874 
828  746  929 
829  817  562 
830  204  884 
831  481  756 
832  684  963 
833  635  671 
834  987  973 
835  667  892 
836  690  997 
837  783  667 
838  869  856 
839  851  969 
840  692  805 
841  791  927 
842  829  792 
843  800  994 
844  66   788 
845  829  801 
846  742  644 
847  485  610 
848  152  949 
849  927  964 
850  927  982 
851  859  927 
852  605  931 
853  207  921 
854  280  753 
855  839  878 
856  676  991 
857  810  653 
858  923  948 
859  734  923 
860  889  955 
861  920  942 
862  930  834 
863  943  526 
864  707  578 
865  895  876 
866  664  882 
867  790  594 
868  765  748 
869  953  966 
870  534  772 
871  764  658 
872  660  866 
873  766  987 
874  720  880 
875  697  915 
876  638  838 
877  629  869 
878  912  812 
879  779  786 
880  694  998 
881  604  943 
882  646  958 
883  265  830 
884  960  974 
885  992  539 
886  709  745 
887  645  980 
888  717  847 
889  770  575 
890  643  818 
891  908  963 
892  562  982 
893  535  965 
894  629  743 
895  691  965 
896  640  892 
897  87   936 
898  700  943 
899  541  779 
900  777  498 
901  771  567 
902  451  733 
903  690  740 
904  964  989 
905  202  904 
906  791  652 
907  732  993 
908  519  849 
909  796  758 
910  622  978 
911  673  925 
912  812  693 
913  195  883 
914  646  679 
915  712  624 
916  804  609 
917  701  624 
918  719  910 
919  115  881 
920  855  929 
921  541  882 
922  504  842 
923  242  851 
924  783  513 
925  927  963 
926  730  934 
927  919  959 
928  129  803 
929  156  918 
930  717  595 
931  124  706 
932  581  582 
933  240  908 
934  672  929 
935  761  750 
936  674  880 
937  257  997 
938  891  887 
939  660  982 
940  179  767 
941  303  973 
942  205  914 
943  653  915 
944  815  986 
945  160  924 
946  791  638 
947  553  986 
948  190  934 
949  965  958 
950  807  1000
951  741  637 
952  909  868 
953  772  652 
954  146  864 
955  863  910 
956  716  900 
957  583  874 
958  845  883 
959  246  960 
960  152  907 
961  958  900 
962  250  921 
963  695  697 
964  761  642 
965  50   905 
966  847  682 
967  597  647 
968  658  904 
969  719  496 
970  941  856 
971  391  798 
972  788  623 
973  880  608 
974  750  996 
975  663  848 
976  781  831 
977  906  764 
978  262  940 
979  710  789 
980  963  969 
981  67   832 
982  846  722 
983  944  965 
984  883  851 
985  869  971 
986  87   917 
987  912  914 
988  471  534 
989  740  978 
990  344  978 
991  158  986 
992  884  861 
993  654  884 
994  821  921 
995  540  633 
996  439  578 
997  557  951 
998  974  983 
999  635  898 
1000 690  995 
1001 701  843 
DEMAND_SECTION
1    0   
2    65  
3    95  
4    68  
5    28  
6    32  
7    40  
8    49  
9    51  
10   8   
11   78  
12   97  
13   73  
14   99  
15   99  
16   41  
17   75  
18   78  
19   16  
20   83  
21   30  
22   80  
23   53  
24   85  
25   75  
26   69  
27   45  
28   29  
29   25  
30   44  
31   38  
32   85  
33   16  
34   31  
35   25  
36   15  
37   74  
38   39  
39   32  
40   3   
41   50  
42   44  
43   57  
44   84  
45   83  
46   41  
47   79  
48   86  
49   42  
50   90  
51   15  
52   99  
53   22  
54   80  
55   21  
56   86  
57   62  
58   54  
59   72  
60   91  
61   91  
62   37  
63   25  
64   22  
65   25  
66   16  
67   33  
68   22  
69   67  
70   75  
71   9   
72   9   
73   73  
74   90  
75   22  
76   17  
77   18  
78   90  
79   86  
80   45  
81   84  
82   77  
83   6   
84   86  
85   30  
86   33  
87   9   
88   84  
89   98  
90   77  
91   18  
92   67  
93   15  
94   95  
95   6   
96   56  
97   34  
98   21  
99   45  
100  20  
101  39  
102  23  
103  85  
104  65  
105  29  
106  72  
107  30  
108  54  
109  39  
110  26  
111  89  
112  36  
113  36  
114  15  
115  12  
116  2   
117  86  
118  52  
119  15  
120  54  
121  16  
122  85  
123  35  
124  51  
125  23  
126  2   
127  94  
128  90  
129  53  
130  3   
131  55  
132  84  
133  95  
134  29  
135  98  
136  95  
137  26  
138  24  
139  11  
140  35  
141  96  
142  25  
143  94  
144  38  
145  91  
146  25  
147  52  
148  74  
149  17  
150  48  
151  81  
152  100 
153  66  
154  50  
155  46  
156  6   
157  59  
158  84  
159  72  
160  6   
161  97  
162  51  
163  79  
164  37  
165  66  
166  19  
167  33  
168  10  
169  74  
170  57  
171  13  
172  31  
173  32  
174  87  
175  17  
176  27  
177  69  
178  21  
179  100 
180  50  
181  80  
182  52  
183  74  
184  90  
185  16  
186  74  
187  43  
188  97  
189  56  
190  89  
191  65  
192  91  
193  70  
194  1   
195  7   
196  81  
197  58  
198  74  
199  13  
200  54  
201  9   
202  35  
203  33  
204  27  
205  65  
206  61  
207  89  
208  11  
209  86  
210  27  
211  3   
212  41  
213  35  
214  69  
215  30  
216  7   
217  35  
218  70  
219  46  
220  12  
221  25  
222  84  
223  60  
224  73  
225  98  
226  83  
227  89  
228  88  
229  80  
230  53  
231  25  
232  73  
233  12  
234  18  
235  57  
236  34  
237  40  
238  49  
239  47  
240  88  
241  71  
242  20  
243  86  
244  97  
245  86  
246  29  
247  21  
248  35  
249  42  
250  90  
251  64  
252  38  
253  89  
254  73  
255  68  
256  71  
257  18  
258  95  
259  73  
260  45  
261  100 
262  55  
263  63  
264  58  
265  91  
266  28  
267  35  
268  75  
269  23  
270  68  
271  48  
272  58  
273  53  
274  84  
275  75  
276  65  
277  79  
278  41  
279  26  
280  30  
281  66  
282  91  
283  81  
284  16  
285  48  
286  26  
287  96  
288  23  
289  27  
290  27  
291  6   
292  9   
293  50  
294  25  
295  81  
296  51  
297  12  
298  1   
299  29  
300  83  
301  18  
302  42  
303  90  
304  49  
305  71  
306  51  
307  28  
308  58  
309  50  
310  91  
311  91  
312  10  
313  53  
314  56  
315  57  
316  90  
317  77  
318  2   
319  41  
320  10  
321  34  
322  82  
323  99  
324  49  
325  14  
326  83  
327  82  
328  29  
329  54  
330  3   
331  86  
332  68  
333  29  
334  43  
335  77  
336  29  
337  81  
338  1   
339  1   
340  80  
341  78  
342  42  
343  84  
344  79  
345  39  
346  48  
347  80  
348  84  
349  96  
350  67  
351  22  
352  94  
353  35  
354  91  
355  62  
356  4   
357  98  
358  95  
359  93  
360  6   
361  19  
362  71  
363  20  
364  1   
365  2   
366  34  
367  90  
368  11  
369  55  
370  65  
371  11  
372  61  
373  83  
374  36  
375  34  
376  45  
377  65  
378  69  
379  98  
380  26  
381  27  
382  7   
383  51  
384  20  
385  93  
386  26  
387  100 
388  23  
389  66  
390  36  
391  65  
392  59  
393  98  
394  1   
395  15  
396  6   
397  87  
398  25  
399  97  
400  42  
401  20  
402  27  
403  84  
404  50  
405  15  
406  9   
407  68  
408  79  
409  88  
410  87  
411  35  
412  48  
413  79  
414  84  
415  85  
416  51  
417  31  
418  61  
419  30  
420  85  
421  38  
422  49  
423  94  
424  60  
425  82  
426  63  
427  59  
428  48  
429  45  
430  79  
431  49  
432  45  
433  41  
434  3   
435  36  
436  23  
437  2   
438  28  
439  41  
440  95  
441  91  
442  58  
443  34  
444  46  
445  86  
446  33  
447  73  
448  24  
449  22  
450  72  
451  35  
452  20  
453  63  
454  6   
455  1   
456  33  
457  33  
458  57  
459  54  
460  22  
461  51  
462  70  
463  45  
464  27  
465  39  
466  15  
467  7   
468  71  
469  43  
470  35  
471  49  
472  88  
473  33  
474  56  
475  87  
476  91  
477  89  
478  73  
479  81  
480  38  
481  7   
482  36  
483  58  
484  21  
485  52  
486  26  
487  100 
488  56  
489  89  
490  47  
491  4   
492  54  
493  46  
494  1   
495  78  
496  68  
497  8   
498  52  
499  15  
500  67  
501  95  
502  27  
503  66  
504  100 
505  32  
506  41  
507  16  
508  6   
509  91  
510  29  
511  52  
512  89  
513  40  
514  1   
515  47  
516  77  
517  63  
518  61  
519  50  
520  98  
521  67  
522  30  
523  97  
524  51  
525  95  
526  75  
527  55  
528  52  
529  27  
530  43  
531  67  
532  77  
533  7   
534  69  
535  5   
536  47  
537  27  
538  73  
539  66  
540  21  
541  38  
542  88  
543  30  
544  45  
545  30  
546  54  
547  21  
548  1   
549  32  
550  32  
551  31  
552  86  
553  36  
554  52  
555  1   
556  21  
557  12  
558  45  
559  76  
560  83  
561  40  
562  66  
563  28  
564  89  
565  61  
566  33  
567  56  
568  9   
569  21  
570  20  
571  92  
572  50  
573  49  
574  68  
575  88  
576  22  
577  9   
578  62  
579  77  
580  62  
581  38  
582  27  
583  46  
584  77  
585  52  
586  22  
587  19  
588  12  
589  92  
590  79  
591  91  
592  69  
593  10  
594  13  
595  43  
596  14  
597  68  
598  77  
599  57  
600  15  
601  55  
602  66  
603  4   
604  50  
605  28  
606  56  
607  16  
608  52  
609  49  
610  95  
611  92  
612  27  
613  98  
614  6   
615  88  
616  32  
617  27  
618  44  
619  37  
620  11  
621  45  
622  93  
623  6   
624  42  
625  13  
626  73  
627  92  
628  21  
629  20  
630  1   
631  38  
632  5   
633  69  
634  74  
635  70  
636  22  
637  86  
638  60  
639  51  
640  76  
641  36  
642  27  
643  26  
644  77  
645  90  
646  54  
647  71  
648  75  
649  15  
650  59  
651  62  
652  55  
653  25  
654  83  
655  23  
656  78  
657  91  
658  32  
659  92  
660  88  
661  77  
662  72  
663  99  
664  94  
665  16  
666  75  
667  78  
668  55  
669  25  
670  34  
671  8   
672  3   
673  1   
674  58  
675  48  
676  72  
677  89  
678  28  
679  59  
680  99  
681  19  
682  54  
683  63  
684  54  
685  84  
686  66  
687  6   
688  57  
689  32  
690  51  
691  95  
692  30  
693  9   
694  58  
695  47  
696  28  
697  35  
698  67  
699  45  
700  32  
701  28  
702  8   
703  61  
704  30  
705  86  
706  44  
707  70  
708  29  
709  68  
710  83  
711  83  
712  71  
713  11  
714  58  
715  91  
716  75  
717  56  
718  19  
719  11  
720  91  
721  6   
722  62  
723  91  
724  56  
725  53  
726  25  
727  43  
728  36  
729  6   
730  64  
731  5   
732  88  
733  79  
734  94  
735  81  
736  89  
737  66  
738  36  
739  20  
740  67  
741  48  
742  39  
743  94  
744  51  
745  65  
746  75  
747  12  
748  75  
749  2   
750  49  
751  87  
752  18  
753  68  
754  45  
755  32  
756  25  
757  51  
758  7   
759  63  
760  85  
761  68  
762  72  
763  49  
764  90  
765  100 
766  35  
767  57  
768  56  
769  17  
770  51  
771  17  
772  26  
773  51  
774  17  
775  78  
776  18  
777  28  
778  47  
779  6   
780  79  
781  27  
782  41  
783  1   
784  7   
785  43  
786  54  
787  50  
788  56  
789  34  
790  18  
791  70  
792  6   
793  8   
794  78  
795  63  
796  96  
797  11  
798  10  
799  26  
800  22  
801  10  
802  68  
803  36  
804  98  
805  1   
806  98  
807  88  
808  5   
809  5   
810  25  
811  21  
812  84  
813  43  
814  99  
815  12  
816  48  
817  5   
818  86  
819  69  
820  65  
821  58  
822  40  
823  76  
824  76  
825  47  
826  96  
827  27  
828  86  
829  34  
830  77  
831  96  
832  50  
833  84  
834  1   
835  87  
836  17  
837  5   
838  80  
839  23  
840  75  
841  2   
842  84  
843  34  
844  73  
845  95  
846  24  
847  19  
848  84  
849  58  
850  84  
851  97  
852  20  
853  75  
854  54  
855  44  
856  25  
857  88  
858  23  
859  85  
860  32  
861  74  
862  45  
863  46  
864  33  
865  44  
866  90  
867  50  
868  76  
869  51  
870  50  
871  31  
872  37  
873  28  
874  73  
875  66  
876  89  
877  60  
878  16  
879  14  
880  28  
881  13  
882  36  
883  92  
884  36  
885  79  
886  7   
887  59  
888  35  
889  76  
890  34  
891  16  
892  86  
893  82  
894  5   
895  26  
896  10  
897  5   
898  66  
899  43  
900  15  
901  23  
902  80  
903  32  
904  44  
905  87  
906  58  
907  26  
908  9   
909  59  
910  27  
911  22  
912  1   
913  5   
914  18  
915  54  
916  81  
917  21  
918  28  
919  55  
920  28  
921  84  
922  78  
923  74  
924  93  
925  70  
926  6   
927  23  
928  100 
929  52  
930  19  
931  86  
932  73  
933  6   
934  94  
935  39  
936  1   
937  41  
938  86  
939  51  
940  73  
941  31  
942  97  
943  8   
944  39  
945  22  
946  77  
947  12  
948  54  
949  12  
950  94  
951  30  
952  26  
953  69  
954  28  
955  49  
956  57  
957  50  
958  64  
959  23  
960  54  
961  98  
962  2   
963  79  
964  6   
965  25  
966  53  
967  80  
968  12  
969  65  
970  2   
971  16  
972  39  
973  41  
974  27  
975  28  
976  97  
977  72  
978  51  
979  7   
980  96  
981  6   
982  88  
983  47  
984  99  
985  3   
986  85  
987  90  
988  5   
989  61  
990  3   
991  59  
992  8   
993  99  
994  15  
995  1   
996  91  
997  53  
998  36  
999  89  
1000 85  
1001 88  
DEPOT_SECTION
1
-1
EOF
