NAME : XML200_3113_02
COMMENT : Generated as the XML100 dataset from the CVRPLIB
TYPE : CVRP
DIMENSION : 201
EDGE_WEIGHT_TYPE : EUC_2D
CAPACITY : 8
NODE_COORD_SECTION
1    0    0   
2    280  496 
3    428  910 
4    278  715 
5    181  654 
6    841  81  
7    875  714 
8    443  575 
9    448  296 
10   757  292 
11   498  7   
12   390  874 
13   420  637 
14   414  130 
15   781  625 
16   815  992 
17   104  599 
18   823  499 
19   1    506 
20   587  530 
21   553  110 
22   990  127 
23   70   905 
24   748  850 
25   384  564 
26   14   735 
27   154  849 
28   144  399 
29   126  805 
30   773  616 
31   37   291 
32   273  659 
33   933  568 
34   428  533 
35   323  379 
36   72   205 
37   717  782 
38   705  1000
39   401  454 
40   896  933 
41   485  905 
42   254  819 
43   314  83  
44   377  206 
45   775  890 
46   664  867 
47   38   121 
48   96   446 
49   308  500 
50   540  166 
51   181  697 
52   722  88  
53   672  868 
54   492  919 
55   322  993 
56   261  961 
57   202  820 
58   665  218 
59   584  538 
60   591  790 
61   4    146 
62   889  11  
63   36   571 
64   403  846 
65   810  822 
66   233  865 
67   996  103 
68   877  915 
69   874  751 
70   590  519 
71   110  458 
72   511  900 
73   595  936 
74   72   602 
75   884  700 
76   373  306 
77   990  638 
78   548  222 
79   421  301 
80   405  21  
81   546  426 
82   790  66  
83   138  479 
84   554  183 
85   19   241 
86   512  723 
87   706  799 
88   240  819 
89   260  886 
90   504  966 
91   756  647 
92   712  711 
93   933  69  
94   462  786 
95   557  956 
96   551  669 
97   220  322 
98   239  564 
99   575  370 
100  181  397 
101  752  42  
102  777  761 
103  228  939 
104  147  874 
105  483  134 
106  477  148 
107  367  60  
108  703  619 
109  208  451 
110  507  747 
111  1000 1000
112  829  871 
113  429  428 
114  148  21  
115  359  28  
116  405  919 
117  352  260 
118  482  55  
119  664  285 
120  43   392 
121  62   982 
122  791  734 
123  145  397 
124  997  775 
125  578  53  
126  609  297 
127  336  428 
128  832  634 
129  569  242 
130  563  336 
131  879  294 
132  544  313 
133  141  2   
134  225  206 
135  553  593 
136  771  907 
137  98   824 
138  617  913 
139  864  205 
140  233  466 
141  214  242 
142  14   315 
143  457  192 
144  314  253 
145  298  812 
146  69   150 
147  581  911 
148  57   542 
149  532  213 
150  239  799 
151  103  603 
152  730  271 
153  562  278 
154  654  779 
155  139  895 
156  717  588 
157  230  360 
158  182  219 
159  285  30  
160  514  247 
161  391  704 
162  842  451 
163  740  110 
164  826  696 
165  399  473 
166  579  504 
167  39   566 
168  723  451 
169  81   163 
170  285  5   
171  751  232 
172  863  46  
173  749  997 
174  382  740 
175  970  126 
176  890  381 
177  317  266 
178  535  635 
179  891  25  
180  549  835 
181  780  359 
182  332  28  
183  757  699 
184  683  844 
185  168  423 
186  919  572 
187  901  194 
188  892  945 
189  26   458 
190  282  811 
191  361  36  
192  100  572 
193  39   104 
194  612  521 
195  103  772 
196  931  256 
197  436  57  
198  425  478 
199  112  857 
200  467  786 
201  925  953 
DEMAND_SECTION
1    0   
2    1   
3    1   
4    1   
5    1   
6    1   
7    1   
8    1   
9    1   
10   1   
11   1   
12   1   
13   1   
14   1   
15   1   
16   1   
17   1   
18   1   
19   1   
20   1   
21   1   
22   1   
23   1   
24   1   
25   1   
26   1   
27   1   
28   1   
29   1   
30   1   
31   1   
32   1   
33   1   
34   1   
35   1   
36   1   
37   1   
38   1   
39   1   
40   1   
41   1   
42   1   
43   1   
44   1   
45   1   
46   1   
47   1   
48   1   
49   1   
50   1   
51   1   
52   1   
53   1   
54   1   
55   1   
56   1   
57   1   
58   1   
59   1   
60   1   
61   1   
62   1   
63   1   
64   1   
65   1   
66   1   
67   1   
68   1   
69   1   
70   1   
71   1   
72   1   
73   1   
74   1   
75   1   
76   1   
77   1   
78   1   
79   1   
80   1   
81   1   
82   1   
83   1   
84   1   
85   1   
86   1   
87   1   
88   1   
89   1   
90   1   
91   1   
92   1   
93   1   
94   1   
95   1   
96   1   
97   1   
98   1   
99   1   
100  1   
101  1   
102  1   
103  1   
104  1   
105  1   
106  1   
107  1   
108  1   
109  1   
110  1   
111  1   
112  1   
113  1   
114  1   
115  1   
116  1   
117  1   
118  1   
119  1   
120  1   
121  1   
122  1   
123  1   
124  1   
125  1   
126  1   
127  1   
128  1   
129  1   
130  1   
131  1   
132  1   
133  1   
134  1   
135  1   
136  1   
137  1   
138  1   
139  1   
140  1   
141  1   
142  1   
143  1   
144  1   
145  1   
146  1   
147  1   
148  1   
149  1   
150  1   
151  1   
152  1   
153  1   
154  1   
155  1   
156  1   
157  1   
158  1   
159  1   
160  1   
161  1   
162  1   
163  1   
164  1   
165  1   
166  1   
167  1   
168  1   
169  1   
170  1   
171  1   
172  1   
173  1   
174  1   
175  1   
176  1   
177  1   
178  1   
179  1   
180  1   
181  1   
182  1   
183  1   
184  1   
185  1   
186  1   
187  1   
188  1   
189  1   
190  1   
191  1   
192  1   
193  1   
194  1   
195  1   
196  1   
197  1   
198  1   
199  1   
200  1   
201  1   
DEPOT_SECTION
1
-1
EOF
