NAME : XML200_1213_11
COMMENT : Generated as the XML100 dataset from the CVRPLIB
TYPE : CVRP
DIMENSION : 201
EDGE_WEIGHT_TYPE : EUC_2D
CAPACITY : 8
NODE_COORD_SECTION
1    600  234 
2    788  518 
3    804  654 
4    454  328 
5    896  499 
6    934  547 
7    821  231 
8    837  614 
9    963  516 
10   972  549 
11   792  417 
12   808  105 
13   752  82  
14   993  535 
15   858  72  
16   721  869 
17   818  228 
18   901  244 
19   880  276 
20   686  417 
21   886  234 
22   882  575 
23   888  207 
24   895  200 
25   909  611 
26   825  242 
27   865  498 
28   742  180 
29   929  116 
30   792  193 
31   863  189 
32   734  597 
33   977  623 
34   952  548 
35   912  420 
36   913  211 
37   847  428 
38   890  463 
39   937  437 
40   870  194 
41   888  209 
42   874  527 
43   807  263 
44   870  633 
45   907  551 
46   738  203 
47   852  225 
48   912  239 
49   884  177 
50   814  552 
51   735  408 
52   941  174 
53   879  16  
54   770  347 
55   876  255 
56   901  513 
57   855  589 
58   899  229 
59   763  97  
60   944  347 
61   727  315 
62   907  608 
63   976  543 
64   836  502 
65   836  575 
66   923  34  
67   895  408 
68   645  562 
69   916  202 
70   952  634 
71   943  204 
72   813  558 
73   857  143 
74   835  570 
75   886  551 
76   842  374 
77   887  107 
78   833  597 
79   865  205 
80   862  578 
81   926  288 
82   870  591 
83   976  246 
84   788  220 
85   875  416 
86   810  125 
87   997  369 
88   635  227 
89   839  115 
90   914  307 
91   855  184 
92   931  634 
93   855  486 
94   857  483 
95   915  537 
96   829  531 
97   813  187 
98   936  514 
99   821  591 
100  875  537 
101  708  360 
102  947  169 
103  870  517 
104  917  500 
105  918  206 
106  740  211 
107  829  149 
108  762  196 
109  963  558 
110  894  89  
111  930  555 
112  802  342 
113  841  562 
114  897  204 
115  797  266 
116  891  874 
117  921  506 
118  948  618 
119  820  487 
120  969  476 
121  859  485 
122  828  177 
123  781  395 
124  720  354 
125  1000 591 
126  728  559 
127  789  545 
128  640  501 
129  853  163 
130  675  532 
131  902  605 
132  958  548 
133  832  79  
134  762  454 
135  779  451 
136  795  777 
137  847  525 
138  804  947 
139  862  278 
140  662  271 
141  884  110 
142  826  157 
143  864  568 
144  981  180 
145  891  460 
146  890  169 
147  890  288 
148  755  243 
149  783  497 
150  907  529 
151  942  496 
152  976  156 
153  867  66  
154  962  593 
155  855  229 
156  880  124 
157  988  621 
158  837  589 
159  849  554 
160  717  652 
161  759  325 
162  844  604 
163  721  524 
164  947  458 
165  827  179 
166  885  538 
167  792  47  
168  822  82  
169  826  232 
170  891  645 
171  894  116 
172  878  251 
173  776  434 
174  988  196 
175  901  411 
176  999  443 
177  765  157 
178  770  327 
179  800  69  
180  794  532 
181  908  169 
182  964  650 
183  859  585 
184  893  190 
185  889  238 
186  880  528 
187  955  412 
188  944  272 
189  928  437 
190  909  552 
191  824  456 
192  787  437 
193  781  522 
194  864  593 
195  968  165 
196  690  138 
197  791  50  
198  847  476 
199  697  400 
200  872  252 
201  823  213 
DEMAND_SECTION
1    0   
2    1   
3    1   
4    1   
5    1   
6    1   
7    1   
8    1   
9    1   
10   1   
11   1   
12   1   
13   1   
14   1   
15   1   
16   1   
17   1   
18   1   
19   1   
20   1   
21   1   
22   1   
23   1   
24   1   
25   1   
26   1   
27   1   
28   1   
29   1   
30   1   
31   1   
32   1   
33   1   
34   1   
35   1   
36   1   
37   1   
38   1   
39   1   
40   1   
41   1   
42   1   
43   1   
44   1   
45   1   
46   1   
47   1   
48   1   
49   1   
50   1   
51   1   
52   1   
53   1   
54   1   
55   1   
56   1   
57   1   
58   1   
59   1   
60   1   
61   1   
62   1   
63   1   
64   1   
65   1   
66   1   
67   1   
68   1   
69   1   
70   1   
71   1   
72   1   
73   1   
74   1   
75   1   
76   1   
77   1   
78   1   
79   1   
80   1   
81   1   
82   1   
83   1   
84   1   
85   1   
86   1   
87   1   
88   1   
89   1   
90   1   
91   1   
92   1   
93   1   
94   1   
95   1   
96   1   
97   1   
98   1   
99   1   
100  1   
101  1   
102  1   
103  1   
104  1   
105  1   
106  1   
107  1   
108  1   
109  1   
110  1   
111  1   
112  1   
113  1   
114  1   
115  1   
116  1   
117  1   
118  1   
119  1   
120  1   
121  1   
122  1   
123  1   
124  1   
125  1   
126  1   
127  1   
128  1   
129  1   
130  1   
131  1   
132  1   
133  1   
134  1   
135  1   
136  1   
137  1   
138  1   
139  1   
140  1   
141  1   
142  1   
143  1   
144  1   
145  1   
146  1   
147  1   
148  1   
149  1   
150  1   
151  1   
152  1   
153  1   
154  1   
155  1   
156  1   
157  1   
158  1   
159  1   
160  1   
161  1   
162  1   
163  1   
164  1   
165  1   
166  1   
167  1   
168  1   
169  1   
170  1   
171  1   
172  1   
173  1   
174  1   
175  1   
176  1   
177  1   
178  1   
179  1   
180  1   
181  1   
182  1   
183  1   
184  1   
185  1   
186  1   
187  1   
188  1   
189  1   
190  1   
191  1   
192  1   
193  1   
194  1   
195  1   
196  1   
197  1   
198  1   
199  1   
200  1   
201  1   
DEPOT_SECTION
1
-1
EOF
