NAME : XML200_2143_09
COMMENT : Generated as the XML100 dataset from the CVRPLIB
TYPE : CVRP
DIMENSION : 201
EDGE_WEIGHT_TYPE : EUC_2D
CAPACITY : 570
NODE_COORD_SECTION
1    500  500 
2    847  723 
3    718  148 
4    225  514 
5    284  347 
6    205  237 
7    851  3   
8    612  505 
9    676  935 
10   245  74  
11   782  733 
12   369  195 
13   108  130 
14   836  176 
15   899  95  
16   324  172 
17   104  727 
18   119  416 
19   661  470 
20   689  41  
21   443  986 
22   170  562 
23   776  500 
24   775  977 
25   389  423 
26   327  710 
27   722  959 
28   995  397 
29   698  620 
30   284  376 
31   58   515 
32   878  550 
33   642  505 
34   339  229 
35   401  671 
36   466  825 
37   264  830 
38   105  703 
39   568  647 
40   215  953 
41   422  120 
42   169  348 
43   914  774 
44   224  382 
45   666  727 
46   605  961 
47   79   958 
48   111  816 
49   910  468 
50   977  497 
51   358  931 
52   242  930 
53   296  965 
54   559  646 
55   194  386 
56   540  605 
57   442  15  
58   910  925 
59   61   970 
60   113  526 
61   395  330 
62   287  443 
63   801  481 
64   466  555 
65   715  530 
66   684  506 
67   353  452 
68   804  745 
69   860  442 
70   511  588 
71   428  345 
72   197  21  
73   930  546 
74   870  470 
75   380  518 
76   13   142 
77   44   993 
78   992  414 
79   649  941 
80   430  519 
81   598  505 
82   419  909 
83   388  110 
84   70   447 
85   63   170 
86   923  427 
87   748  584 
88   76   380 
89   574  193 
90   332  77  
91   160  514 
92   453  141 
93   588  21  
94   814  74  
95   23   499 
96   261  474 
97   180  904 
98   120  752 
99   254  499 
100  611  306 
101  322  771 
102  588  231 
103  856  668 
104  820  80  
105  513  91  
106  622  727 
107  629  586 
108  753  136 
109  462  756 
110  444  442 
111  572  582 
112  106  81  
113  875  647 
114  528  164 
115  935  558 
116  27   309 
117  543  912 
118  394  322 
119  318  92  
120  953  456 
121  61   622 
122  690  0   
123  746  618 
124  196  102 
125  231  599 
126  373  875 
127  996  283 
128  298  424 
129  588  864 
130  978  485 
131  98   701 
132  553  250 
133  626  976 
134  14   18  
135  705  409 
136  11   358 
137  931  437 
138  36   88  
139  228  804 
140  461  57  
141  473  196 
142  395  368 
143  888  923 
144  528  589 
145  907  463 
146  453  769 
147  310  418 
148  522  887 
149  515  280 
150  842  193 
151  39   836 
152  270  211 
153  988  683 
154  748  174 
155  644  528 
156  317  417 
157  298  620 
158  885  783 
159  714  748 
160  684  265 
161  950  683 
162  541  966 
163  579  294 
164  537  749 
165  331  52  
166  946  917 
167  0    154 
168  169  740 
169  908  103 
170  597  327 
171  272  860 
172  952  375 
173  260  922 
174  658  767 
175  693  734 
176  23   320 
177  893  133 
178  931  126 
179  737  59  
180  591  496 
181  656  498 
182  216  244 
183  24   13  
184  781  666 
185  223  850 
186  834  58  
187  551  954 
188  341  961 
189  869  571 
190  245  865 
191  502  823 
192  314  385 
193  222  604 
194  303  22  
195  160  501 
196  609  86  
197  867  436 
198  563  644 
199  157  935 
200  679  355 
201  607  378 
DEMAND_SECTION
1    0   
2    100 
3    29  
4    73  
5    5   
6    64  
7    43  
8    89  
9    65  
10   79  
11   25  
12   60  
13   2   
14   82  
15   15  
16   14  
17   81  
18   32  
19   74  
20   48  
21   2   
22   75  
23   16  
24   6   
25   1   
26   66  
27   69  
28   77  
29   100 
30   51  
31   49  
32   69  
33   24  
34   63  
35   15  
36   59  
37   7   
38   76  
39   74  
40   12  
41   61  
42   64  
43   91  
44   74  
45   82  
46   51  
47   69  
48   67  
49   8   
50   51  
51   30  
52   77  
53   69  
54   81  
55   70  
56   19  
57   48  
58   5   
59   20  
60   48  
61   11  
62   58  
63   31  
64   12  
65   87  
66   57  
67   7   
68   67  
69   84  
70   82  
71   51  
72   59  
73   26  
74   35  
75   21  
76   85  
77   66  
78   6   
79   43  
80   22  
81   81  
82   21  
83   3   
84   31  
85   67  
86   66  
87   17  
88   67  
89   64  
90   48  
91   38  
92   52  
93   54  
94   63  
95   79  
96   38  
97   18  
98   49  
99   29  
100  48  
101  94  
102  38  
103  29  
104  61  
105  38  
106  75  
107  81  
108  29  
109  86  
110  22  
111  46  
112  18  
113  65  
114  67  
115  30  
116  36  
117  80  
118  87  
119  91  
120  87  
121  8   
122  63  
123  33  
124  72  
125  83  
126  2   
127  49  
128  76  
129  20  
130  30  
131  73  
132  67  
133  25  
134  32  
135  100 
136  99  
137  59  
138  60  
139  87  
140  79  
141  60  
142  92  
143  69  
144  1   
145  17  
146  74  
147  99  
148  55  
149  24  
150  3   
151  51  
152  65  
153  18  
154  1   
155  43  
156  40  
157  100 
158  86  
159  14  
160  55  
161  1   
162  66  
163  51  
164  43  
165  17  
166  4   
167  58  
168  46  
169  23  
170  22  
171  57  
172  61  
173  87  
174  6   
175  93  
176  33  
177  84  
178  63  
179  51  
180  99  
181  21  
182  22  
183  15  
184  91  
185  83  
186  29  
187  48  
188  28  
189  18  
190  83  
191  25  
192  39  
193  96  
194  9   
195  96  
196  91  
197  61  
198  79  
199  33  
200  30  
201  68  
DEPOT_SECTION
1
-1
EOF
