NAME : XML200_3174_03
COMMENT : Generated as the XML100 dataset from the CVRPLIB
TYPE : CVRP
DIMENSION : 201
EDGE_WEIGHT_TYPE : EUC_2D
CAPACITY : 180
NODE_COORD_SECTION
1    0    0   
2    248  287 
3    763  891 
4    387  268 
5    636  670 
6    506  100 
7    305  925 
8    445  819 
9    864  458 
10   657  427 
11   122  723 
12   853  18  
13   581  847 
14   580  226 
15   463  272 
16   251  444 
17   620  643 
18   480  157 
19   911  655 
20   957  868 
21   821  279 
22   441  360 
23   378  127 
24   189  166 
25   621  937 
26   643  714 
27   100  222 
28   214  927 
29   729  726 
30   881  732 
31   355  793 
32   59   642 
33   491  363 
34   281  523 
35   250  975 
36   460  40  
37   925  777 
38   162  117 
39   109  81  
40   261  477 
41   586  673 
42   970  464 
43   465  920 
44   373  300 
45   168  267 
46   32   791 
47   578  513 
48   326  332 
49   61   934 
50   300  322 
51   355  923 
52   635  913 
53   579  734 
54   870  233 
55   826  627 
56   569  229 
57   506  518 
58   28   894 
59   954  501 
60   109  675 
61   15   283 
62   284  362 
63   171  305 
64   110  337 
65   68   8   
66   414  621 
67   166  946 
68   800  354 
69   651  475 
70   66   569 
71   883  443 
72   622  378 
73   682  874 
74   861  186 
75   238  452 
76   91   134 
77   881  528 
78   873  478 
79   2    431 
80   996  798 
81   843  992 
82   675  160 
83   322  915 
84   518  442 
85   588  851 
86   562  603 
87   777  509 
88   512  474 
89   254  69  
90   364  374 
91   840  822 
92   248  965 
93   134  205 
94   428  267 
95   447  192 
96   160  205 
97   59   31  
98   224  928 
99   477  845 
100  741  992 
101  557  963 
102  871  46  
103  112  689 
104  320  727 
105  483  678 
106  849  582 
107  652  163 
108  618  915 
109  297  536 
110  541  594 
111  701  284 
112  453  72  
113  686  512 
114  808  547 
115  983  280 
116  295  151 
117  458  251 
118  545  701 
119  770  145 
120  968  356 
121  560  247 
122  38   925 
123  706  182 
124  228  54  
125  79   404 
126  398  639 
127  140  60  
128  789  262 
129  646  39  
130  635  167 
131  370  769 
132  808  357 
133  863  586 
134  756  112 
135  681  530 
136  187  986 
137  47   344 
138  77   717 
139  531  204 
140  658  635 
141  828  262 
142  884  773 
143  366  847 
144  796  431 
145  194  881 
146  45   740 
147  632  51  
148  224  925 
149  132  250 
150  210  761 
151  244  967 
152  425  115 
153  671  738 
154  813  349 
155  260  63  
156  789  968 
157  539  372 
158  833  562 
159  521  241 
160  683  559 
161  378  375 
162  263  101 
163  974  384 
164  65   18  
165  284  679 
166  963  55  
167  518  736 
168  628  113 
169  234  867 
170  773  16  
171  617  296 
172  327  640 
173  827  115 
174  210  372 
175  229  114 
176  316  594 
177  643  333 
178  414  800 
179  441  280 
180  568  147 
181  659  405 
182  381  476 
183  528  513 
184  535  891 
185  246  907 
186  661  612 
187  479  175 
188  282  27  
189  200  467 
190  550  171 
191  989  240 
192  822  868 
193  196  796 
194  571  639 
195  34   154 
196  560  221 
197  906  629 
198  372  741 
199  543  333 
200  168  770 
201  353  297 
DEMAND_SECTION
1    0   
2    3   
3    8   
4    1   
5    68  
6    9   
7    6   
8    10  
9    9   
10   7   
11   3   
12   3   
13   8   
14   2   
15   5   
16   1   
17   7   
18   6   
19   5   
20   6   
21   10  
22   8   
23   5   
24   74  
25   6   
26   7   
27   9   
28   7   
29   8   
30   10  
31   4   
32   9   
33   75  
34   5   
35   2   
36   4   
37   57  
38   4   
39   4   
40   8   
41   7   
42   1   
43   8   
44   5   
45   6   
46   4   
47   3   
48   3   
49   9   
50   4   
51   9   
52   76  
53   3   
54   7   
55   8   
56   10  
57   10  
58   1   
59   2   
60   1   
61   5   
62   3   
63   2   
64   84  
65   2   
66   6   
67   8   
68   10  
69   10  
70   3   
71   2   
72   5   
73   1   
74   10  
75   1   
76   5   
77   78  
78   3   
79   1   
80   4   
81   10  
82   5   
83   1   
84   7   
85   3   
86   7   
87   9   
88   2   
89   1   
90   9   
91   9   
92   7   
93   7   
94   7   
95   3   
96   8   
97   7   
98   86  
99   2   
100  51  
101  9   
102  6   
103  8   
104  8   
105  10  
106  1   
107  1   
108  3   
109  6   
110  8   
111  9   
112  2   
113  66  
114  5   
115  8   
116  6   
117  84  
118  9   
119  8   
120  10  
121  10  
122  60  
123  1   
124  3   
125  2   
126  2   
127  9   
128  2   
129  4   
130  6   
131  9   
132  2   
133  69  
134  5   
135  7   
136  5   
137  3   
138  73  
139  2   
140  7   
141  2   
142  9   
143  8   
144  9   
145  3   
146  10  
147  10  
148  4   
149  10  
150  10  
151  1   
152  85  
153  2   
154  3   
155  10  
156  6   
157  7   
158  1   
159  7   
160  9   
161  4   
162  2   
163  4   
164  10  
165  3   
166  3   
167  1   
168  73  
169  77  
170  8   
171  6   
172  6   
173  3   
174  4   
175  74  
176  4   
177  7   
178  9   
179  5   
180  1   
181  6   
182  9   
183  9   
184  1   
185  6   
186  8   
187  9   
188  7   
189  4   
190  6   
191  2   
192  9   
193  7   
194  6   
195  7   
196  6   
197  9   
198  1   
199  1   
200  7   
201  1   
DEPOT_SECTION
1
-1
EOF
