NAME : XML200_3111_05
COMMENT : Generated as the XML100 dataset from the CVRPLIB
TYPE : CVRP
DIMENSION : 201
EDGE_WEIGHT_TYPE : EUC_2D
CAPACITY : 4
NODE_COORD_SECTION
1    0    0   
2    815  535 
3    257  439 
4    398  85  
5    620  232 
6    893  174 
7    465  596 
8    376  967 
9    400  366 
10   70   192 
11   641  883 
12   985  574 
13   836  887 
14   537  664 
15   866  281 
16   158  387 
17   78   690 
18   86   584 
19   449  670 
20   53   462 
21   904  994 
22   674  724 
23   387  505 
24   890  751 
25   940  462 
26   247  257 
27   622  918 
28   31   614 
29   576  121 
30   454  577 
31   151  365 
32   490  188 
33   382  728 
34   482  159 
35   65   310 
36   129  740 
37   824  341 
38   349  197 
39   863  244 
40   686  99  
41   886  99  
42   504  992 
43   202  507 
44   944  489 
45   16   1000
46   901  984 
47   533  881 
48   155  807 
49   614  964 
50   523  68  
51   225  301 
52   86   106 
53   258  542 
54   723  526 
55   737  186 
56   833  419 
57   710  669 
58   353  770 
59   371  721 
60   752  351 
61   198  701 
62   608  520 
63   625  292 
64   749  736 
65   939  915 
66   760  837 
67   524  581 
68   110  630 
69   918  938 
70   450  76  
71   775  501 
72   423  449 
73   999  828 
74   894  821 
75   402  127 
76   346  760 
77   798  39  
78   336  493 
79   58   686 
80   8    493 
81   86   940 
82   440  840 
83   277  178 
84   872  482 
85   252  87  
86   497  47  
87   552  272 
88   39   318 
89   63   984 
90   701  453 
91   726  830 
92   359  369 
93   711  36  
94   211  299 
95   21   102 
96   308  369 
97   467  890 
98   266  845 
99   118  135 
100  605  67  
101  71   60  
102  422  757 
103  448  565 
104  277  445 
105  692  544 
106  468  980 
107  894  224 
108  463  922 
109  961  769 
110  193  698 
111  245  562 
112  649  63  
113  384  211 
114  286  130 
115  817  959 
116  997  554 
117  845  502 
118  545  582 
119  162  939 
120  263  668 
121  680  874 
122  548  791 
123  225  330 
124  820  112 
125  634  358 
126  285  353 
127  939  14  
128  654  583 
129  230  338 
130  708  627 
131  25   915 
132  538  298 
133  802  445 
134  218  964 
135  719  709 
136  249  6   
137  57   766 
138  631  309 
139  964  717 
140  198  888 
141  419  316 
142  80   84  
143  673  534 
144  79   662 
145  432  456 
146  451  79  
147  354  247 
148  792  619 
149  285  147 
150  296  303 
151  665  313 
152  999  994 
153  275  36  
154  13   747 
155  226  772 
156  128  493 
157  184  199 
158  872  209 
159  860  189 
160  218  566 
161  558  86  
162  150  880 
163  54   717 
164  75   511 
165  567  393 
166  241  415 
167  316  274 
168  508  316 
169  233  560 
170  952  183 
171  329  958 
172  103  795 
173  208  485 
174  222  35  
175  861  647 
176  766  849 
177  299  523 
178  493  172 
179  428  634 
180  731  626 
181  638  309 
182  468  115 
183  617  1000
184  355  21  
185  364  478 
186  299  989 
187  934  481 
188  980  448 
189  318  432 
190  910  624 
191  459  688 
192  441  374 
193  573  920 
194  498  316 
195  837  511 
196  336  983 
197  799  173 
198  185  112 
199  368  371 
200  966  85  
201  293  310 
DEMAND_SECTION
1    0   
2    1   
3    1   
4    1   
5    1   
6    1   
7    1   
8    1   
9    1   
10   1   
11   1   
12   1   
13   1   
14   1   
15   1   
16   1   
17   1   
18   1   
19   1   
20   1   
21   1   
22   1   
23   1   
24   1   
25   1   
26   1   
27   1   
28   1   
29   1   
30   1   
31   1   
32   1   
33   1   
34   1   
35   1   
36   1   
37   1   
38   1   
39   1   
40   1   
41   1   
42   1   
43   1   
44   1   
45   1   
46   1   
47   1   
48   1   
49   1   
50   1   
51   1   
52   1   
53   1   
54   1   
55   1   
56   1   
57   1   
58   1   
59   1   
60   1   
61   1   
62   1   
63   1   
64   1   
65   1   
66   1   
67   1   
68   1   
69   1   
70   1   
71   1   
72   1   
73   1   
74   1   
75   1   
76   1   
77   1   
78   1   
79   1   
80   1   
81   1   
82   1   
83   1   
84   1   
85   1   
86   1   
87   1   
88   1   
89   1   
90   1   
91   1   
92   1   
93   1   
94   1   
95   1   
96   1   
97   1   
98   1   
99   1   
100  1   
101  1   
102  1   
103  1   
104  1   
105  1   
106  1   
107  1   
108  1   
109  1   
110  1   
111  1   
112  1   
113  1   
114  1   
115  1   
116  1   
117  1   
118  1   
119  1   
120  1   
121  1   
122  1   
123  1   
124  1   
125  1   
126  1   
127  1   
128  1   
129  1   
130  1   
131  1   
132  1   
133  1   
134  1   
135  1   
136  1   
137  1   
138  1   
139  1   
140  1   
141  1   
142  1   
143  1   
144  1   
145  1   
146  1   
147  1   
148  1   
149  1   
150  1   
151  1   
152  1   
153  1   
154  1   
155  1   
156  1   
157  1   
158  1   
159  1   
160  1   
161  1   
162  1   
163  1   
164  1   
165  1   
166  1   
167  1   
168  1   
169  1   
170  1   
171  1   
172  1   
173  1   
174  1   
175  1   
176  1   
177  1   
178  1   
179  1   
180  1   
181  1   
182  1   
183  1   
184  1   
185  1   
186  1   
187  1   
188  1   
189  1   
190  1   
191  1   
192  1   
193  1   
194  1   
195  1   
196  1   
197  1   
198  1   
199  1   
200  1   
201  1   
DEPOT_SECTION
1
-1
EOF
