NAME : XML200_3134_07
COMMENT : Generated as the XML100 dataset from the CVRPLIB
TYPE : CVRP
DIMENSION : 201
EDGE_WEIGHT_TYPE : EUC_2D
CAPACITY : 95
NODE_COORD_SECTION
1    0    0   
2    186  159 
3    856  884 
4    516  797 
5    621  215 
6    233  54  
7    325  967 
8    273  929 
9    513  972 
10   390  773 
11   28   814 
12   100  885 
13   867  557 
14   648  113 
15   891  139 
16   63   363 
17   665  968 
18   61   527 
19   249  71  
20   808  608 
21   791  546 
22   908  704 
23   554  673 
24   748  813 
25   262  974 
26   434  775 
27   244  303 
28   518  845 
29   726  904 
30   267  497 
31   886  35  
32   209  931 
33   654  979 
34   95   372 
35   466  352 
36   406  758 
37   127  776 
38   445  695 
39   271  152 
40   553  795 
41   843  122 
42   740  859 
43   523  77  
44   956  17  
45   183  905 
46   557  182 
47   117  487 
48   107  37  
49   980  566 
50   686  293 
51   384  913 
52   286  652 
53   167  527 
54   132  57  
55   333  355 
56   908  244 
57   134  274 
58   455  82  
59   612  221 
60   911  579 
61   155  882 
62   787  18  
63   854  807 
64   832  596 
65   605  792 
66   831  717 
67   957  374 
68   316  808 
69   22   535 
70   984  10  
71   172  303 
72   560  485 
73   483  601 
74   448  460 
75   604  973 
76   359  358 
77   23   735 
78   273  382 
79   446  673 
80   395  33  
81   514  463 
82   523  975 
83   744  531 
84   827  157 
85   530  999 
86   546  534 
87   855  902 
88   296  960 
89   780  774 
90   45   777 
91   185  125 
92   270  230 
93   802  219 
94   445  27  
95   961  749 
96   342  255 
97   469  686 
98   320  917 
99   62   640 
100  9    976 
101  892  905 
102  376  943 
103  424  873 
104  273  832 
105  117  121 
106  421  319 
107  394  130 
108  243  550 
109  705  343 
110  583  109 
111  766  694 
112  603  850 
113  443  242 
114  249  404 
115  652  538 
116  347  265 
117  841  233 
118  912  110 
119  39   66  
120  513  285 
121  223  595 
122  664  475 
123  703  619 
124  441  564 
125  289  204 
126  990  697 
127  498  262 
128  836  65  
129  451  315 
130  745  804 
131  36   771 
132  523  453 
133  400  648 
134  433  169 
135  995  976 
136  565  660 
137  574  867 
138  315  561 
139  509  210 
140  356  205 
141  527  535 
142  341  964 
143  147  952 
144  870  209 
145  102  35  
146  784  249 
147  919  541 
148  464  653 
149  524  731 
150  470  705 
151  636  981 
152  356  335 
153  265  379 
154  793  53  
155  924  829 
156  183  575 
157  621  828 
158  936  721 
159  553  684 
160  294  497 
161  295  322 
162  518  7   
163  147  133 
164  953  965 
165  454  205 
166  763  896 
167  198  590 
168  932  106 
169  184  930 
170  995  818 
171  396  175 
172  870  21  
173  369  310 
174  785  136 
175  114  413 
176  766  394 
177  927  476 
178  318  103 
179  653  270 
180  40   839 
181  19   389 
182  769  320 
183  694  106 
184  693  709 
185  638  803 
186  560  246 
187  691  336 
188  409  849 
189  461  139 
190  355  460 
191  88   52  
192  973  125 
193  552  705 
194  883  295 
195  691  610 
196  265  212 
197  904  391 
198  283  19  
199  169  543 
200  833  895 
201  727  615 
DEMAND_SECTION
1    0   
2    5   
3    8   
4    9   
5    7   
6    10  
7    6   
8    9   
9    6   
10   10  
11   10  
12   10  
13   5   
14   8   
15   9   
16   10  
17   7   
18   9   
19   8   
20   6   
21   7   
22   10  
23   10  
24   5   
25   7   
26   5   
27   9   
28   5   
29   8   
30   10  
31   9   
32   5   
33   6   
34   6   
35   9   
36   5   
37   6   
38   7   
39   10  
40   10  
41   8   
42   9   
43   8   
44   6   
45   7   
46   8   
47   6   
48   9   
49   6   
50   7   
51   7   
52   5   
53   7   
54   10  
55   6   
56   9   
57   10  
58   6   
59   10  
60   7   
61   7   
62   10  
63   6   
64   8   
65   10  
66   6   
67   5   
68   7   
69   10  
70   8   
71   6   
72   7   
73   10  
74   6   
75   7   
76   10  
77   8   
78   6   
79   5   
80   9   
81   6   
82   6   
83   9   
84   9   
85   10  
86   7   
87   5   
88   5   
89   6   
90   5   
91   6   
92   6   
93   9   
94   9   
95   5   
96   6   
97   10  
98   9   
99   10  
100  7   
101  10  
102  9   
103  9   
104  5   
105  10  
106  8   
107  5   
108  9   
109  8   
110  5   
111  5   
112  7   
113  6   
114  7   
115  8   
116  7   
117  7   
118  7   
119  7   
120  8   
121  6   
122  8   
123  8   
124  7   
125  10  
126  6   
127  9   
128  9   
129  10  
130  10  
131  8   
132  7   
133  8   
134  7   
135  6   
136  8   
137  7   
138  10  
139  7   
140  10  
141  8   
142  5   
143  7   
144  6   
145  9   
146  6   
147  9   
148  7   
149  7   
150  10  
151  5   
152  9   
153  7   
154  5   
155  6   
156  6   
157  7   
158  8   
159  9   
160  9   
161  10  
162  7   
163  7   
164  7   
165  9   
166  7   
167  9   
168  5   
169  9   
170  8   
171  6   
172  5   
173  6   
174  6   
175  9   
176  8   
177  7   
178  10  
179  6   
180  8   
181  10  
182  7   
183  7   
184  8   
185  5   
186  10  
187  10  
188  10  
189  5   
190  6   
191  10  
192  8   
193  10  
194  8   
195  10  
196  6   
197  10  
198  5   
199  7   
200  6   
201  7   
DEPOT_SECTION
1
-1
EOF
