NAME : XML200_2362_08
COMMENT : Generated as the XML100 dataset from the CVRPLIB
TYPE : CVRP
DIMENSION : 201
EDGE_WEIGHT_TYPE : EUC_2D
CAPACITY : 249
NODE_COORD_SECTION
1    500  500 
2    439  779 
3    42   530 
4    96   650 
5    119  441 
6    524  627 
7    351  803 
8    698  972 
9    752  265 
10   762  547 
11   596  643 
12   89   598 
13   963  790 
14   911  426 
15   377  348 
16   791  418 
17   828  437 
18   570  642 
19   144  790 
20   871  664 
21   208  27  
22   448  600 
23   772  505 
24   529  628 
25   81   599 
26   652  909 
27   825  434 
28   421  192 
29   726  376 
30   79   620 
31   70   660 
32   302  530 
33   945  661 
34   47   667 
35   671  522 
36   545  654 
37   975  958 
38   763  59  
39   178  406 
40   872  521 
41   83   254 
42   132  665 
43   807  437 
44   484  61  
45   611  153 
46   835  358 
47   234  697 
48   340  614 
49   414  63  
50   895  424 
51   803  524 
52   823  658 
53   97   572 
54   954  748 
55   105  488 
56   500  642 
57   664  549 
58   369  851 
59   770  438 
60   257  484 
61   250  787 
62   560  604 
63   931  111 
64   723  27  
65   29   577 
66   859  461 
67   543  14  
68   572  889 
69   802  418 
70   311  976 
71   150  769 
72   740  689 
73   770  68  
74   677  423 
75   502  479 
76   8    584 
77   167  504 
78   893  358 
79   112  632 
80   135  606 
81   33   531 
82   720  704 
83   510  678 
84   888  279 
85   751  356 
86   697  504 
87   97   286 
88   869  458 
89   379  804 
90   331  855 
91   115  639 
92   762  340 
93   530  619 
94   31   816 
95   771  565 
96   785  445 
97   964  194 
98   715  609 
99   65   668 
100  264  877 
101  720  416 
102  503  320 
103  786  416 
104  419  586 
105  876  392 
106  431  505 
107  214  528 
108  278  293 
109  55   658 
110  512  42  
111  940  230 
112  450  256 
113  838  554 
114  842  536 
115  519  520 
116  166  744 
117  405  608 
118  971  647 
119  689  495 
120  800  344 
121  607  843 
122  139  598 
123  131  615 
124  821  394 
125  216  485 
126  718  76  
127  747  484 
128  249  625 
129  986  949 
130  558  813 
131  111  621 
132  934  337 
133  388  603 
134  83   623 
135  779  15  
136  184  471 
137  579  774 
138  750  882 
139  150  597 
140  327  391 
141  802  328 
142  206  693 
143  36   474 
144  649  33  
145  599  441 
146  701  910 
147  737  219 
148  878  823 
149  290  582 
150  564  340 
151  288  564 
152  439  699 
153  718  416 
154  261  921 
155  23   528 
156  21   650 
157  649  618 
158  813  415 
159  173  518 
160  694  177 
161  414  352 
162  415  161 
163  910  732 
164  260  977 
165  85   588 
166  460  468 
167  6    325 
168  515  620 
169  761  651 
170  86   571 
171  793  119 
172  151  670 
173  535  617 
174  988  251 
175  140  624 
176  156  913 
177  632  659 
178  607  257 
179  958  701 
180  91   469 
181  379  497 
182  595  57  
183  909  104 
184  6    745 
185  703  246 
186  474  368 
187  485  643 
188  769  466 
189  496  673 
190  516  630 
191  85   62  
192  756  221 
193  340  578 
194  577  597 
195  392  536 
196  122  968 
197  58   639 
198  572  76  
199  670  352 
200  696  371 
201  644  461 
DEMAND_SECTION
1    0   
2    30  
3    42  
4    7   
5    63  
6    74  
7    25  
8    100 
9    33  
10   85  
11   96  
12   10  
13   55  
14   21  
15   80  
16   44  
17   16  
18   70  
19   11  
20   66  
21   71  
22   8   
23   85  
24   100 
25   2   
26   76  
27   34  
28   51  
29   27  
30   37  
31   41  
32   9   
33   67  
34   16  
35   57  
36   81  
37   94  
38   23  
39   77  
40   81  
41   87  
42   4   
43   11  
44   55  
45   15  
46   46  
47   29  
48   7   
49   78  
50   38  
51   80  
52   55  
53   17  
54   62  
55   97  
56   100 
57   95  
58   18  
59   20  
60   86  
61   31  
62   58  
63   24  
64   47  
65   23  
66   34  
67   41  
68   80  
69   7   
70   37  
71   15  
72   92  
73   33  
74   14  
75   33  
76   7   
77   10  
78   10  
79   13  
80   16  
81   42  
82   63  
83   73  
84   42  
85   21  
86   83  
87   58  
88   50  
89   12  
90   50  
91   10  
92   25  
93   69  
94   46  
95   99  
96   27  
97   28  
98   62  
99   39  
100  18  
101  26  
102  49  
103  33  
104  13  
105  35  
106  24  
107  10  
108  63  
109  2   
110  17  
111  13  
112  61  
113  67  
114  90  
115  87  
116  34  
117  11  
118  67  
119  16  
120  18  
121  89  
122  33  
123  35  
124  12  
125  91  
126  22  
127  18  
128  18  
129  63  
130  77  
131  27  
132  50  
133  45  
134  44  
135  5   
136  98  
137  68  
138  70  
139  43  
140  81  
141  12  
142  5   
143  86  
144  7   
145  41  
146  75  
147  18  
148  55  
149  47  
150  33  
151  25  
152  19  
153  9   
154  12  
155  47  
156  31  
157  99  
158  11  
159  3   
160  33  
161  62  
162  55  
163  61  
164  5   
165  18  
166  97  
167  60  
168  90  
169  54  
170  9   
171  38  
172  38  
173  66  
174  34  
175  18  
176  17  
177  94  
178  45  
179  93  
180  70  
181  59  
182  37  
183  26  
184  6   
185  46  
186  60  
187  4   
188  29  
189  2   
190  72  
191  63  
192  44  
193  9   
194  75  
195  48  
196  47  
197  17  
198  46  
199  47  
200  7   
201  1   
DEPOT_SECTION
1
-1
EOF
