NAME : XML200_3361_01
COMMENT : Generated as the XML100 dataset from the CVRPLIB
TYPE : CVRP
DIMENSION : 201
EDGE_WEIGHT_TYPE : EUC_2D
CAPACITY : 245
NODE_COORD_SECTION
1    0    0   
2    887  780 
3    627  119 
4    285  992 
5    56   657 
6    727  880 
7    111  730 
8    312  427 
9    167  347 
10   457  546 
11   177  446 
12   601  310 
13   677  586 
14   590  636 
15   867  838 
16   426  650 
17   880  203 
18   49   373 
19   85   402 
20   771  360 
21   713  874 
22   560  497 
23   702  709 
24   833  625 
25   271  760 
26   604  448 
27   378  557 
28   303  499 
29   835  683 
30   154  248 
31   999  138 
32   817  421 
33   170  491 
34   213  44  
35   328  476 
36   217  551 
37   130  766 
38   89   966 
39   321  446 
40   699  767 
41   220  467 
42   696  542 
43   52   83  
44   287  587 
45   767  831 
46   324  551 
47   744  774 
48   449  393 
49   485  633 
50   636  722 
51   25   868 
52   842  827 
53   243  489 
54   719  125 
55   534  784 
56   204  546 
57   752  726 
58   670  870 
59   2    893 
60   700  871 
61   367  442 
62   98   720 
63   176  484 
64   830  773 
65   749  644 
66   208  534 
67   414  941 
68   845  752 
69   828  745 
70   543  835 
71   865  904 
72   285  173 
73   243  445 
74   490  194 
75   687  406 
76   186  844 
77   738  781 
78   531  479 
79   172  49  
80   800  765 
81   617  512 
82   739  755 
83   246  511 
84   324  610 
85   752  575 
86   964  162 
87   355  390 
88   957  394 
89   689  772 
90   362  386 
91   917  132 
92   127  492 
93   248  254 
94   273  512 
95   494  758 
96   766  820 
97   896  704 
98   652  426 
99   416  924 
100  870  941 
101  161  426 
102  265  544 
103  231  487 
104  951  859 
105  422  183 
106  77   969 
107  275  649 
108  42   655 
109  81   463 
110  351  562 
111  964  841 
112  774  796 
113  31   880 
114  91   504 
115  286  731 
116  761  316 
117  818  698 
118  516  247 
119  342  543 
120  720  809 
121  313  516 
122  921  744 
123  731  675 
124  269  473 
125  969  485 
126  796  749 
127  54   768 
128  275  553 
129  592  498 
130  336  636 
131  83   575 
132  163  510 
133  427  821 
134  494  838 
135  692  722 
136  627  547 
137  120  676 
138  201  576 
139  81   568 
140  188  423 
141  227  686 
142  970  458 
143  841  747 
144  937  971 
145  701  807 
146  203  893 
147  829  437 
148  622  50  
149  891  659 
150  96   77  
151  332  970 
152  759  732 
153  496  47  
154  119  899 
155  978  471 
156  348  786 
157  331  297 
158  8    58  
159  825  707 
160  250  699 
161  183  639 
162  25   117 
163  796  744 
164  488  265 
165  523  750 
166  182  109 
167  757  752 
168  754  765 
169  227  434 
170  153  668 
171  300  449 
172  680  169 
173  895  658 
174  111  378 
175  310  523 
176  611  307 
177  848  766 
178  148  491 
179  215  426 
180  824  808 
181  432  442 
182  447  202 
183  906  682 
184  404  588 
185  964  678 
186  58   527 
187  315  485 
188  551  451 
189  18   570 
190  220  287 
191  799  747 
192  917  730 
193  851  675 
194  805  742 
195  595  505 
196  327  68  
197  487  969 
198  287  462 
199  152  472 
200  204  519 
201  653  464 
DEMAND_SECTION
1    0   
2    99  
3    28  
4    21  
5    20  
6    75  
7    35  
8    55  
9    51  
10   24  
11   56  
12   32  
13   51  
14   87  
15   64  
16   48  
17   31  
18   59  
19   90  
20   43  
21   60  
22   9   
23   93  
24   71  
25   36  
26   16  
27   37  
28   58  
29   73  
30   52  
31   36  
32   34  
33   72  
34   80  
35   78  
36   34  
37   19  
38   39  
39   73  
40   67  
41   81  
42   90  
43   75  
44   12  
45   86  
46   16  
47   86  
48   61  
49   5   
50   90  
51   2   
52   87  
53   81  
54   46  
55   63  
56   50  
57   97  
58   55  
59   28  
60   85  
61   83  
62   30  
63   81  
64   67  
65   86  
66   47  
67   46  
68   77  
69   99  
70   59  
71   79  
72   94  
73   64  
74   80  
75   11  
76   49  
77   89  
78   11  
79   62  
80   96  
81   87  
82   65  
83   42  
84   13  
85   64  
86   49  
87   68  
88   12  
89   77  
90   86  
91   21  
92   74  
93   74  
94   41  
95   6   
96   98  
97   60  
98   20  
99   5   
100  76  
101  94  
102  23  
103  84  
104  89  
105  71  
106  33  
107  5   
108  48  
109  88  
110  4   
111  82  
112  67  
113  24  
114  15  
115  23  
116  45  
117  87  
118  49  
119  26  
120  57  
121  43  
122  91  
123  94  
124  78  
125  41  
126  82  
127  49  
128  39  
129  22  
130  42  
131  32  
132  43  
133  49  
134  12  
135  68  
136  89  
137  41  
138  15  
139  34  
140  69  
141  48  
142  49  
143  69  
144  76  
145  81  
146  1   
147  15  
148  36  
149  67  
150  61  
151  46  
152  67  
153  81  
154  27  
155  35  
156  22  
157  81  
158  87  
159  77  
160  16  
161  12  
162  74  
163  64  
164  94  
165  74  
166  83  
167  76  
168  72  
169  91  
170  28  
171  77  
172  23  
173  60  
174  70  
175  23  
176  44  
177  90  
178  53  
179  87  
180  100 
181  94  
182  82  
183  87  
184  15  
185  60  
186  50  
187  68  
188  43  
189  9   
190  70  
191  75  
192  64  
193  59  
194  71  
195  76  
196  88  
197  49  
198  76  
199  100 
200  33  
201  5   
DEPOT_SECTION
1
-1
EOF
