NAME : XML200_2132_12
COMMENT : Generated as the XML100 dataset from the CVRPLIB
TYPE : CVRP
DIMENSION : 201
EDGE_WEIGHT_TYPE : EUC_2D
CAPACITY : 49
NODE_COORD_SECTION
1    500  500 
2    746  329 
3    434  981 
4    238  990 
5    505  141 
6    370  697 
7    805  680 
8    630  465 
9    136  359 
10   204  393 
11   260  7   
12   982  642 
13   29   187 
14   507  412 
15   706  414 
16   261  100 
17   552  264 
18   954  625 
19   472  741 
20   220  776 
21   655  432 
22   476  299 
23   369  618 
24   83   197 
25   830  412 
26   154  977 
27   660  172 
28   150  662 
29   533  488 
30   368  668 
31   495  687 
32   304  9   
33   258  140 
34   843  522 
35   408  57  
36   855  432 
37   347  956 
38   71   289 
39   248  620 
40   658  723 
41   69   572 
42   57   299 
43   38   130 
44   790  414 
45   72   189 
46   772  116 
47   852  582 
48   905  682 
49   47   59  
50   492  620 
51   443  874 
52   646  577 
53   449  722 
54   368  288 
55   651  439 
56   145  533 
57   185  358 
58   561  865 
59   115  434 
60   396  32  
61   259  164 
62   456  647 
63   833  12  
64   113  272 
65   73   199 
66   627  603 
67   295  346 
68   731  1   
69   243  317 
70   847  551 
71   123  73  
72   790  437 
73   629  200 
74   80   750 
75   727  726 
76   812  913 
77   593  710 
78   414  870 
79   689  452 
80   517  571 
81   461  963 
82   961  511 
83   281  358 
84   519  159 
85   595  920 
86   461  398 
87   74   504 
88   133  108 
89   36   712 
90   525  785 
91   885  100 
92   191  778 
93   673  811 
94   770  1000
95   544  935 
96   109  318 
97   922  951 
98   57   945 
99   250  629 
100  706  799 
101  934  806 
102  757  780 
103  249  703 
104  600  134 
105  255  817 
106  113  898 
107  460  551 
108  315  111 
109  728  365 
110  216  172 
111  297  17  
112  395  476 
113  155  534 
114  967  839 
115  877  903 
116  114  23  
117  235  505 
118  947  278 
119  260  568 
120  458  626 
121  5    134 
122  896  516 
123  753  531 
124  902  212 
125  135  939 
126  909  626 
127  562  164 
128  652  12  
129  626  539 
130  82   912 
131  786  610 
132  209  635 
133  134  65  
134  935  117 
135  103  80  
136  920  265 
137  8    428 
138  330  781 
139  71   48  
140  620  324 
141  647  491 
142  456  923 
143  414  988 
144  862  696 
145  776  910 
146  664  580 
147  467  551 
148  474  663 
149  121  216 
150  944  851 
151  436  325 
152  18   804 
153  473  582 
154  898  292 
155  112  341 
156  668  568 
157  930  150 
158  853  540 
159  993  938 
160  33   295 
161  416  548 
162  941  735 
163  945  696 
164  220  731 
165  665  315 
166  373  463 
167  773  34  
168  892  705 
169  30   478 
170  234  522 
171  247  879 
172  410  848 
173  806  586 
174  614  901 
175  615  933 
176  598  901 
177  613  954 
178  242  492 
179  436  412 
180  371  902 
181  114  132 
182  80   829 
183  391  398 
184  679  307 
185  217  490 
186  1    29  
187  794  724 
188  54   621 
189  578  907 
190  921  871 
191  289  560 
192  463  87  
193  778  306 
194  45   163 
195  378  571 
196  205  991 
197  120  56  
198  864  721 
199  162  513 
200  220  33  
201  79   506 
DEMAND_SECTION
1    0   
2    5   
3    6   
4    5   
5    5   
6    10  
7    9   
8    9   
9    10  
10   6   
11   7   
12   8   
13   10  
14   10  
15   7   
16   8   
17   7   
18   7   
19   9   
20   5   
21   6   
22   6   
23   9   
24   6   
25   5   
26   10  
27   5   
28   6   
29   9   
30   10  
31   6   
32   6   
33   5   
34   9   
35   10  
36   7   
37   9   
38   10  
39   8   
40   5   
41   9   
42   7   
43   7   
44   8   
45   8   
46   8   
47   10  
48   9   
49   7   
50   6   
51   8   
52   10  
53   6   
54   7   
55   6   
56   9   
57   9   
58   5   
59   7   
60   10  
61   10  
62   6   
63   6   
64   5   
65   10  
66   6   
67   10  
68   5   
69   8   
70   5   
71   5   
72   10  
73   9   
74   8   
75   5   
76   10  
77   10  
78   8   
79   5   
80   10  
81   5   
82   8   
83   6   
84   8   
85   10  
86   10  
87   10  
88   10  
89   7   
90   6   
91   9   
92   6   
93   6   
94   9   
95   7   
96   8   
97   5   
98   9   
99   8   
100  9   
101  5   
102  6   
103  6   
104  10  
105  7   
106  10  
107  6   
108  6   
109  7   
110  7   
111  9   
112  9   
113  6   
114  9   
115  5   
116  9   
117  9   
118  8   
119  6   
120  6   
121  5   
122  10  
123  8   
124  9   
125  8   
126  8   
127  5   
128  8   
129  9   
130  6   
131  9   
132  7   
133  10  
134  6   
135  6   
136  9   
137  7   
138  8   
139  6   
140  5   
141  5   
142  7   
143  8   
144  7   
145  5   
146  9   
147  10  
148  8   
149  6   
150  5   
151  10  
152  7   
153  5   
154  6   
155  6   
156  8   
157  7   
158  9   
159  9   
160  6   
161  7   
162  10  
163  10  
164  7   
165  10  
166  9   
167  8   
168  7   
169  8   
170  7   
171  10  
172  5   
173  9   
174  5   
175  7   
176  9   
177  8   
178  6   
179  10  
180  7   
181  6   
182  9   
183  7   
184  8   
185  7   
186  7   
187  6   
188  9   
189  9   
190  9   
191  7   
192  8   
193  5   
194  5   
195  6   
196  6   
197  9   
198  9   
199  5   
200  7   
201  9   
DEPOT_SECTION
1
-1
EOF
