NAME : XML200_1253_10
COMMENT : Generated as the XML100 dataset from the CVRPLIB
TYPE : CVRP
DIMENSION : 201
EDGE_WEIGHT_TYPE : EUC_2D
CAPACITY : 884
NODE_COORD_SECTION
1    786  522 
2    622  733 
3    784  630 
4    757  765 
5    654  984 
6    623  804 
7    177  492 
8    762  636 
9    740  907 
10   768  826 
11   753  578 
12   810  542 
13   562  995 
14   636  944 
15   754  863 
16   105  335 
17   797  843 
18   592  627 
19   851  997 
20   144  415 
21   606  919 
22   791  836 
23   102  647 
24   598  734 
25   715  752 
26   738  873 
27   745  579 
28   595  964 
29   688  829 
30   120  442 
31   183  391 
32   718  644 
33   660  691 
34   159  409 
35   778  548 
36   658  611 
37   721  560 
38   546  946 
39   572  974 
40   607  611 
41   603  986 
42   675  764 
43   733  781 
44   623  790 
45   654  616 
46   722  824 
47   749  905 
48   596  910 
49   61   440 
50   14   328 
51   14   273 
52   638  848 
53   199  474 
54   614  509 
55   704  692 
56   613  910 
57   341  997 
58   707  956 
59   945  846 
60   474  852 
61   574  591 
62   201  593 
63   668  818 
64   398  841 
65   294  503 
66   676  724 
67   753  724 
68   738  806 
69   776  909 
70   639  867 
71   586  949 
72   94   420 
73   518  577 
74   816  810 
75   513  962 
76   708  673 
77   187  477 
78   766  809 
79   817  827 
80   654  830 
81   560  997 
82   741  862 
83   605  675 
84   516  890 
85   6    367 
86   524  958 
87   721  996 
88   748  895 
89   223  353 
90   49   564 
91   759  815 
92   629  483 
93   779  763 
94   736  792 
95   585  907 
96   606  948 
97   775  576 
98   695  824 
99   102  383 
100  890  780 
101  520  841 
102  764  747 
103  725  584 
104  833  837 
105  470  879 
106  579  969 
107  668  861 
108  670  614 
109  395  803 
110  162  482 
111  822  638 
112  501  915 
113  669  706 
114  805  695 
115  616  972 
116  596  902 
117  261  405 
118  620  658 
119  773  510 
120  588  928 
121  565  960 
122  775  745 
123  101  523 
124  679  628 
125  136  410 
126  48   407 
127  575  891 
128  784  830 
129  46   419 
130  729  839 
131  699  615 
132  613  884 
133  533  665 
134  760  564 
135  477  797 
136  672  817 
137  180  373 
138  690  596 
139  293  457 
140  524  811 
141  108  430 
142  280  588 
143  384  889 
144  547  895 
145  112  439 
146  717  650 
147  673  973 
148  253  451 
149  128  429 
150  118  461 
151  654  923 
152  666  888 
153  749  968 
154  651  671 
155  613  925 
156  558  989 
157  516  809 
158  758  815 
159  884  866 
160  859  791 
161  75   566 
162  130  447 
163  475  408 
164  694  650 
165  784  672 
166  479  945 
167  61   585 
168  693  597 
169  176  453 
170  656  587 
171  27   418 
172  426  927 
173  634  593 
174  819  904 
175  677  637 
176  523  969 
177  722  733 
178  512  978 
179  734  817 
180  745  554 
181  771  637 
182  113  433 
183  127  514 
184  279  465 
185  586  655 
186  787  700 
187  867  818 
188  346  384 
189  541  879 
190  643  573 
191  169  943 
192  770  775 
193  739  980 
194  77   515 
195  716  694 
196  582  996 
197  58   630 
198  473  979 
199  153  416 
200  565  943 
201  684  827 
DEMAND_SECTION
1    0   
2    91  
3    77  
4    86  
5    92  
6    55  
7    89  
8    99  
9    94  
10   81  
11   66  
12   83  
13   67  
14   84  
15   65  
16   67  
17   68  
18   82  
19   73  
20   89  
21   50  
22   97  
23   56  
24   82  
25   93  
26   60  
27   90  
28   61  
29   70  
30   80  
31   58  
32   71  
33   87  
34   89  
35   84  
36   80  
37   84  
38   91  
39   92  
40   89  
41   99  
42   83  
43   64  
44   91  
45   80  
46   82  
47   54  
48   89  
49   100 
50   56  
51   94  
52   67  
53   68  
54   57  
55   82  
56   69  
57   50  
58   51  
59   89  
60   62  
61   80  
62   68  
63   65  
64   57  
65   92  
66   89  
67   54  
68   85  
69   89  
70   87  
71   91  
72   84  
73   59  
74   64  
75   52  
76   93  
77   58  
78   71  
79   98  
80   66  
81   59  
82   54  
83   70  
84   75  
85   61  
86   67  
87   66  
88   96  
89   80  
90   51  
91   96  
92   98  
93   51  
94   86  
95   94  
96   72  
97   76  
98   67  
99   62  
100  51  
101  53  
102  94  
103  64  
104  55  
105  94  
106  54  
107  82  
108  67  
109  96  
110  51  
111  62  
112  52  
113  70  
114  93  
115  90  
116  83  
117  97  
118  86  
119  70  
120  93  
121  81  
122  57  
123  78  
124  79  
125  81  
126  87  
127  87  
128  95  
129  57  
130  84  
131  89  
132  55  
133  72  
134  61  
135  58  
136  100 
137  54  
138  55  
139  82  
140  83  
141  83  
142  60  
143  86  
144  54  
145  85  
146  100 
147  52  
148  83  
149  64  
150  77  
151  53  
152  71  
153  54  
154  77  
155  80  
156  73  
157  66  
158  66  
159  66  
160  81  
161  88  
162  50  
163  73  
164  71  
165  82  
166  65  
167  90  
168  88  
169  88  
170  86  
171  76  
172  72  
173  78  
174  63  
175  78  
176  91  
177  81  
178  93  
179  93  
180  97  
181  67  
182  81  
183  52  
184  75  
185  87  
186  51  
187  77  
188  91  
189  60  
190  75  
191  70  
192  87  
193  68  
194  69  
195  53  
196  67  
197  61  
198  58  
199  82  
200  61  
201  85  
DEPOT_SECTION
1
-1
EOF
