NAME : XML200_2154_04
COMMENT : Generated as the XML100 dataset from the CVRPLIB
TYPE : CVRP
DIMENSION : 201
EDGE_WEIGHT_TYPE : EUC_2D
CAPACITY : 1152
NODE_COORD_SECTION
1    500  500 
2    564  17  
3    806  14  
4    646  306 
5    962  325 
6    737  573 
7    164  192 
8    549  638 
9    968  158 
10   169  719 
11   315  709 
12   534  268 
13   929  114 
14   224  698 
15   121  633 
16   724  453 
17   402  466 
18   737  993 
19   193  749 
20   718  223 
21   571  680 
22   736  201 
23   355  46  
24   708  877 
25   964  510 
26   392  3   
27   356  547 
28   658  266 
29   81   562 
30   46   452 
31   711  549 
32   190  243 
33   563  550 
34   204  306 
35   834  784 
36   872  231 
37   908  980 
38   812  680 
39   860  348 
40   408  770 
41   111  654 
42   273  844 
43   307  736 
44   674  511 
45   913  213 
46   104  69  
47   786  990 
48   103  570 
49   205  197 
50   231  691 
51   572  841 
52   852  264 
53   617  455 
54   51   388 
55   554  824 
56   243  235 
57   938  196 
58   404  189 
59   528  450 
60   846  369 
61   85   884 
62   811  103 
63   756  497 
64   981  789 
65   226  188 
66   815  674 
67   188  988 
68   786  583 
69   861  323 
70   266  4   
71   867  785 
72   807  331 
73   305  533 
74   822  42  
75   466  38  
76   241  112 
77   965  109 
78   1000 585 
79   896  64  
80   186  563 
81   928  633 
82   16   741 
83   756  179 
84   82   741 
85   233  92  
86   189  449 
87   162  825 
88   993  927 
89   690  999 
90   4    13  
91   863  271 
92   619  374 
93   417  157 
94   394  820 
95   205  622 
96   603  976 
97   240  954 
98   839  670 
99   876  88  
100  544  789 
101  630  84  
102  491  127 
103  314  528 
104  386  718 
105  189  570 
106  11   765 
107  97   853 
108  390  932 
109  933  341 
110  859  282 
111  521  781 
112  197  293 
113  931  600 
114  506  69  
115  498  925 
116  554  686 
117  301  878 
118  550  23  
119  641  434 
120  664  550 
121  628  955 
122  93   357 
123  874  83  
124  426  875 
125  551  589 
126  400  975 
127  642  554 
128  365  471 
129  667  7   
130  733  37  
131  97   455 
132  270  81  
133  482  101 
134  377  1000
135  875  987 
136  255  648 
137  588  128 
138  536  90  
139  438  95  
140  34   612 
141  549  81  
142  83   367 
143  501  364 
144  127  791 
145  984  103 
146  361  759 
147  769  487 
148  37   690 
149  28   141 
150  410  32  
151  900  607 
152  521  275 
153  925  581 
154  845  982 
155  78   599 
156  317  762 
157  994  260 
158  241  687 
159  176  179 
160  746  487 
161  376  387 
162  632  236 
163  670  766 
164  84   480 
165  736  64  
166  559  398 
167  600  826 
168  332  865 
169  973  50  
170  997  462 
171  547  24  
172  503  838 
173  286  56  
174  9    422 
175  850  708 
176  600  490 
177  886  319 
178  767  893 
179  735  25  
180  761  434 
181  474  350 
182  158  840 
183  505  374 
184  82   335 
185  128  332 
186  142  807 
187  715  229 
188  47   23  
189  661  203 
190  346  411 
191  423  347 
192  587  864 
193  882  772 
194  65   187 
195  536  71  
196  185  823 
197  707  984 
198  320  47  
199  432  700 
200  122  83  
201  702  24  
DEMAND_SECTION
1    0   
2    50  
3    92  
4    71  
5    97  
6    84  
7    52  
8    61  
9    74  
10   93  
11   85  
12   62  
13   100 
14   100 
15   51  
16   97  
17   73  
18   92  
19   78  
20   86  
21   56  
22   56  
23   94  
24   61  
25   95  
26   65  
27   85  
28   80  
29   60  
30   70  
31   71  
32   68  
33   89  
34   88  
35   75  
36   54  
37   54  
38   65  
39   66  
40   61  
41   61  
42   84  
43   61  
44   95  
45   50  
46   90  
47   67  
48   61  
49   81  
50   73  
51   75  
52   95  
53   86  
54   85  
55   69  
56   92  
57   59  
58   60  
59   59  
60   72  
61   63  
62   85  
63   61  
64   73  
65   83  
66   78  
67   85  
68   73  
69   72  
70   85  
71   91  
72   83  
73   94  
74   79  
75   65  
76   70  
77   63  
78   55  
79   64  
80   90  
81   65  
82   83  
83   62  
84   92  
85   80  
86   84  
87   99  
88   88  
89   96  
90   92  
91   83  
92   85  
93   65  
94   76  
95   68  
96   90  
97   52  
98   80  
99   75  
100  56  
101  86  
102  85  
103  88  
104  72  
105  93  
106  64  
107  98  
108  98  
109  81  
110  93  
111  57  
112  76  
113  93  
114  88  
115  76  
116  79  
117  72  
118  81  
119  94  
120  63  
121  61  
122  71  
123  95  
124  87  
125  96  
126  56  
127  62  
128  67  
129  92  
130  51  
131  72  
132  89  
133  65  
134  76  
135  62  
136  56  
137  95  
138  92  
139  83  
140  83  
141  74  
142  77  
143  55  
144  63  
145  62  
146  53  
147  87  
148  92  
149  90  
150  84  
151  72  
152  74  
153  96  
154  66  
155  58  
156  90  
157  94  
158  87  
159  78  
160  63  
161  54  
162  76  
163  52  
164  65  
165  92  
166  97  
167  76  
168  69  
169  88  
170  72  
171  99  
172  80  
173  88  
174  85  
175  73  
176  67  
177  74  
178  59  
179  63  
180  53  
181  73  
182  67  
183  61  
184  69  
185  95  
186  76  
187  57  
188  65  
189  53  
190  60  
191  67  
192  81  
193  94  
194  61  
195  73  
196  99  
197  66  
198  57  
199  84  
200  55  
201  94  
DEPOT_SECTION
1
-1
EOF
