NAME : XML200_1123_06
COMMENT : Generated as the XML100 dataset from the CVRPLIB
TYPE : CVRP
DIMENSION : 201
EDGE_WEIGHT_TYPE : EUC_2D
CAPACITY : 46
NODE_COORD_SECTION
1    79   847 
2    995  804 
3    136  39  
4    997  420 
5    128  35  
6    363  594 
7    879  202 
8    979  716 
9    459  162 
10   737  545 
11   726  63  
12   405  920 
13   630  483 
14   237  161 
15   597  434 
16   701  909 
17   104  864 
18   524  620 
19   192  931 
20   313  321 
21   293  687 
22   789  384 
23   393  875 
24   108  4   
25   180  685 
26   692  689 
27   397  189 
28   46   68  
29   9    684 
30   329  283 
31   541  547 
32   140  749 
33   583  16  
34   890  198 
35   739  703 
36   916  607 
37   912  774 
38   657  331 
39   881  924 
40   732  41  
41   196  647 
42   288  721 
43   464  483 
44   10   831 
45   899  682 
46   772  434 
47   281  962 
48   561  952 
49   579  451 
50   894  771 
51   603  122 
52   944  461 
53   841  179 
54   826  499 
55   926  293 
56   181  224 
57   189  326 
58   682  570 
59   760  572 
60   155  727 
61   626  675 
62   970  155 
63   3    129 
64   836  292 
65   410  321 
66   621  715 
67   902  39  
68   720  182 
69   534  393 
70   762  489 
71   642  582 
72   561  865 
73   552  270 
74   405  709 
75   607  270 
76   619  598 
77   768  288 
78   454  940 
79   391  8   
80   138  185 
81   217  274 
82   873  350 
83   388  357 
84   595  863 
85   291  952 
86   857  872 
87   303  316 
88   1000 756 
89   609  444 
90   69   204 
91   543  334 
92   466  349 
93   948  111 
94   457  703 
95   415  578 
96   140  703 
97   393  438 
98   788  55  
99   591  950 
100  866  20  
101  946  586 
102  46   888 
103  654  158 
104  54   389 
105  431  830 
106  748  504 
107  116  730 
108  87   584 
109  966  973 
110  897  474 
111  197  864 
112  52   873 
113  62   66  
114  815  230 
115  187  637 
116  927  566 
117  664  55  
118  549  733 
119  521  543 
120  765  784 
121  229  899 
122  203  889 
123  704  600 
124  485  660 
125  646  46  
126  289  202 
127  291  602 
128  767  348 
129  73   962 
130  547  500 
131  171  414 
132  378  69  
133  788  187 
134  392  272 
135  975  123 
136  474  869 
137  994  475 
138  356  114 
139  353  161 
140  876  995 
141  748  126 
142  779  452 
143  211  696 
144  853  483 
145  107  550 
146  847  925 
147  120  514 
148  756  999 
149  192  420 
150  801  549 
151  468  895 
152  982  396 
153  72   366 
154  974  28  
155  391  46  
156  0    762 
157  738  691 
158  992  717 
159  913  518 
160  926  244 
161  521  668 
162  505  208 
163  583  600 
164  844  577 
165  428  705 
166  864  961 
167  608  855 
168  718  71  
169  667  514 
170  853  277 
171  509  678 
172  989  202 
173  873  564 
174  15   920 
175  957  752 
176  592  413 
177  496  134 
178  306  809 
179  780  393 
180  174  519 
181  254  27  
182  734  161 
183  753  174 
184  682  614 
185  737  614 
186  273  406 
187  66   266 
188  464  776 
189  57   272 
190  123  937 
191  338  334 
192  962  161 
193  202  656 
194  460  790 
195  551  243 
196  318  642 
197  688  141 
198  823  677 
199  572  21  
200  649  76  
201  192  737 
DEMAND_SECTION
1    0   
2    7   
3    1   
4    5   
5    4   
6    10  
7    7   
8    7   
9    10  
10   5   
11   2   
12   5   
13   4   
14   8   
15   3   
16   3   
17   2   
18   9   
19   3   
20   6   
21   6   
22   9   
23   10  
24   3   
25   1   
26   6   
27   6   
28   7   
29   1   
30   4   
31   10  
32   6   
33   6   
34   8   
35   9   
36   7   
37   1   
38   8   
39   3   
40   5   
41   9   
42   5   
43   3   
44   9   
45   2   
46   8   
47   6   
48   9   
49   5   
50   8   
51   5   
52   8   
53   2   
54   8   
55   9   
56   10  
57   5   
58   8   
59   3   
60   10  
61   3   
62   10  
63   8   
64   2   
65   6   
66   1   
67   2   
68   5   
69   4   
70   3   
71   10  
72   8   
73   8   
74   5   
75   6   
76   4   
77   10  
78   5   
79   9   
80   10  
81   5   
82   10  
83   1   
84   8   
85   10  
86   1   
87   2   
88   5   
89   2   
90   2   
91   6   
92   8   
93   3   
94   10  
95   7   
96   9   
97   7   
98   4   
99   8   
100  5   
101  5   
102  2   
103  2   
104  4   
105  10  
106  3   
107  5   
108  10  
109  1   
110  9   
111  6   
112  1   
113  3   
114  7   
115  3   
116  4   
117  3   
118  6   
119  6   
120  9   
121  9   
122  6   
123  5   
124  9   
125  6   
126  1   
127  9   
128  5   
129  7   
130  10  
131  9   
132  3   
133  10  
134  6   
135  1   
136  7   
137  7   
138  2   
139  9   
140  3   
141  1   
142  4   
143  5   
144  1   
145  5   
146  10  
147  4   
148  10  
149  10  
150  10  
151  3   
152  2   
153  2   
154  3   
155  7   
156  6   
157  2   
158  7   
159  5   
160  9   
161  4   
162  2   
163  8   
164  8   
165  8   
166  7   
167  2   
168  4   
169  2   
170  6   
171  3   
172  7   
173  5   
174  2   
175  3   
176  1   
177  9   
178  1   
179  2   
180  5   
181  9   
182  3   
183  2   
184  5   
185  2   
186  9   
187  8   
188  5   
189  6   
190  1   
191  8   
192  3   
193  9   
194  10  
195  6   
196  1   
197  9   
198  9   
199  4   
200  9   
201  1   
DEPOT_SECTION
1
-1
EOF
