NAME : XML400_1355_15
COMMENT : Generated as the XML100 dataset from the CVRPLIB
TYPE : CVRP
DIMENSION : 401
EDGE_WEIGHT_TYPE : EUC_2D
CAPACITY : 1468
NODE_COORD_SECTION
1    747  227 
2    545  357 
3    179  245 
4    447  810 
5    652  852 
6    447  828 
7    431  874 
8    870  665 
9    474  665 
10   743  588 
11   486  904 
12   335  753 
13   788  568 
14   620  337 
15   579  714 
16   795  625 
17   563  724 
18   111  496 
19   338  395 
20   418  662 
21   340  822 
22   542  539 
23   86   170 
24   956  35  
25   149  235 
26   195  351 
27   892  279 
28   196  405 
29   531  166 
30   798  92  
31   792  588 
32   909  206 
33   806  608 
34   924  752 
35   37   542 
36   582  67  
37   771  677 
38   329  808 
39   345  258 
40   503  844 
41   716  561 
42   257  294 
43   374  559 
44   119  180 
45   473  928 
46   525  993 
47   477  827 
48   446  858 
49   119  463 
50   435  928 
51   251  219 
52   440  634 
53   683  123 
54   728  539 
55   225  611 
56   888  775 
57   609  695 
58   736  659 
59   84   501 
60   801  645 
61   793  641 
62   61   853 
63   138  584 
64   605  455 
65   945  136 
66   880  403 
67   633  544 
68   493  3   
69   928  550 
70   268  531 
71   962  45  
72   335  877 
73   590  420 
74   359  942 
75   443  923 
76   410  898 
77   190  68  
78   267  706 
79   485  776 
80   78   946 
81   433  100 
82   525  839 
83   85   396 
84   294  170 
85   113  522 
86   826  278 
87   355  949 
88   366  698 
89   226  157 
90   27   832 
91   504  766 
92   165  406 
93   512  779 
94   611  901 
95   181  234 
96   109  502 
97   682  763 
98   776  816 
99   159  103 
100  671  116 
101  992  40  
102  472  837 
103  281  464 
104  139  371 
105  159  624 
106  873  632 
107  123  939 
108  524  856 
109  69   303 
110  951  35  
111  361  996 
112  674  660 
113  245  394 
114  200  261 
115  412  678 
116  843  721 
117  86   513 
118  231  342 
119  401  799 
120  424  773 
121  40   509 
122  393  386 
123  605  943 
124  935  440 
125  419  914 
126  271  271 
127  451  894 
128  905  826 
129  180  260 
130  450  776 
131  626  629 
132  987  342 
133  481  610 
134  426  540 
135  495  383 
136  192  382 
137  582  140 
138  409  734 
139  319  184 
140  45   448 
141  167  721 
142  156  306 
143  181  628 
144  447  864 
145  502  781 
146  428  841 
147  378  355 
148  803  629 
149  729  963 
150  338  175 
151  594  918 
152  73   240 
153  889  445 
154  370  639 
155  816  469 
156  390  962 
157  909  395 
158  434  22  
159  821  538 
160  769  357 
161  240  165 
162  522  238 
163  131  505 
164  879  893 
165  136  867 
166  383  824 
167  30   291 
168  232  255 
169  166  984 
170  957  412 
171  595  752 
172  861  624 
173  915  34  
174  328  655 
175  672  792 
176  445  920 
177  126  538 
178  484  759 
179  441  788 
180  178  585 
181  384  690 
182  141  523 
183  783  515 
184  841  358 
185  105  457 
186  51   211 
187  280  327 
188  593  787 
189  149  899 
190  766  220 
191  762  168 
192  481  734 
193  0    385 
194  861  304 
195  541  888 
196  724  860 
197  225  624 
198  889  524 
199  668  803 
200  88   228 
201  95   514 
202  526  490 
203  477  588 
204  770  23  
205  312  893 
206  363  697 
207  420  831 
208  240  882 
209  41   682 
210  750  575 
211  928  96  
212  927  402 
213  54   90  
214  163  244 
215  88   497 
216  636  585 
217  782  401 
218  339  240 
219  348  972 
220  204  708 
221  852  582 
222  744  554 
223  634  539 
224  482  801 
225  897  751 
226  7    517 
227  510  747 
228  418  911 
229  186  259 
230  865  575 
231  742  495 
232  248  350 
233  628  711 
234  76   881 
235  505  924 
236  620  734 
237  372  13  
238  469  821 
239  361  888 
240  47   966 
241  438  717 
242  425  936 
243  890  716 
244  312  977 
245  867  494 
246  240  234 
247  430  978 
248  755  527 
249  996  891 
250  411  866 
251  405  917 
252  425  895 
253  667  270 
254  723  845 
255  56   125 
256  474  787 
257  130  196 
258  117  653 
259  41   505 
260  548  174 
261  451  925 
262  598  440 
263  200  269 
264  741  596 
265  228  205 
266  579  301 
267  736  117 
268  490  879 
269  248  946 
270  788  667 
271  175  342 
272  375  516 
273  597  965 
274  747  662 
275  967  427 
276  422  713 
277  192  269 
278  625  645 
279  195  194 
280  243  188 
281  594  949 
282  630  643 
283  217  572 
284  135  255 
285  461  950 
286  303  342 
287  285  455 
288  765  952 
289  750  900 
290  507  904 
291  442  784 
292  416  884 
293  427  804 
294  801  902 
295  302  800 
296  371  769 
297  509  730 
298  283  149 
299  784  669 
300  284  221 
301  512  893 
302  58   305 
303  897  564 
304  814  557 
305  944  923 
306  56   622 
307  63   518 
308  15   837 
309  238  110 
310  691  315 
311  109  472 
312  72   315 
313  913  275 
314  586  545 
315  130  540 
316  431  769 
317  489  649 
318  942  854 
319  566  832 
320  101  494 
321  582  956 
322  595  886 
323  539  833 
324  280  75  
325  408  916 
326  518  648 
327  373  958 
328  741  814 
329  212  470 
330  161  257 
331  177  372 
332  162  231 
333  862  66  
334  518  778 
335  102  207 
336  736  344 
337  434  546 
338  640  376 
339  542  335 
340  17   617 
341  754  748 
342  667  887 
343  282  798 
344  555  795 
345  827  598 
346  768  283 
347  163  289 
348  827  607 
349  867  643 
350  334  854 
351  358  784 
352  151  314 
353  45   827 
354  366  635 
355  820  823 
356  521  792 
357  887  86  
358  541  770 
359  641  946 
360  144  576 
361  118  249 
362  996  258 
363  761  791 
364  718  12  
365  476  924 
366  411  934 
367  530  77  
368  478  942 
369  601  793 
370  816  592 
371  919  47  
372  125  275 
373  44   439 
374  655  513 
375  527  745 
376  877  68  
377  127  473 
378  191  247 
379  861  617 
380  604  812 
381  460  795 
382  159  965 
383  762  184 
384  423  498 
385  417  424 
386  143  611 
387  264  65  
388  506  761 
389  675  975 
390  632  766 
391  121  318 
392  523  688 
393  406  679 
394  62   488 
395  112  983 
396  721  53  
397  428  325 
398  24   470 
399  22   51  
400  580  724 
401  239  156 
DEMAND_SECTION
1    0   
2    98  
3    67  
4    83  
5    68  
6    73  
7    73  
8    54  
9    73  
10   85  
11   62  
12   53  
13   53  
14   82  
15   97  
16   96  
17   55  
18   93  
19   73  
20   81  
21   64  
22   70  
23   63  
24   82  
25   56  
26   90  
27   60  
28   66  
29   50  
30   91  
31   79  
32   58  
33   99  
34   93  
35   66  
36   85  
37   97  
38   50  
39   98  
40   71  
41   74  
42   78  
43   80  
44   67  
45   97  
46   96  
47   62  
48   64  
49   84  
50   76  
51   60  
52   54  
53   58  
54   61  
55   70  
56   58  
57   100 
58   99  
59   58  
60   93  
61   86  
62   72  
63   100 
64   56  
65   93  
66   64  
67   52  
68   83  
69   76  
70   58  
71   55  
72   98  
73   68  
74   64  
75   88  
76   73  
77   84  
78   55  
79   86  
80   96  
81   76  
82   69  
83   99  
84   79  
85   93  
86   97  
87   88  
88   50  
89   73  
90   89  
91   78  
92   61  
93   61  
94   84  
95   58  
96   65  
97   91  
98   99  
99   55  
100  95  
101  71  
102  88  
103  72  
104  78  
105  50  
106  97  
107  67  
108  91  
109  64  
110  57  
111  50  
112  55  
113  85  
114  87  
115  50  
116  85  
117  71  
118  92  
119  64  
120  72  
121  76  
122  87  
123  89  
124  100 
125  74  
126  50  
127  89  
128  84  
129  59  
130  54  
131  63  
132  76  
133  88  
134  52  
135  84  
136  58  
137  65  
138  72  
139  73  
140  78  
141  52  
142  87  
143  68  
144  92  
145  80  
146  85  
147  76  
148  58  
149  78  
150  95  
151  97  
152  78  
153  59  
154  66  
155  64  
156  52  
157  63  
158  78  
159  100 
160  98  
161  75  
162  96  
163  79  
164  72  
165  76  
166  67  
167  64  
168  68  
169  92  
170  93  
171  89  
172  56  
173  70  
174  56  
175  83  
176  83  
177  89  
178  89  
179  51  
180  93  
181  87  
182  86  
183  66  
184  78  
185  72  
186  78  
187  50  
188  71  
189  73  
190  77  
191  77  
192  96  
193  78  
194  78  
195  80  
196  65  
197  69  
198  56  
199  71  
200  54  
201  93  
202  78  
203  75  
204  58  
205  52  
206  77  
207  63  
208  65  
209  53  
210  59  
211  89  
212  55  
213  77  
214  94  
215  53  
216  65  
217  62  
218  52  
219  94  
220  77  
221  96  
222  69  
223  58  
224  54  
225  89  
226  65  
227  57  
228  98  
229  94  
230  68  
231  64  
232  64  
233  96  
234  56  
235  55  
236  77  
237  87  
238  80  
239  97  
240  69  
241  77  
242  79  
243  89  
244  97  
245  56  
246  96  
247  50  
248  88  
249  90  
250  52  
251  95  
252  55  
253  100 
254  95  
255  54  
256  98  
257  53  
258  65  
259  98  
260  91  
261  87  
262  75  
263  72  
264  71  
265  67  
266  60  
267  67  
268  73  
269  50  
270  75  
271  63  
272  64  
273  99  
274  91  
275  79  
276  86  
277  70  
278  64  
279  98  
280  70  
281  71  
282  65  
283  64  
284  91  
285  61  
286  50  
287  54  
288  81  
289  66  
290  52  
291  81  
292  56  
293  70  
294  63  
295  69  
296  75  
297  100 
298  55  
299  95  
300  50  
301  58  
302  69  
303  59  
304  84  
305  50  
306  82  
307  60  
308  99  
309  75  
310  81  
311  58  
312  96  
313  71  
314  59  
315  63  
316  91  
317  50  
318  61  
319  69  
320  52  
321  96  
322  81  
323  85  
324  65  
325  78  
326  57  
327  61  
328  83  
329  79  
330  100 
331  73  
332  78  
333  74  
334  93  
335  52  
336  74  
337  59  
338  94  
339  78  
340  99  
341  95  
342  68  
343  87  
344  56  
345  95  
346  84  
347  72  
348  94  
349  61  
350  56  
351  73  
352  97  
353  77  
354  63  
355  82  
356  57  
357  70  
358  72  
359  76  
360  56  
361  84  
362  87  
363  81  
364  73  
365  97  
366  80  
367  80  
368  87  
369  92  
370  94  
371  97  
372  53  
373  75  
374  50  
375  97  
376  80  
377  70  
378  98  
379  89  
380  65  
381  52  
382  57  
383  60  
384  98  
385  91  
386  75  
387  98  
388  74  
389  82  
390  60  
391  98  
392  70  
393  94  
394  57  
395  60  
396  92  
397  52  
398  85  
399  54  
400  89  
401  91  
DEPOT_SECTION
1
-1
EOF
