NAME : XML400_2311_21
COMMENT : Generated as the XML100 dataset from the CVRPLIB
TYPE : CVRP
DIMENSION : 401
EDGE_WEIGHT_TYPE : EUC_2D
CAPACITY : 4
NODE_COORD_SECTION
1    500  500 
2    643  264 
3    735  338 
4    640  576 
5    992  497 
6    89   342 
7    65   134 
8    770  304 
9    661  397 
10   910  464 
11   552  728 
12   526  447 
13   841  193 
14   795  324 
15   792  337 
16   857  326 
17   612  644 
18   761  596 
19   970  599 
20   495  751 
21   543  904 
22   635  520 
23   895  321 
24   727  603 
25   700  240 
26   888  129 
27   839  691 
28   445  633 
29   130  478 
30   210  83  
31   148  10  
32   371  522 
33   562  647 
34   567  335 
35   758  302 
36   372  523 
37   599  565 
38   216  922 
39   1000 491 
40   975  425 
41   667  565 
42   72   895 
43   874  369 
44   790  375 
45   136  287 
46   299  412 
47   747  688 
48   738  319 
49   752  403 
50   838  406 
51   820  510 
52   384  730 
53   23   193 
54   690  409 
55   813  507 
56   529  986 
57   223  147 
58   672  486 
59   768  621 
60   214  336 
61   915  411 
62   659  296 
63   872  925 
64   748  490 
65   654  473 
66   204  929 
67   308  757 
68   686  114 
69   635  316 
70   434  573 
71   269  100 
72   657  245 
73   834  399 
74   609  61  
75   774  357 
76   873  754 
77   829  729 
78   511  401 
79   305  818 
80   823  426 
81   553  565 
82   944  396 
83   240  581 
84   772  451 
85   703  342 
86   225  300 
87   713  383 
88   136  371 
89   408  183 
90   750  539 
91   724  410 
92   609  420 
93   863  327 
94   653  853 
95   655  545 
96   564  534 
97   422  441 
98   505  466 
99   655  572 
100  538  414 
101  847  184 
102  691  363 
103  822  267 
104  902  156 
105  807  403 
106  805  470 
107  666  275 
108  660  906 
109  630  627 
110  736  617 
111  628  19  
112  608  989 
113  708  411 
114  929  150 
115  804  366 
116  395  454 
117  698  74  
118  103  166 
119  378  886 
120  638  455 
121  257  516 
122  181  786 
123  920  442 
124  326  732 
125  861  383 
126  759  363 
127  616  543 
128  954  282 
129  668  352 
130  261  86  
131  543  586 
132  352  878 
133  707  181 
134  815  370 
135  723  827 
136  842  262 
137  985  427 
138  318  598 
139  991  61  
140  504  477 
141  574  950 
142  79   361 
143  798  304 
144  736  710 
145  854  473 
146  655  660 
147  688  419 
148  318  328 
149  656  494 
150  567  556 
151  102  209 
152  478  716 
153  781  336 
154  763  449 
155  631  150 
156  37   592 
157  6    88  
158  833  391 
159  760  416 
160  893  689 
161  704  255 
162  443  71  
163  845  868 
164  816  325 
165  801  53  
166  629  206 
167  794  450 
168  779  550 
169  114  416 
170  948  108 
171  890  512 
172  689  113 
173  933  473 
174  1000 374 
175  651  513 
176  436  835 
177  231  75  
178  785  598 
179  932  616 
180  251  929 
181  656  569 
182  317  474 
183  815  314 
184  589  524 
185  203  708 
186  273  49  
187  938  421 
188  406  578 
189  991  423 
190  85   608 
191  747  337 
192  110  530 
193  336  455 
194  987  425 
195  129  656 
196  644  607 
197  744  267 
198  406  546 
199  602  467 
200  904  512 
201  599  541 
202  581  691 
203  775  138 
204  694  540 
205  819  846 
206  913  346 
207  536  795 
208  322  552 
209  560  591 
210  241  69  
211  858  693 
212  764  348 
213  510  123 
214  500  567 
215  740  310 
216  816  278 
217  682  723 
218  4    89  
219  800  715 
220  694  706 
221  749  880 
222  753  365 
223  507  471 
224  733  554 
225  150  984 
226  546  566 
227  544  456 
228  213  384 
229  639  492 
230  634  624 
231  846  287 
232  542  815 
233  276  427 
234  566  507 
235  850  513 
236  568  553 
237  392  238 
238  198  861 
239  581  519 
240  723  621 
241  767  389 
242  248  983 
243  459  529 
244  704  180 
245  574  744 
246  520  633 
247  532  598 
248  987  266 
249  251  594 
250  235  640 
251  801  234 
252  956  544 
253  605  597 
254  494  342 
255  740  385 
256  425  1   
257  933  807 
258  500  678 
259  842  289 
260  507  546 
261  515  559 
262  267  592 
263  274  698 
264  709  528 
265  621  424 
266  831  670 
267  804  298 
268  169  681 
269  794  379 
270  955  961 
271  837  560 
272  702  134 
273  838  394 
274  100  703 
275  788  164 
276  982  542 
277  748  375 
278  510  961 
279  843  603 
280  990  402 
281  40   117 
282  320  162 
283  805  338 
284  670  540 
285  770  389 
286  800  497 
287  999  477 
288  364  204 
289  900  602 
290  980  491 
291  818  569 
292  55   775 
293  673  339 
294  674  393 
295  727  423 
296  576  510 
297  940  387 
298  903  639 
299  999  445 
300  490  348 
301  774  345 
302  962  325 
303  991  379 
304  1000 446 
305  857  388 
306  418  185 
307  602  549 
308  757  404 
309  647  947 
310  823  773 
311  466  615 
312  785  252 
313  858  474 
314  19   322 
315  290  309 
316  201  308 
317  261  511 
318  857  365 
319  815  786 
320  826  405 
321  251  430 
322  934  334 
323  624  437 
324  679  233 
325  778  751 
326  745  574 
327  389  0   
328  948  381 
329  350  435 
330  553  507 
331  141  590 
332  606  617 
333  688  579 
334  447  462 
335  502  559 
336  762  208 
337  899  622 
338  582  686 
339  821  303 
340  910  628 
341  817  827 
342  636  388 
343  762  473 
344  458  485 
345  845  516 
346  84   442 
347  403  567 
348  911  327 
349  41   489 
350  996  425 
351  469  759 
352  35   0   
353  891  88  
354  582  672 
355  737  313 
356  789  351 
357  651  637 
358  983  472 
359  688  286 
360  562  546 
361  711  31  
362  438  776 
363  667  455 
364  862  712 
365  494  783 
366  781  486 
367  666  1   
368  838  849 
369  733  329 
370  390  591 
371  943  404 
372  536  803 
373  735  622 
374  801  329 
375  786  429 
376  902  897 
377  927  554 
378  759  341 
379  387  33  
380  546  871 
381  286  893 
382  872  456 
383  630  941 
384  562  577 
385  20   532 
386  565  829 
387  817  376 
388  569  463 
389  543  420 
390  361  919 
391  885  547 
392  734  396 
393  329  994 
394  602  1000
395  801  315 
396  692  646 
397  725  832 
398  695  553 
399  705  310 
400  715  503 
401  687  670 
DEMAND_SECTION
1    0   
2    1   
3    1   
4    1   
5    1   
6    1   
7    1   
8    1   
9    1   
10   1   
11   1   
12   1   
13   1   
14   1   
15   1   
16   1   
17   1   
18   1   
19   1   
20   1   
21   1   
22   1   
23   1   
24   1   
25   1   
26   1   
27   1   
28   1   
29   1   
30   1   
31   1   
32   1   
33   1   
34   1   
35   1   
36   1   
37   1   
38   1   
39   1   
40   1   
41   1   
42   1   
43   1   
44   1   
45   1   
46   1   
47   1   
48   1   
49   1   
50   1   
51   1   
52   1   
53   1   
54   1   
55   1   
56   1   
57   1   
58   1   
59   1   
60   1   
61   1   
62   1   
63   1   
64   1   
65   1   
66   1   
67   1   
68   1   
69   1   
70   1   
71   1   
72   1   
73   1   
74   1   
75   1   
76   1   
77   1   
78   1   
79   1   
80   1   
81   1   
82   1   
83   1   
84   1   
85   1   
86   1   
87   1   
88   1   
89   1   
90   1   
91   1   
92   1   
93   1   
94   1   
95   1   
96   1   
97   1   
98   1   
99   1   
100  1   
101  1   
102  1   
103  1   
104  1   
105  1   
106  1   
107  1   
108  1   
109  1   
110  1   
111  1   
112  1   
113  1   
114  1   
115  1   
116  1   
117  1   
118  1   
119  1   
120  1   
121  1   
122  1   
123  1   
124  1   
125  1   
126  1   
127  1   
128  1   
129  1   
130  1   
131  1   
132  1   
133  1   
134  1   
135  1   
136  1   
137  1   
138  1   
139  1   
140  1   
141  1   
142  1   
143  1   
144  1   
145  1   
146  1   
147  1   
148  1   
149  1   
150  1   
151  1   
152  1   
153  1   
154  1   
155  1   
156  1   
157  1   
158  1   
159  1   
160  1   
161  1   
162  1   
163  1   
164  1   
165  1   
166  1   
167  1   
168  1   
169  1   
170  1   
171  1   
172  1   
173  1   
174  1   
175  1   
176  1   
177  1   
178  1   
179  1   
180  1   
181  1   
182  1   
183  1   
184  1   
185  1   
186  1   
187  1   
188  1   
189  1   
190  1   
191  1   
192  1   
193  1   
194  1   
195  1   
196  1   
197  1   
198  1   
199  1   
200  1   
201  1   
202  1   
203  1   
204  1   
205  1   
206  1   
207  1   
208  1   
209  1   
210  1   
211  1   
212  1   
213  1   
214  1   
215  1   
216  1   
217  1   
218  1   
219  1   
220  1   
221  1   
222  1   
223  1   
224  1   
225  1   
226  1   
227  1   
228  1   
229  1   
230  1   
231  1   
232  1   
233  1   
234  1   
235  1   
236  1   
237  1   
238  1   
239  1   
240  1   
241  1   
242  1   
243  1   
244  1   
245  1   
246  1   
247  1   
248  1   
249  1   
250  1   
251  1   
252  1   
253  1   
254  1   
255  1   
256  1   
257  1   
258  1   
259  1   
260  1   
261  1   
262  1   
263  1   
264  1   
265  1   
266  1   
267  1   
268  1   
269  1   
270  1   
271  1   
272  1   
273  1   
274  1   
275  1   
276  1   
277  1   
278  1   
279  1   
280  1   
281  1   
282  1   
283  1   
284  1   
285  1   
286  1   
287  1   
288  1   
289  1   
290  1   
291  1   
292  1   
293  1   
294  1   
295  1   
296  1   
297  1   
298  1   
299  1   
300  1   
301  1   
302  1   
303  1   
304  1   
305  1   
306  1   
307  1   
308  1   
309  1   
310  1   
311  1   
312  1   
313  1   
314  1   
315  1   
316  1   
317  1   
318  1   
319  1   
320  1   
321  1   
322  1   
323  1   
324  1   
325  1   
326  1   
327  1   
328  1   
329  1   
330  1   
331  1   
332  1   
333  1   
334  1   
335  1   
336  1   
337  1   
338  1   
339  1   
340  1   
341  1   
342  1   
343  1   
344  1   
345  1   
346  1   
347  1   
348  1   
349  1   
350  1   
351  1   
352  1   
353  1   
354  1   
355  1   
356  1   
357  1   
358  1   
359  1   
360  1   
361  1   
362  1   
363  1   
364  1   
365  1   
366  1   
367  1   
368  1   
369  1   
370  1   
371  1   
372  1   
373  1   
374  1   
375  1   
376  1   
377  1   
378  1   
379  1   
380  1   
381  1   
382  1   
383  1   
384  1   
385  1   
386  1   
387  1   
388  1   
389  1   
390  1   
391  1   
392  1   
393  1   
394  1   
395  1   
396  1   
397  1   
398  1   
399  1   
400  1   
401  1   
DEPOT_SECTION
1
-1
EOF
