NAME : XML400_1163_23
COMMENT : Generated as the XML100 dataset from the CVRPLIB
TYPE : CVRP
DIMENSION : 401
EDGE_WEIGHT_TYPE : EUC_2D
CAPACITY : 424
NODE_COORD_SECTION
1    944  446 
2    557  75  
3    170  569 
4    484  994 
5    214  486 
6    304  160 
7    958  495 
8    739  991 
9    571  104 
10   147  423 
11   332  325 
12   393  192 
13   969  397 
14   508  578 
15   846  317 
16   402  667 
17   344  317 
18   928  197 
19   861  445 
20   830  58  
21   169  739 
22   360  41  
23   990  294 
24   377  359 
25   785  599 
26   738  338 
27   590  988 
28   677  764 
29   304  402 
30   274  639 
31   963  47  
32   652  838 
33   991  932 
34   921  706 
35   455  818 
36   823  985 
37   736  651 
38   343  195 
39   445  880 
40   510  866 
41   630  791 
42   761  618 
43   252  988 
44   235  926 
45   677  323 
46   321  41  
47   793  525 
48   420  828 
49   451  416 
50   991  927 
51   434  354 
52   709  949 
53   163  394 
54   907  784 
55   793  799 
56   116  947 
57   851  660 
58   170  280 
59   194  237 
60   877  416 
61   917  452 
62   299  915 
63   671  158 
64   734  443 
65   881  651 
66   430  68  
67   253  26  
68   621  431 
69   323  737 
70   771  128 
71   358  57  
72   394  379 
73   418  346 
74   357  995 
75   9    187 
76   302  314 
77   70   35  
78   436  241 
79   917  47  
80   419  188 
81   51   179 
82   510  730 
83   473  653 
84   134  150 
85   766  408 
86   228  77  
87   456  349 
88   684  64  
89   521  860 
90   107  326 
91   200  810 
92   639  34  
93   524  205 
94   640  398 
95   61   978 
96   172  400 
97   445  168 
98   471  742 
99   200  913 
100  434  451 
101  808  750 
102  564  664 
103  563  955 
104  492  248 
105  980  996 
106  621  160 
107  264  807 
108  517  835 
109  485  901 
110  912  452 
111  952  125 
112  146  150 
113  55   13  
114  307  85  
115  74   121 
116  845  663 
117  988  721 
118  651  389 
119  149  807 
120  355  674 
121  493  626 
122  735  379 
123  895  520 
124  794  47  
125  130  821 
126  101  757 
127  750  785 
128  944  260 
129  616  278 
130  736  850 
131  109  874 
132  10   248 
133  433  687 
134  951  960 
135  978  410 
136  488  632 
137  704  674 
138  90   622 
139  918  463 
140  732  116 
141  422  970 
142  408  379 
143  373  421 
144  786  172 
145  526  636 
146  281  54  
147  718  815 
148  673  398 
149  534  249 
150  496  231 
151  977  284 
152  168  127 
153  809  169 
154  7    731 
155  182  583 
156  367  229 
157  805  958 
158  875  119 
159  205  432 
160  103  48  
161  335  34  
162  894  901 
163  86   471 
164  102  168 
165  509  34  
166  137  818 
167  772  246 
168  4    554 
169  827  191 
170  26   941 
171  667  489 
172  353  442 
173  736  579 
174  494  646 
175  457  773 
176  113  591 
177  365  528 
178  345  568 
179  450  999 
180  235  418 
181  831  71  
182  805  836 
183  813  269 
184  407  911 
185  271  242 
186  90   566 
187  106  910 
188  827  725 
189  895  176 
190  627  380 
191  197  957 
192  297  901 
193  253  309 
194  950  813 
195  46   919 
196  437  822 
197  636  860 
198  528  769 
199  641  835 
200  727  359 
201  708  327 
202  213  641 
203  23   4   
204  895  162 
205  818  235 
206  695  820 
207  642  921 
208  519  423 
209  971  184 
210  865  953 
211  392  513 
212  171  374 
213  71   952 
214  718  543 
215  792  748 
216  347  227 
217  11   766 
218  178  534 
219  605  122 
220  506  717 
221  928  626 
222  60   142 
223  32   336 
224  300  96  
225  58   492 
226  195  717 
227  942  902 
228  583  475 
229  82   947 
230  422  378 
231  673  350 
232  571  339 
233  717  402 
234  106  922 
235  21   555 
236  853  173 
237  743  149 
238  558  750 
239  355  454 
240  987  136 
241  627  86  
242  523  28  
243  738  856 
244  65   620 
245  348  423 
246  389  43  
247  642  223 
248  411  466 
249  542  666 
250  991  632 
251  398  792 
252  988  743 
253  278  229 
254  668  918 
255  124  256 
256  781  813 
257  593  753 
258  103  898 
259  121  129 
260  281  328 
261  116  953 
262  953  915 
263  88   729 
264  8    620 
265  564  182 
266  590  710 
267  215  504 
268  836  195 
269  145  216 
270  934  376 
271  150  151 
272  324  950 
273  729  370 
274  530  646 
275  228  1000
276  947  687 
277  999  886 
278  595  793 
279  911  621 
280  333  882 
281  73   586 
282  875  429 
283  321  181 
284  888  219 
285  67   521 
286  671  806 
287  755  876 
288  922  662 
289  716  139 
290  956  902 
291  498  981 
292  538  636 
293  366  291 
294  448  342 
295  858  753 
296  904  55  
297  936  282 
298  430  410 
299  604  217 
300  360  494 
301  420  118 
302  914  361 
303  938  71  
304  467  77  
305  124  659 
306  47   128 
307  14   207 
308  523  740 
309  176  553 
310  481  496 
311  872  18  
312  433  56  
313  525  795 
314  798  334 
315  602  288 
316  928  919 
317  503  556 
318  438  18  
319  787  562 
320  608  438 
321  125  52  
322  330  332 
323  877  986 
324  822  394 
325  212  214 
326  885  688 
327  266  432 
328  710  845 
329  271  785 
330  581  215 
331  359  996 
332  318  488 
333  958  412 
334  264  242 
335  154  874 
336  732  356 
337  599  330 
338  265  979 
339  5    256 
340  21   893 
341  424  96  
342  239  944 
343  205  839 
344  842  367 
345  987  465 
346  98   196 
347  773  133 
348  290  375 
349  679  852 
350  699  830 
351  262  411 
352  934  980 
353  345  198 
354  515  511 
355  184  775 
356  814  762 
357  526  633 
358  722  279 
359  398  465 
360  300  177 
361  395  814 
362  889  541 
363  481  319 
364  421  552 
365  930  420 
366  695  199 
367  306  485 
368  53   543 
369  4    538 
370  50   416 
371  934  72  
372  74   364 
373  151  547 
374  970  888 
375  693  220 
376  864  367 
377  769  880 
378  851  177 
379  638  42  
380  696  639 
381  21   92  
382  757  240 
383  733  279 
384  319  908 
385  820  445 
386  974  741 
387  408  348 
388  508  871 
389  204  51  
390  459  448 
391  61   11  
392  764  248 
393  11   657 
394  912  411 
395  841  616 
396  989  469 
397  99   891 
398  744  27  
399  814  873 
400  336  327 
401  358  522 
DEMAND_SECTION
1    0   
2    26  
3    4   
4    33  
5    91  
6    84  
7    48  
8    77  
9    10  
10   51  
11   89  
12   67  
13   41  
14   52  
15   9   
16   18  
17   78  
18   44  
19   47  
20   34  
21   20  
22   87  
23   46  
24   91  
25   78  
26   30  
27   51  
28   96  
29   95  
30   20  
31   41  
32   52  
33   69  
34   95  
35   30  
36   55  
37   52  
38   65  
39   20  
40   93  
41   88  
42   53  
43   5   
44   24  
45   48  
46   98  
47   81  
48   22  
49   79  
50   89  
51   80  
52   94  
53   61  
54   83  
55   81  
56   37  
57   54  
58   95  
59   88  
60   50  
61   2   
62   1   
63   30  
64   50  
65   70  
66   74  
67   75  
68   36  
69   35  
70   2   
71   79  
72   59  
73   86  
74   38  
75   77  
76   67  
77   58  
78   57  
79   20  
80   81  
81   99  
82   62  
83   45  
84   86  
85   6   
86   65  
87   89  
88   25  
89   93  
90   85  
91   28  
92   30  
93   29  
94   8   
95   14  
96   73  
97   90  
98   31  
99   18  
100  73  
101  92  
102  51  
103  67  
104  98  
105  94  
106  37  
107  44  
108  74  
109  21  
110  49  
111  2   
112  95  
113  54  
114  63  
115  91  
116  61  
117  90  
118  50  
119  9   
120  5   
121  12  
122  1   
123  61  
124  29  
125  17  
126  40  
127  74  
128  24  
129  25  
130  72  
131  9   
132  58  
133  21  
134  70  
135  39  
136  4   
137  80  
138  41  
139  3   
140  6   
141  44  
142  57  
143  90  
144  15  
145  54  
146  76  
147  98  
148  40  
149  9   
150  59  
151  30  
152  95  
153  11  
154  33  
155  18  
156  92  
157  64  
158  17  
159  74  
160  63  
161  85  
162  61  
163  79  
164  84  
165  38  
166  1   
167  43  
168  17  
169  45  
170  4   
171  4   
172  64  
173  75  
174  20  
175  15  
176  12  
177  23  
178  8   
179  31  
180  77  
181  9   
182  93  
183  4   
184  14  
185  76  
186  47  
187  49  
188  91  
189  35  
190  30  
191  24  
192  25  
193  84  
194  73  
195  8   
196  25  
197  100 
198  60  
199  81  
200  5   
201  18  
202  15  
203  83  
204  24  
205  50  
206  67  
207  99  
208  40  
209  19  
210  72  
211  11  
212  77  
213  7   
214  89  
215  57  
216  67  
217  2   
218  9   
219  25  
220  65  
221  95  
222  70  
223  85  
224  85  
225  91  
226  33  
227  95  
228  41  
229  11  
230  100 
231  20  
232  2   
233  47  
234  40  
235  46  
236  30  
237  8   
238  61  
239  88  
240  36  
241  3   
242  5   
243  95  
244  13  
245  82  
246  76  
247  33  
248  85  
249  71  
250  90  
251  29  
252  98  
253  87  
254  62  
255  54  
256  56  
257  87  
258  24  
259  64  
260  93  
261  50  
262  81  
263  18  
264  8   
265  22  
266  80  
267  3   
268  23  
269  52  
270  10  
271  61  
272  22  
273  28  
274  66  
275  4   
276  92  
277  83  
278  53  
279  58  
280  2   
281  13  
282  4   
283  61  
284  15  
285  15  
286  67  
287  80  
288  75  
289  37  
290  52  
291  18  
292  75  
293  71  
294  71  
295  66  
296  26  
297  33  
298  100 
299  45  
300  59  
301  69  
302  31  
303  45  
304  89  
305  13  
306  93  
307  88  
308  94  
309  2   
310  55  
311  34  
312  74  
313  81  
314  21  
315  44  
316  60  
317  96  
318  69  
319  89  
320  33  
321  73  
322  59  
323  100 
324  15  
325  62  
326  79  
327  82  
328  72  
329  45  
330  33  
331  11  
332  87  
333  10  
334  71  
335  22  
336  4   
337  22  
338  41  
339  51  
340  10  
341  57  
342  10  
343  9   
344  17  
345  3   
346  85  
347  13  
348  73  
349  80  
350  84  
351  99  
352  83  
353  79  
354  90  
355  6   
356  82  
357  90  
358  47  
359  96  
360  78  
361  36  
362  99  
363  62  
364  9   
365  37  
366  22  
367  85  
368  12  
369  15  
370  85  
371  40  
372  80  
373  7   
374  79  
375  42  
376  21  
377  58  
378  50  
379  47  
380  70  
381  71  
382  12  
383  41  
384  16  
385  3   
386  71  
387  89  
388  75  
389  93  
390  67  
391  99  
392  16  
393  45  
394  4   
395  100 
396  5   
397  25  
398  27  
399  75  
400  76  
401  8   
DEPOT_SECTION
1
-1
EOF
