NAME : XML400_1173_14
COMMENT : Generated as the XML100 dataset from the CVRPLIB
TYPE : CVRP
DIMENSION : 401
EDGE_WEIGHT_TYPE : EUC_2D
CAPACITY : 158
NODE_COORD_SECTION
1    297  681 
2    693  610 
3    559  777 
4    439  214 
5    490  259 
6    185  706 
7    990  591 
8    798  250 
9    625  587 
10   697  841 
11   234  711 
12   734  997 
13   264  464 
14   823  437 
15   280  189 
16   944  169 
17   345  654 
18   29   36  
19   956  426 
20   79   540 
21   15   784 
22   805  522 
23   404  178 
24   519  555 
25   532  107 
26   869  534 
27   927  148 
28   982  200 
29   658  606 
30   642  500 
31   301  207 
32   833  49  
33   60   400 
34   876  38  
35   204  948 
36   744  129 
37   193  682 
38   609  606 
39   599  821 
40   31   876 
41   855  756 
42   9    318 
43   692  887 
44   840  722 
45   144  771 
46   641  912 
47   189  922 
48   709  576 
49   39   98  
50   166  139 
51   375  807 
52   601  979 
53   958  880 
54   33   396 
55   720  688 
56   567  595 
57   226  958 
58   458  688 
59   250  748 
60   825  463 
61   719  76  
62   926  146 
63   605  60  
64   766  4   
65   990  14  
66   999  727 
67   777  562 
68   838  419 
69   155  902 
70   292  251 
71   641  228 
72   460  64  
73   262  497 
74   70   156 
75   715  433 
76   688  327 
77   566  499 
78   500  136 
79   856  338 
80   900  991 
81   470  122 
82   819  392 
83   229  32  
84   936  815 
85   361  754 
86   644  795 
87   164  972 
88   379  479 
89   157  713 
90   241  127 
91   766  677 
92   886  831 
93   873  93  
94   846  624 
95   430  673 
96   311  236 
97   787  830 
98   593  309 
99   630  218 
100  1    833 
101  506  411 
102  258  346 
103  363  539 
104  20   285 
105  161  678 
106  143  135 
107  992  188 
108  884  911 
109  99   721 
110  61   29  
111  843  321 
112  890  680 
113  771  234 
114  27   54  
115  476  393 
116  54   920 
117  962  30  
118  341  586 
119  774  68  
120  375  737 
121  455  855 
122  497  205 
123  957  180 
124  809  956 
125  430  798 
126  154  625 
127  570  930 
128  418  564 
129  576  772 
130  885  295 
131  299  881 
132  529  669 
133  532  436 
134  277  722 
135  260  651 
136  141  947 
137  937  997 
138  755  868 
139  235  981 
140  81   932 
141  631  182 
142  501  72  
143  1    423 
144  503  14  
145  735  248 
146  175  167 
147  568  354 
148  536  959 
149  468  514 
150  827  623 
151  986  131 
152  736  575 
153  595  209 
154  440  860 
155  72   851 
156  761  915 
157  7    75  
158  882  131 
159  439  254 
160  557  200 
161  233  652 
162  630  50  
163  309  647 
164  308  920 
165  452  955 
166  508  627 
167  317  340 
168  923  406 
169  779  959 
170  467  711 
171  706  993 
172  549  335 
173  564  473 
174  270  264 
175  45   591 
176  697  346 
177  619  835 
178  392  793 
179  752  291 
180  148  432 
181  462  479 
182  512  318 
183  954  523 
184  341  445 
185  252  116 
186  803  475 
187  566  648 
188  557  590 
189  813  943 
190  390  184 
191  373  500 
192  220  694 
193  804  476 
194  546  190 
195  786  22  
196  323  32  
197  766  449 
198  519  599 
199  876  199 
200  560  219 
201  900  812 
202  651  355 
203  272  853 
204  944  190 
205  446  242 
206  381  759 
207  330  543 
208  133  514 
209  994  959 
210  898  744 
211  876  567 
212  746  628 
213  981  104 
214  850  438 
215  144  379 
216  916  648 
217  838  320 
218  836  795 
219  388  367 
220  424  42  
221  964  819 
222  617  366 
223  439  463 
224  808  836 
225  589  249 
226  892  259 
227  676  555 
228  187  754 
229  363  580 
230  835  557 
231  775  533 
232  814  879 
233  837  755 
234  855  889 
235  606  432 
236  77   231 
237  686  284 
238  656  707 
239  181  288 
240  829  369 
241  474  150 
242  795  56  
243  177  43  
244  866  107 
245  830  599 
246  895  808 
247  219  692 
248  370  852 
249  85   701 
250  588  19  
251  892  510 
252  54   997 
253  648  158 
254  503  307 
255  293  586 
256  749  884 
257  33   803 
258  705  158 
259  251  482 
260  641  649 
261  134  333 
262  599  908 
263  626  782 
264  489  139 
265  18   386 
266  666  180 
267  538  269 
268  446  433 
269  239  628 
270  871  185 
271  317  175 
272  331  311 
273  145  468 
274  303  249 
275  18   98  
276  492  521 
277  232  225 
278  135  948 
279  312  828 
280  288  489 
281  727  42  
282  452  75  
283  366  984 
284  423  960 
285  173  687 
286  292  626 
287  336  156 
288  757  814 
289  978  306 
290  663  407 
291  834  136 
292  499  155 
293  107  701 
294  152  614 
295  84   89  
296  614  416 
297  730  847 
298  607  102 
299  916  470 
300  439  164 
301  940  684 
302  434  67  
303  986  818 
304  727  576 
305  87   862 
306  165  134 
307  156  332 
308  513  597 
309  901  315 
310  93   123 
311  153  690 
312  897  25  
313  842  9   
314  455  512 
315  66   133 
316  824  714 
317  322  504 
318  332  688 
319  364  491 
320  517  172 
321  533  952 
322  489  775 
323  561  605 
324  14   234 
325  517  455 
326  221  551 
327  853  660 
328  773  408 
329  970  427 
330  265  364 
331  404  626 
332  305  293 
333  614  374 
334  776  534 
335  84   56  
336  649  731 
337  844  836 
338  101  862 
339  61   170 
340  198  157 
341  548  1   
342  994  878 
343  639  12  
344  996  816 
345  1    816 
346  529  545 
347  893  669 
348  946  168 
349  724  491 
350  493  735 
351  4    305 
352  440  817 
353  196  493 
354  886  912 
355  929  892 
356  142  113 
357  69   519 
358  22   596 
359  47   769 
360  169  377 
361  153  787 
362  427  263 
363  743  756 
364  680  956 
365  727  650 
366  355  113 
367  497  444 
368  901  924 
369  506  663 
370  210  768 
371  187  641 
372  466  74  
373  61   272 
374  374  76  
375  128  191 
376  600  824 
377  821  405 
378  460  283 
379  443  450 
380  835  71  
381  276  193 
382  106  270 
383  829  921 
384  634  929 
385  311  833 
386  435  710 
387  340  320 
388  493  837 
389  979  959 
390  168  222 
391  115  494 
392  768  632 
393  840  926 
394  417  563 
395  840  526 
396  48   827 
397  648  157 
398  769  75  
399  383  21  
400  125  400 
401  863  11  
DEMAND_SECTION
1    0   
2    7   
3    8   
4    3   
5    8   
6    3   
7    3   
8    57  
9    8   
10   6   
11   3   
12   9   
13   7   
14   8   
15   10  
16   7   
17   2   
18   1   
19   58  
20   6   
21   10  
22   4   
23   10  
24   9   
25   7   
26   5   
27   3   
28   10  
29   5   
30   9   
31   9   
32   6   
33   9   
34   10  
35   10  
36   2   
37   9   
38   8   
39   4   
40   2   
41   4   
42   4   
43   10  
44   10  
45   10  
46   2   
47   4   
48   4   
49   95  
50   2   
51   8   
52   4   
53   6   
54   7   
55   6   
56   62  
57   7   
58   3   
59   6   
60   94  
61   4   
62   1   
63   7   
64   9   
65   4   
66   1   
67   7   
68   3   
69   1   
70   94  
71   5   
72   1   
73   4   
74   2   
75   3   
76   4   
77   8   
78   7   
79   3   
80   10  
81   6   
82   4   
83   1   
84   9   
85   1   
86   4   
87   7   
88   8   
89   10  
90   6   
91   10  
92   4   
93   64  
94   4   
95   2   
96   4   
97   6   
98   2   
99   7   
100  4   
101  3   
102  6   
103  9   
104  10  
105  2   
106  5   
107  1   
108  2   
109  2   
110  64  
111  7   
112  1   
113  7   
114  9   
115  3   
116  80  
117  8   
118  74  
119  8   
120  4   
121  7   
122  10  
123  9   
124  3   
125  68  
126  9   
127  4   
128  3   
129  84  
130  2   
131  81  
132  4   
133  7   
134  4   
135  4   
136  2   
137  8   
138  1   
139  10  
140  9   
141  2   
142  99  
143  2   
144  2   
145  2   
146  2   
147  1   
148  9   
149  95  
150  2   
151  1   
152  3   
153  8   
154  87  
155  8   
156  4   
157  9   
158  72  
159  9   
160  4   
161  3   
162  2   
163  6   
164  2   
165  9   
166  10  
167  8   
168  3   
169  54  
170  2   
171  10  
172  75  
173  9   
174  10  
175  75  
176  4   
177  9   
178  1   
179  7   
180  8   
181  9   
182  7   
183  7   
184  5   
185  9   
186  1   
187  6   
188  9   
189  3   
190  7   
191  8   
192  9   
193  2   
194  7   
195  1   
196  10  
197  8   
198  8   
199  8   
200  2   
201  4   
202  10  
203  1   
204  53  
205  88  
206  7   
207  1   
208  10  
209  8   
210  5   
211  85  
212  10  
213  4   
214  91  
215  6   
216  8   
217  6   
218  9   
219  9   
220  3   
221  5   
222  4   
223  9   
224  4   
225  4   
226  9   
227  9   
228  3   
229  6   
230  1   
231  10  
232  9   
233  2   
234  73  
235  2   
236  8   
237  10  
238  8   
239  4   
240  76  
241  2   
242  5   
243  1   
244  2   
245  2   
246  1   
247  4   
248  6   
249  3   
250  7   
251  2   
252  54  
253  3   
254  6   
255  1   
256  2   
257  5   
258  69  
259  7   
260  3   
261  6   
262  6   
263  76  
264  6   
265  8   
266  58  
267  4   
268  64  
269  6   
270  5   
271  4   
272  7   
273  3   
274  6   
275  3   
276  74  
277  97  
278  10  
279  89  
280  8   
281  68  
282  6   
283  5   
284  68  
285  56  
286  2   
287  2   
288  5   
289  56  
290  2   
291  97  
292  5   
293  5   
294  10  
295  77  
296  8   
297  9   
298  4   
299  4   
300  2   
301  2   
302  9   
303  9   
304  7   
305  84  
306  3   
307  8   
308  61  
309  5   
310  8   
311  60  
312  10  
313  99  
314  3   
315  4   
316  81  
317  2   
318  5   
319  2   
320  9   
321  2   
322  4   
323  9   
324  8   
325  83  
326  9   
327  6   
328  8   
329  10  
330  3   
331  89  
332  8   
333  94  
334  9   
335  10  
336  4   
337  2   
338  10  
339  92  
340  4   
341  7   
342  9   
343  5   
344  8   
345  5   
346  4   
347  1   
348  10  
349  10  
350  6   
351  63  
352  2   
353  9   
354  4   
355  10  
356  51  
357  9   
358  10  
359  1   
360  2   
361  7   
362  5   
363  4   
364  3   
365  1   
366  4   
367  7   
368  2   
369  3   
370  4   
371  7   
372  82  
373  2   
374  2   
375  2   
376  2   
377  5   
378  8   
379  7   
380  53  
381  6   
382  52  
383  78  
384  2   
385  90  
386  7   
387  2   
388  5   
389  6   
390  4   
391  1   
392  5   
393  54  
394  3   
395  5   
396  7   
397  7   
398  95  
399  4   
400  6   
401  6   
DEPOT_SECTION
1
-1
EOF
