NAME : XML400_3322_17
COMMENT : Generated as the XML100 dataset from the CVRPLIB
TYPE : CVRP
DIMENSION : 401
EDGE_WEIGHT_TYPE : EUC_2D
CAPACITY : 41
NODE_COORD_SECTION
1    0    0   
2    114  143 
3    131  223 
4    535  411 
5    670  626 
6    942  240 
7    71   285 
8    589  238 
9    590  593 
10   984  669 
11   262  517 
12   551  885 
13   628  332 
14   938  665 
15   672  375 
16   106  790 
17   155  176 
18   337  314 
19   195  468 
20   846  685 
21   857  694 
22   408  877 
23   794  275 
24   361  527 
25   266  366 
26   664  403 
27   556  312 
28   294  464 
29   922  289 
30   263  342 
31   169  60  
32   740  150 
33   815  580 
34   406  134 
35   169  307 
36   51   333 
37   444  246 
38   526  572 
39   109  549 
40   416  938 
41   90   270 
42   389  832 
43   387  404 
44   319  358 
45   379  409 
46   45   393 
47   52   261 
48   220  263 
49   886  999 
50   62   320 
51   555  91  
52   934  267 
53   409  391 
54   28   681 
55   748  778 
56   143  420 
57   968  116 
58   827  424 
59   603  103 
60   147  399 
61   987  385 
62   692  199 
63   215  134 
64   4    881 
65   203  425 
66   290  66  
67   871  295 
68   860  722 
69   585  621 
70   372  248 
71   944  819 
72   212  277 
73   387  367 
74   127  407 
75   119  314 
76   407  461 
77   680  229 
78   600  358 
79   769  176 
80   518  841 
81   375  267 
82   910  273 
83   947  847 
84   288  217 
85   874  606 
86   850  914 
87   308  451 
88   304  499 
89   891  268 
90   60   385 
91   184  955 
92   148  745 
93   929  663 
94   938  730 
95   890  281 
96   631  206 
97   370  668 
98   196  897 
99   198  839 
100  272  636 
101  64   368 
102  247  993 
103  879  675 
104  990  372 
105  243  437 
106  51   425 
107  810  185 
108  115  288 
109  193  100 
110  629  747 
111  152  346 
112  361  349 
113  350  676 
114  935  701 
115  583  380 
116  936  684 
117  587  112 
118  577  983 
119  442  786 
120  59   905 
121  69   433 
122  974  539 
123  698  730 
124  749  448 
125  568  800 
126  543  200 
127  116  383 
128  117  375 
129  156  455 
130  75   229 
131  144  310 
132  383  354 
133  117  631 
134  299  104 
135  808  219 
136  772  144 
137  83   327 
138  890  563 
139  955  256 
140  535  1000
141  184  266 
142  571  913 
143  277  466 
144  502  831 
145  69   275 
146  312  936 
147  899  238 
148  495  410 
149  410  424 
150  316  426 
151  4    276 
152  241  359 
153  996  944 
154  941  590 
155  192  341 
156  46   543 
157  931  680 
158  979  729 
159  928  278 
160  466  342 
161  584  990 
162  101  329 
163  201  291 
164  783  390 
165  967  876 
166  436  831 
167  651  109 
168  710  680 
169  648  857 
170  219  362 
171  246  334 
172  99   800 
173  886  267 
174  448  50  
175  27   142 
176  106  304 
177  668  175 
178  267  496 
179  696  255 
180  218  612 
181  580  327 
182  144  16  
183  851  790 
184  186  436 
185  931  926 
186  541  493 
187  625  96  
188  272  305 
189  548  361 
190  74   460 
191  165  340 
192  711  266 
193  48   340 
194  88   889 
195  900  300 
196  141  406 
197  537  504 
198  897  240 
199  960  189 
200  979  696 
201  4    373 
202  381  759 
203  709  45  
204  904  391 
205  34   163 
206  38   780 
207  549  599 
208  895  589 
209  351  373 
210  690  467 
211  368  309 
212  915  536 
213  100  85  
214  859  244 
215  77   366 
216  189  934 
217  142  194 
218  775  933 
219  52   300 
220  207  323 
221  393  450 
222  645  149 
223  389  318 
224  204  16  
225  91   404 
226  990  723 
227  971  691 
228  35   341 
229  550  527 
230  242  838 
231  458  453 
232  71   300 
233  878  728 
234  392  108 
235  354  490 
236  655  329 
237  788  35  
238  920  254 
239  439  970 
240  336  63  
241  170  287 
242  185  159 
243  830  46  
244  847  215 
245  745  523 
246  527  938 
247  876  952 
248  294  452 
249  936  203 
250  267  206 
251  294  461 
252  232  239 
253  26   390 
254  920  734 
255  852  954 
256  418  106 
257  361  389 
258  281  369 
259  211  966 
260  333  263 
261  136  374 
262  641  388 
263  102  488 
264  629  926 
265  434  589 
266  910  42  
267  977  882 
268  462  552 
269  775  603 
270  0    319 
271  128  248 
272  246  231 
273  915  246 
274  719  423 
275  13   276 
276  620  548 
277  443  772 
278  623  464 
279  919  737 
280  951  680 
281  396  714 
282  347  422 
283  482  210 
284  80   337 
285  928  812 
286  890  795 
287  326  335 
288  496  657 
289  336  537 
290  849  268 
291  899  623 
292  103  344 
293  76   61  
294  1    961 
295  455  512 
296  307  604 
297  572  270 
298  317  407 
299  896  748 
300  515  382 
301  683  631 
302  930  597 
303  201  308 
304  340  237 
305  303  764 
306  875  819 
307  941  764 
308  729  216 
309  173  245 
310  995  573 
311  869  632 
312  204  498 
313  214  929 
314  197  202 
315  157  166 
316  953  594 
317  68   317 
318  803  942 
319  332  512 
320  868  245 
321  87   443 
322  323  692 
323  829  671 
324  585  985 
325  287  397 
326  897  168 
327  236  422 
328  54   293 
329  872  242 
330  75   334 
331  280  214 
332  909  245 
333  412  113 
334  747  521 
335  772  267 
336  240  397 
337  131  526 
338  237  782 
339  768  171 
340  779  836 
341  318  200 
342  605  522 
343  189  467 
344  305  270 
345  850  707 
346  905  661 
347  740  584 
348  839  325 
349  179  395 
350  820  302 
351  192  343 
352  666  15  
353  507  745 
354  43   363 
355  404  769 
356  759  63  
357  215  326 
358  852  645 
359  649  694 
360  968  703 
361  210  350 
362  866  426 
363  539  306 
364  258  45  
365  893  794 
366  214  487 
367  88   119 
368  321  488 
369  217  376 
370  480  350 
371  237  354 
372  835  736 
373  933  704 
374  195  357 
375  60   321 
376  23   510 
377  890  361 
378  464  936 
379  193  176 
380  861  217 
381  998  726 
382  248  893 
383  967  729 
384  27   674 
385  255  389 
386  883  357 
387  923  668 
388  981  273 
389  887  229 
390  810  391 
391  986  873 
392  374  327 
393  285  389 
394  207  744 
395  838  309 
396  855  380 
397  597  112 
398  176  366 
399  251  378 
400  600  266 
401  344  587 
DEMAND_SECTION
1    0   
2    8   
3    4   
4    8   
5    3   
6    4   
7    6   
8    10  
9    7   
10   7   
11   7   
12   3   
13   1   
14   10  
15   8   
16   9   
17   3   
18   5   
19   7   
20   8   
21   10  
22   10  
23   7   
24   10  
25   6   
26   8   
27   8   
28   8   
29   6   
30   1   
31   7   
32   4   
33   8   
34   1   
35   10  
36   5   
37   10  
38   3   
39   8   
40   1   
41   9   
42   10  
43   7   
44   9   
45   8   
46   3   
47   1   
48   8   
49   5   
50   7   
51   7   
52   9   
53   5   
54   4   
55   1   
56   6   
57   8   
58   6   
59   7   
60   5   
61   10  
62   9   
63   7   
64   10  
65   3   
66   8   
67   6   
68   7   
69   2   
70   6   
71   6   
72   1   
73   1   
74   7   
75   3   
76   1   
77   8   
78   4   
79   9   
80   8   
81   9   
82   8   
83   2   
84   5   
85   5   
86   1   
87   7   
88   2   
89   1   
90   1   
91   6   
92   3   
93   3   
94   10  
95   7   
96   2   
97   6   
98   3   
99   5   
100  3   
101  9   
102  6   
103  2   
104  7   
105  8   
106  3   
107  1   
108  1   
109  5   
110  10  
111  2   
112  3   
113  6   
114  10  
115  6   
116  2   
117  9   
118  4   
119  2   
120  2   
121  4   
122  2   
123  1   
124  1   
125  8   
126  2   
127  1   
128  8   
129  5   
130  9   
131  6   
132  5   
133  5   
134  4   
135  9   
136  2   
137  7   
138  6   
139  8   
140  4   
141  2   
142  7   
143  6   
144  10  
145  6   
146  3   
147  3   
148  2   
149  4   
150  6   
151  7   
152  7   
153  6   
154  10  
155  6   
156  2   
157  5   
158  8   
159  1   
160  6   
161  9   
162  1   
163  2   
164  5   
165  2   
166  2   
167  6   
168  7   
169  2   
170  5   
171  10  
172  1   
173  1   
174  8   
175  10  
176  10  
177  8   
178  7   
179  6   
180  5   
181  7   
182  3   
183  2   
184  8   
185  10  
186  10  
187  6   
188  5   
189  5   
190  3   
191  6   
192  5   
193  1   
194  5   
195  7   
196  1   
197  2   
198  2   
199  5   
200  7   
201  8   
202  1   
203  6   
204  4   
205  9   
206  2   
207  2   
208  4   
209  2   
210  4   
211  3   
212  8   
213  8   
214  10  
215  2   
216  4   
217  2   
218  7   
219  5   
220  9   
221  5   
222  10  
223  9   
224  1   
225  2   
226  1   
227  3   
228  10  
229  7   
230  10  
231  5   
232  6   
233  3   
234  6   
235  1   
236  7   
237  7   
238  4   
239  10  
240  8   
241  8   
242  5   
243  7   
244  3   
245  2   
246  3   
247  6   
248  6   
249  5   
250  4   
251  3   
252  7   
253  4   
254  4   
255  7   
256  8   
257  7   
258  1   
259  7   
260  8   
261  10  
262  8   
263  1   
264  4   
265  1   
266  4   
267  3   
268  10  
269  3   
270  10  
271  8   
272  9   
273  1   
274  6   
275  10  
276  1   
277  2   
278  4   
279  6   
280  1   
281  4   
282  8   
283  4   
284  8   
285  9   
286  2   
287  6   
288  10  
289  6   
290  10  
291  8   
292  7   
293  6   
294  6   
295  6   
296  10  
297  4   
298  2   
299  1   
300  4   
301  3   
302  10  
303  4   
304  4   
305  3   
306  4   
307  10  
308  2   
309  2   
310  10  
311  7   
312  1   
313  10  
314  8   
315  4   
316  7   
317  6   
318  6   
319  1   
320  3   
321  8   
322  2   
323  1   
324  1   
325  10  
326  8   
327  6   
328  6   
329  5   
330  6   
331  2   
332  2   
333  2   
334  1   
335  9   
336  10  
337  7   
338  10  
339  9   
340  4   
341  8   
342  4   
343  2   
344  9   
345  7   
346  9   
347  9   
348  3   
349  6   
350  5   
351  6   
352  8   
353  2   
354  2   
355  6   
356  6   
357  9   
358  10  
359  6   
360  10  
361  10  
362  6   
363  7   
364  4   
365  5   
366  9   
367  4   
368  2   
369  2   
370  9   
371  6   
372  3   
373  9   
374  2   
375  5   
376  1   
377  9   
378  4   
379  3   
380  4   
381  3   
382  4   
383  4   
384  6   
385  3   
386  10  
387  4   
388  1   
389  4   
390  9   
391  1   
392  2   
393  3   
394  4   
395  4   
396  4   
397  7   
398  3   
399  10  
400  4   
401  10  
DEPOT_SECTION
1
-1
EOF
