NAME : XML400_1323_18
COMMENT : Generated as the XML100 dataset from the CVRPLIB
TYPE : CVRP
DIMENSION : 401
EDGE_WEIGHT_TYPE : EUC_2D
CAPACITY : 53
NODE_COORD_SECTION
1    635  353 
2    673  515 
3    684  363 
4    522  868 
5    800  556 
6    698  563 
7    629  283 
8    735  212 
9    40   562 
10   716  607 
11   645  565 
12   645  412 
13   150  61  
14   911  1   
15   765  575 
16   663  555 
17   737  513 
18   220  403 
19   707  661 
20   593  914 
21   717  553 
22   854  540 
23   623  518 
24   961  105 
25   886  492 
26   759  537 
27   650  392 
28   577  658 
29   730  510 
30   923  496 
31   642  635 
32   739  833 
33   719  589 
34   3    257 
35   851  494 
36   186  131 
37   259  228 
38   670  198 
39   864  567 
40   708  301 
41   902  441 
42   98   786 
43   909  318 
44   543  279 
45   960  549 
46   686  434 
47   669  512 
48   805  620 
49   706  269 
50   756  526 
51   120  526 
52   744  533 
53   691  625 
54   657  394 
55   651  171 
56   346  627 
57   638  637 
58   890  471 
59   432  550 
60   599  389 
61   731  545 
62   429  234 
63   675  793 
64   49   120 
65   566  468 
66   865  563 
67   519  801 
68   754  286 
69   128  925 
70   856  590 
71   560  439 
72   150  931 
73   855  634 
74   856  599 
75   901  750 
76   147  538 
77   929  403 
78   609  560 
79   732  383 
80   917  456 
81   681  356 
82   864  804 
83   456  475 
84   332  40  
85   744  631 
86   81   943 
87   726  363 
88   749  328 
89   467  350 
90   208  764 
91   389  696 
92   656  402 
93   628  303 
94   730  598 
95   515  920 
96   972  369 
97   125  869 
98   735  551 
99   672  611 
100  666  451 
101  527  256 
102  650  345 
103  723  177 
104  846  656 
105  797  373 
106  99   340 
107  865  126 
108  701  939 
109  771  509 
110  898  797 
111  718  192 
112  739  651 
113  425  375 
114  829  288 
115  722  598 
116  538  935 
117  387  357 
118  133  50  
119  395  59  
120  661  596 
121  892  218 
122  831  626 
123  459  89  
124  977  591 
125  527  772 
126  201  468 
127  992  979 
128  873  223 
129  333  623 
130  400  295 
131  695  450 
132  476  955 
133  712  399 
134  867  669 
135  793  109 
136  447  375 
137  950  550 
138  561  360 
139  675  620 
140  997  518 
141  743  611 
142  634  475 
143  598  521 
144  914  358 
145  721  619 
146  271  648 
147  808  596 
148  743  485 
149  331  302 
150  769  650 
151  5    784 
152  837  668 
153  799  403 
154  486  437 
155  769  515 
156  371  316 
157  886  654 
158  578  547 
159  424  498 
160  798  663 
161  690  635 
162  294  635 
163  778  995 
164  249  731 
165  752  714 
166  704  637 
167  410  428 
168  470  61  
169  816  707 
170  818  259 
171  957  844 
172  147  966 
173  724  605 
174  500  470 
175  623  311 
176  807  468 
177  642  410 
178  502  259 
179  483  17  
180  661  670 
181  456  966 
182  220  955 
183  668  575 
184  546  460 
185  576  101 
186  4    522 
187  217  248 
188  57   277 
189  734  376 
190  82   41  
191  694  568 
192  678  480 
193  798  671 
194  666  524 
195  677  619 
196  431  450 
197  162  856 
198  649  547 
199  627  416 
200  520  15  
201  573  170 
202  794  651 
203  264  723 
204  183  924 
205  57   281 
206  692  383 
207  843  543 
208  231  573 
209  520  536 
210  576  208 
211  907  536 
212  864  840 
213  279  604 
214  722  536 
215  645  563 
216  679  156 
217  698  17  
218  688  381 
219  86   712 
220  653  274 
221  585  405 
222  741  634 
223  269  913 
224  548  904 
225  99   520 
226  127  173 
227  817  638 
228  211  828 
229  669  632 
230  99   614 
231  187  736 
232  606  311 
233  869  532 
234  88   632 
235  170  683 
236  763  532 
237  997  479 
238  468  471 
239  596  629 
240  896  423 
241  697  470 
242  552  222 
243  6    710 
244  683  171 
245  938  370 
246  676  397 
247  596  377 
248  828  772 
249  634  260 
250  689  443 
251  493  141 
252  731  31  
253  619  100 
254  732  166 
255  539  364 
256  621  564 
257  649  406 
258  694  557 
259  715  589 
260  478  524 
261  631  632 
262  615  349 
263  41   281 
264  753  310 
265  656  414 
266  836  106 
267  608  346 
268  571  702 
269  666  445 
270  866  470 
271  640  316 
272  382  933 
273  758  537 
274  681  601 
275  720  681 
276  674  403 
277  671  434 
278  618  517 
279  768  623 
280  747  658 
281  411  205 
282  730  596 
283  634  479 
284  247  219 
285  337  512 
286  973  866 
287  850  795 
288  321  698 
289  367  9   
290  589  467 
291  590  584 
292  715  853 
293  868  705 
294  649  499 
295  740  519 
296  751  803 
297  698  648 
298  58   845 
299  922  541 
300  746  553 
301  498  213 
302  614  681 
303  767  365 
304  739  541 
305  649  467 
306  381  396 
307  371  221 
308  962  60  
309  554  113 
310  739  15  
311  909  8   
312  671  365 
313  634  343 
314  594  270 
315  132  761 
316  722  721 
317  537  419 
318  453  825 
319  617  677 
320  100  567 
321  668  359 
322  633  630 
323  736  731 
324  690  108 
325  692  554 
326  737  705 
327  965  331 
328  27   438 
329  636  411 
330  785  638 
331  712  666 
332  710  306 
333  643  316 
334  513  942 
335  25   877 
336  205  853 
337  900  722 
338  926  860 
339  844  580 
340  751  352 
341  37   451 
342  934  55  
343  206  399 
344  935  545 
345  686  487 
346  730  670 
347  151  975 
348  650  817 
349  125  38  
350  969  552 
351  949  308 
352  617  411 
353  460  558 
354  459  184 
355  390  587 
356  251  685 
357  745  573 
358  44   880 
359  131  759 
360  817  696 
361  143  733 
362  456  308 
363  137  519 
364  334  557 
365  662  422 
366  664  459 
367  203  82  
368  406  581 
369  605  409 
370  583  888 
371  209  409 
372  514  398 
373  712  233 
374  613  349 
375  644  327 
376  740  462 
377  261  217 
378  263  7   
379  670  492 
380  82   569 
381  480  368 
382  622  699 
383  685  648 
384  600  433 
385  587  323 
386  537  731 
387  948  869 
388  721  988 
389  968  280 
390  733  306 
391  413  701 
392  22   321 
393  239  673 
394  381  775 
395  845  577 
396  216  564 
397  559  885 
398  788  479 
399  790  570 
400  827  327 
401  125  400 
DEMAND_SECTION
1    0   
2    10  
3    10  
4    10  
5    6   
6    5   
7    9   
8    9   
9    6   
10   7   
11   4   
12   2   
13   10  
14   8   
15   6   
16   7   
17   3   
18   10  
19   8   
20   7   
21   7   
22   1   
23   1   
24   2   
25   4   
26   5   
27   7   
28   6   
29   1   
30   3   
31   1   
32   1   
33   5   
34   2   
35   4   
36   9   
37   5   
38   1   
39   3   
40   9   
41   7   
42   3   
43   3   
44   6   
45   1   
46   4   
47   10  
48   4   
49   7   
50   5   
51   4   
52   10  
53   5   
54   9   
55   2   
56   4   
57   8   
58   3   
59   4   
60   3   
61   3   
62   3   
63   9   
64   6   
65   9   
66   8   
67   6   
68   10  
69   5   
70   10  
71   4   
72   10  
73   6   
74   1   
75   5   
76   9   
77   6   
78   4   
79   6   
80   10  
81   10  
82   2   
83   3   
84   10  
85   5   
86   5   
87   1   
88   5   
89   6   
90   4   
91   2   
92   9   
93   5   
94   6   
95   8   
96   3   
97   6   
98   1   
99   5   
100  9   
101  9   
102  4   
103  6   
104  9   
105  10  
106  7   
107  5   
108  10  
109  9   
110  8   
111  2   
112  1   
113  8   
114  9   
115  7   
116  9   
117  7   
118  4   
119  10  
120  8   
121  1   
122  1   
123  2   
124  3   
125  3   
126  7   
127  8   
128  3   
129  2   
130  7   
131  1   
132  7   
133  8   
134  1   
135  6   
136  3   
137  6   
138  7   
139  3   
140  7   
141  6   
142  3   
143  9   
144  3   
145  5   
146  6   
147  5   
148  3   
149  7   
150  10  
151  8   
152  9   
153  4   
154  10  
155  3   
156  2   
157  8   
158  10  
159  5   
160  5   
161  10  
162  10  
163  10  
164  6   
165  9   
166  8   
167  8   
168  6   
169  6   
170  5   
171  8   
172  2   
173  4   
174  4   
175  4   
176  8   
177  3   
178  5   
179  5   
180  10  
181  9   
182  6   
183  3   
184  2   
185  5   
186  7   
187  7   
188  6   
189  3   
190  6   
191  5   
192  7   
193  10  
194  10  
195  4   
196  10  
197  10  
198  9   
199  4   
200  5   
201  9   
202  5   
203  2   
204  5   
205  3   
206  8   
207  2   
208  8   
209  1   
210  6   
211  9   
212  9   
213  3   
214  8   
215  3   
216  4   
217  7   
218  2   
219  4   
220  3   
221  9   
222  1   
223  8   
224  2   
225  1   
226  8   
227  9   
228  2   
229  6   
230  10  
231  8   
232  5   
233  9   
234  8   
235  1   
236  8   
237  5   
238  9   
239  2   
240  2   
241  4   
242  7   
243  8   
244  4   
245  9   
246  9   
247  2   
248  4   
249  10  
250  5   
251  6   
252  9   
253  9   
254  6   
255  8   
256  2   
257  3   
258  4   
259  3   
260  3   
261  9   
262  4   
263  7   
264  1   
265  4   
266  8   
267  9   
268  5   
269  6   
270  8   
271  3   
272  7   
273  4   
274  2   
275  8   
276  2   
277  4   
278  8   
279  2   
280  7   
281  6   
282  4   
283  3   
284  9   
285  4   
286  1   
287  3   
288  9   
289  2   
290  5   
291  2   
292  10  
293  2   
294  6   
295  1   
296  3   
297  7   
298  9   
299  3   
300  1   
301  7   
302  7   
303  4   
304  5   
305  6   
306  10  
307  8   
308  6   
309  3   
310  4   
311  2   
312  10  
313  4   
314  9   
315  2   
316  7   
317  1   
318  3   
319  1   
320  5   
321  10  
322  6   
323  3   
324  3   
325  1   
326  10  
327  2   
328  6   
329  9   
330  2   
331  1   
332  3   
333  5   
334  4   
335  9   
336  8   
337  8   
338  2   
339  5   
340  10  
341  10  
342  5   
343  8   
344  10  
345  3   
346  6   
347  5   
348  3   
349  9   
350  4   
351  9   
352  2   
353  6   
354  3   
355  6   
356  1   
357  7   
358  4   
359  9   
360  9   
361  5   
362  1   
363  7   
364  10  
365  1   
366  9   
367  3   
368  4   
369  2   
370  1   
371  4   
372  4   
373  6   
374  6   
375  5   
376  7   
377  2   
378  6   
379  3   
380  5   
381  1   
382  9   
383  3   
384  9   
385  8   
386  6   
387  8   
388  10  
389  7   
390  4   
391  3   
392  8   
393  9   
394  5   
395  6   
396  4   
397  1   
398  7   
399  1   
400  2   
401  8   
DEPOT_SECTION
1
-1
EOF
