NAME : XML400_3172_22
COMMENT : Generated as the XML100 dataset from the CVRPLIB
TYPE : CVRP
DIMENSION : 401
EDGE_WEIGHT_TYPE : EUC_2D
CAPACITY : 139
NODE_COORD_SECTION
1    0    0   
2    184  980 
3    414  548 
4    204  576 
5    143  291 
6    592  828 
7    401  870 
8    136  926 
9    17   179 
10   834  599 
11   482  925 
12   972  313 
13   670  585 
14   267  497 
15   360  926 
16   388  378 
17   709  433 
18   649  153 
19   343  483 
20   70   297 
21   867  223 
22   886  245 
23   279  983 
24   879  215 
25   986  854 
26   163  381 
27   382  824 
28   218  981 
29   539  506 
30   69   629 
31   729  904 
32   353  891 
33   719  45  
34   613  73  
35   911  14  
36   407  233 
37   257  285 
38   459  518 
39   765  206 
40   199  42  
41   418  495 
42   596  132 
43   754  718 
44   278  618 
45   568  317 
46   500  173 
47   505  517 
48   226  437 
49   207  841 
50   298  303 
51   215  534 
52   613  333 
53   586  855 
54   620  857 
55   696  834 
56   612  773 
57   585  100 
58   119  184 
59   953  248 
60   375  784 
61   201  92  
62   355  159 
63   967  439 
64   126  973 
65   228  612 
66   987  97  
67   667  25  
68   599  775 
69   67   286 
70   453  986 
71   345  239 
72   980  94  
73   224  852 
74   736  398 
75   506  857 
76   227  350 
77   106  487 
78   848  981 
79   519  387 
80   728  390 
81   81   152 
82   649  771 
83   902  799 
84   102  382 
85   636  154 
86   945  751 
87   251  200 
88   609  573 
89   206  942 
90   457  295 
91   566  211 
92   270  572 
93   654  189 
94   817  997 
95   428  389 
96   673  467 
97   429  866 
98   137  200 
99   58   56  
100  849  805 
101  437  461 
102  51   416 
103  848  50  
104  557  395 
105  453  832 
106  730  979 
107  481  485 
108  489  108 
109  689  560 
110  332  780 
111  346  953 
112  719  820 
113  779  206 
114  342  583 
115  180  521 
116  848  324 
117  455  222 
118  385  642 
119  320  433 
120  812  468 
121  399  344 
122  808  381 
123  538  386 
124  595  740 
125  358  922 
126  754  504 
127  566  304 
128  672  84  
129  852  280 
130  481  516 
131  915  467 
132  349  464 
133  873  330 
134  747  519 
135  680  856 
136  45   830 
137  446  289 
138  109  613 
139  313  928 
140  935  673 
141  94   960 
142  288  444 
143  727  671 
144  764  809 
145  552  809 
146  4    959 
147  110  186 
148  217  20  
149  834  226 
150  714  81  
151  863  289 
152  678  481 
153  958  526 
154  383  582 
155  780  547 
156  451  893 
157  14   855 
158  969  172 
159  436  575 
160  606  861 
161  70   243 
162  63   869 
163  568  358 
164  83   420 
165  213  130 
166  254  558 
167  476  104 
168  260  461 
169  112  910 
170  605  672 
171  398  849 
172  418  437 
173  490  267 
174  896  61  
175  636  906 
176  689  104 
177  542  988 
178  15   577 
179  201  277 
180  662  635 
181  925  609 
182  274  935 
183  86   884 
184  560  642 
185  317  762 
186  110  423 
187  995  798 
188  844  922 
189  939  427 
190  736  556 
191  993  218 
192  554  436 
193  360  305 
194  542  709 
195  47   986 
196  833  354 
197  994  735 
198  381  364 
199  337  843 
200  70   588 
201  131  756 
202  468  616 
203  473  218 
204  204  853 
205  262  785 
206  801  443 
207  744  308 
208  867  397 
209  411  522 
210  864  346 
211  222  851 
212  408  224 
213  528  140 
214  961  135 
215  995  11  
216  704  631 
217  21   327 
218  473  954 
219  655  375 
220  962  764 
221  405  447 
222  734  357 
223  375  168 
224  782  406 
225  617  357 
226  958  3   
227  645  684 
228  637  15  
229  5    723 
230  345  908 
231  811  972 
232  709  58  
233  599  186 
234  910  960 
235  975  284 
236  360  654 
237  166  807 
238  925  203 
239  167  552 
240  412  310 
241  341  39  
242  17   711 
243  634  121 
244  527  952 
245  788  426 
246  272  708 
247  103  234 
248  898  78  
249  589  253 
250  379  254 
251  300  217 
252  961  637 
253  906  194 
254  24   53  
255  514  344 
256  680  138 
257  477  416 
258  982  278 
259  937  526 
260  50   465 
261  714  792 
262  790  912 
263  383  534 
264  626  252 
265  251  473 
266  302  847 
267  128  402 
268  792  958 
269  915  153 
270  515  820 
271  489  530 
272  666  980 
273  254  407 
274  840  724 
275  233  195 
276  311  105 
277  523  522 
278  601  716 
279  190  763 
280  833  320 
281  75   660 
282  187  712 
283  768  367 
284  659  698 
285  892  491 
286  437  752 
287  716  841 
288  371  523 
289  947  63  
290  122  452 
291  480  533 
292  510  732 
293  577  227 
294  725  629 
295  730  982 
296  524  886 
297  855  357 
298  484  706 
299  911  639 
300  200  776 
301  294  554 
302  980  491 
303  583  284 
304  833  566 
305  523  480 
306  198  720 
307  836  46  
308  774  489 
309  884  797 
310  80   337 
311  37   879 
312  853  153 
313  205  81  
314  188  388 
315  804  400 
316  313  675 
317  719  292 
318  876  532 
319  660  490 
320  896  986 
321  879  915 
322  826  531 
323  752  740 
324  10   493 
325  542  601 
326  78   237 
327  51   530 
328  324  405 
329  494  807 
330  186  602 
331  508  900 
332  607  366 
333  957  964 
334  371  355 
335  500  752 
336  451  249 
337  992  158 
338  107  268 
339  43   512 
340  982  1   
341  169  508 
342  496  256 
343  35   526 
344  600  960 
345  214  906 
346  510  438 
347  936  766 
348  768  297 
349  37   325 
350  848  662 
351  829  675 
352  874  826 
353  392  414 
354  343  656 
355  423  508 
356  673  292 
357  206  906 
358  147  353 
359  810  154 
360  965  415 
361  767  677 
362  269  818 
363  635  387 
364  132  175 
365  465  375 
366  702  59  
367  211  468 
368  638  959 
369  985  100 
370  45   692 
371  312  151 
372  9    617 
373  315  543 
374  798  548 
375  16   512 
376  981  4   
377  836  412 
378  36   737 
379  799  768 
380  324  911 
381  708  101 
382  835  480 
383  185  69  
384  477  88  
385  232  513 
386  683  31  
387  296  287 
388  194  657 
389  642  277 
390  54   372 
391  611  954 
392  874  263 
393  384  939 
394  624  911 
395  408  222 
396  186  47  
397  207  97  
398  14   456 
399  946  427 
400  582  221 
401  966  503 
DEMAND_SECTION
1    0   
2    7   
3    71  
4    8   
5    5   
6    2   
7    1   
8    3   
9    7   
10   7   
11   6   
12   9   
13   7   
14   70  
15   56  
16   9   
17   7   
18   59  
19   6   
20   3   
21   2   
22   5   
23   4   
24   97  
25   1   
26   8   
27   98  
28   6   
29   6   
30   5   
31   100 
32   5   
33   10  
34   8   
35   4   
36   98  
37   4   
38   62  
39   2   
40   100 
41   62  
42   2   
43   9   
44   2   
45   1   
46   6   
47   73  
48   98  
49   67  
50   7   
51   4   
52   1   
53   7   
54   3   
55   5   
56   8   
57   3   
58   1   
59   10  
60   1   
61   3   
62   4   
63   2   
64   81  
65   1   
66   8   
67   1   
68   4   
69   2   
70   74  
71   78  
72   80  
73   4   
74   4   
75   3   
76   1   
77   8   
78   4   
79   4   
80   10  
81   61  
82   2   
83   10  
84   7   
85   5   
86   10  
87   7   
88   2   
89   5   
90   76  
91   86  
92   51  
93   5   
94   6   
95   50  
96   2   
97   6   
98   6   
99   4   
100  4   
101  1   
102  8   
103  6   
104  65  
105  2   
106  5   
107  10  
108  97  
109  86  
110  8   
111  5   
112  63  
113  52  
114  7   
115  10  
116  9   
117  4   
118  3   
119  2   
120  84  
121  4   
122  3   
123  2   
124  4   
125  6   
126  2   
127  4   
128  3   
129  3   
130  3   
131  4   
132  1   
133  6   
134  5   
135  9   
136  94  
137  7   
138  5   
139  7   
140  50  
141  5   
142  7   
143  50  
144  7   
145  7   
146  2   
147  71  
148  7   
149  92  
150  10  
151  2   
152  1   
153  10  
154  56  
155  7   
156  10  
157  62  
158  4   
159  5   
160  5   
161  6   
162  3   
163  1   
164  4   
165  4   
166  90  
167  2   
168  95  
169  1   
170  2   
171  8   
172  8   
173  9   
174  7   
175  8   
176  6   
177  78  
178  5   
179  90  
180  3   
181  4   
182  71  
183  8   
184  1   
185  7   
186  80  
187  5   
188  10  
189  2   
190  60  
191  5   
192  8   
193  82  
194  9   
195  58  
196  7   
197  9   
198  6   
199  9   
200  53  
201  2   
202  6   
203  5   
204  5   
205  10  
206  4   
207  2   
208  10  
209  8   
210  54  
211  78  
212  90  
213  7   
214  1   
215  5   
216  3   
217  2   
218  5   
219  94  
220  89  
221  4   
222  1   
223  1   
224  2   
225  9   
226  91  
227  73  
228  9   
229  2   
230  2   
231  5   
232  2   
233  5   
234  2   
235  8   
236  3   
237  1   
238  6   
239  6   
240  7   
241  1   
242  2   
243  5   
244  4   
245  1   
246  6   
247  6   
248  7   
249  2   
250  10  
251  65  
252  10  
253  1   
254  6   
255  5   
256  66  
257  79  
258  4   
259  2   
260  79  
261  65  
262  80  
263  8   
264  1   
265  76  
266  57  
267  9   
268  89  
269  7   
270  3   
271  3   
272  97  
273  5   
274  1   
275  3   
276  96  
277  3   
278  3   
279  2   
280  1   
281  7   
282  10  
283  8   
284  4   
285  8   
286  4   
287  61  
288  8   
289  4   
290  5   
291  3   
292  5   
293  4   
294  4   
295  7   
296  7   
297  2   
298  2   
299  6   
300  3   
301  4   
302  7   
303  1   
304  6   
305  1   
306  90  
307  1   
308  1   
309  5   
310  8   
311  100 
312  4   
313  2   
314  3   
315  2   
316  7   
317  4   
318  8   
319  75  
320  9   
321  8   
322  5   
323  4   
324  6   
325  2   
326  2   
327  4   
328  7   
329  5   
330  5   
331  7   
332  9   
333  100 
334  9   
335  9   
336  2   
337  6   
338  80  
339  6   
340  50  
341  5   
342  6   
343  2   
344  3   
345  1   
346  4   
347  10  
348  4   
349  9   
350  3   
351  93  
352  73  
353  8   
354  6   
355  79  
356  4   
357  8   
358  1   
359  59  
360  8   
361  5   
362  95  
363  4   
364  80  
365  6   
366  8   
367  6   
368  9   
369  52  
370  61  
371  3   
372  8   
373  7   
374  5   
375  84  
376  60  
377  4   
378  5   
379  7   
380  10  
381  4   
382  92  
383  9   
384  5   
385  3   
386  10  
387  86  
388  81  
389  6   
390  53  
391  6   
392  10  
393  53  
394  10  
395  7   
396  5   
397  6   
398  3   
399  2   
400  4   
401  5   
DEPOT_SECTION
1
-1
EOF
