NAME : XML400_1173_13
COMMENT : Generated as the XML100 dataset from the CVRPLIB
TYPE : CVRP
DIMENSION : 401
EDGE_WEIGHT_TYPE : EUC_2D
CAPACITY : 170
NODE_COORD_SECTION
1    705  807 
2    808  551 
3    432  556 
4    390  181 
5    412  605 
6    103  246 
7    998  833 
8    352  801 
9    100  595 
10   122  506 
11   677  616 
12   15   807 
13   646  619 
14   64   281 
15   82   424 
16   140  550 
17   643  1000
18   892  423 
19   745  364 
20   500  713 
21   213  876 
22   822  593 
23   69   773 
24   596  366 
25   669  261 
26   693  982 
27   231  682 
28   579  880 
29   526  78  
30   486  670 
31   350  993 
32   70   292 
33   679  683 
34   903  787 
35   909  965 
36   936  192 
37   822  606 
38   674  442 
39   445  857 
40   835  792 
41   107  62  
42   706  507 
43   684  92  
44   757  561 
45   566  603 
46   154  686 
47   100  59  
48   859  883 
49   948  979 
50   752  497 
51   261  677 
52   774  268 
53   217  836 
54   792  551 
55   830  852 
56   473  29  
57   183  861 
58   364  378 
59   375  384 
60   706  502 
61   579  717 
62   279  294 
63   590  326 
64   477  952 
65   520  594 
66   236  597 
67   910  947 
68   837  32  
69   427  713 
70   908  83  
71   719  677 
72   832  883 
73   364  229 
74   978  955 
75   953  611 
76   578  185 
77   780  814 
78   578  441 
79   90   614 
80   850  747 
81   122  575 
82   507  8   
83   561  235 
84   639  838 
85   481  364 
86   987  343 
87   776  663 
88   575  776 
89   462  490 
90   206  573 
91   792  136 
92   722  575 
93   540  845 
94   553  384 
95   1    792 
96   731  543 
97   199  929 
98   324  551 
99   596  601 
100  706  720 
101  539  970 
102  587  610 
103  774  854 
104  995  831 
105  316  579 
106  605  691 
107  156  688 
108  158  478 
109  99   163 
110  566  25  
111  91   564 
112  216  186 
113  893  959 
114  689  653 
115  443  997 
116  986  360 
117  48   238 
118  805  455 
119  404  785 
120  754  629 
121  776  248 
122  131  92  
123  898  759 
124  156  521 
125  491  938 
126  306  209 
127  391  433 
128  419  113 
129  266  447 
130  266  685 
131  952  613 
132  246  60  
133  652  92  
134  374  901 
135  925  744 
136  705  610 
137  306  110 
138  343  523 
139  939  526 
140  129  828 
141  936  637 
142  559  650 
143  102  316 
144  695  821 
145  642  666 
146  931  540 
147  639  368 
148  284  814 
149  64   316 
150  131  882 
151  538  312 
152  523  839 
153  228  662 
154  887  636 
155  321  234 
156  157  391 
157  276  330 
158  672  666 
159  679  714 
160  137  669 
161  990  356 
162  684  649 
163  412  855 
164  650  656 
165  971  86  
166  824  799 
167  945  442 
168  924  648 
169  243  268 
170  19   789 
171  604  814 
172  695  178 
173  373  145 
174  437  813 
175  433  523 
176  337  973 
177  911  431 
178  154  461 
179  999  287 
180  468  746 
181  901  804 
182  466  974 
183  922  445 
184  855  544 
185  624  513 
186  310  564 
187  578  882 
188  354  518 
189  243  492 
190  109  449 
191  755  542 
192  970  341 
193  200  725 
194  561  20  
195  745  506 
196  896  675 
197  706  304 
198  699  246 
199  942  907 
200  642  386 
201  38   119 
202  948  569 
203  467  781 
204  723  743 
205  245  853 
206  808  930 
207  516  938 
208  407  613 
209  513  640 
210  492  428 
211  871  595 
212  860  842 
213  370  331 
214  841  572 
215  926  140 
216  929  703 
217  542  532 
218  578  378 
219  775  910 
220  32   219 
221  513  770 
222  24   215 
223  851  231 
224  858  944 
225  127  963 
226  616  108 
227  907  162 
228  965  518 
229  178  785 
230  884  264 
231  907  0   
232  303  636 
233  305  853 
234  382  700 
235  61   492 
236  571  999 
237  50   92  
238  331  581 
239  534  43  
240  666  589 
241  114  512 
242  679  806 
243  9    176 
244  711  758 
245  10   558 
246  875  201 
247  416  679 
248  728  667 
249  257  435 
250  189  380 
251  161  565 
252  276  152 
253  161  830 
254  991  506 
255  884  807 
256  819  925 
257  839  9   
258  107  212 
259  93   704 
260  895  398 
261  150  686 
262  55   924 
263  183  225 
264  560  697 
265  249  417 
266  116  391 
267  994  669 
268  303  891 
269  969  96  
270  359  652 
271  439  16  
272  644  119 
273  627  988 
274  687  108 
275  446  320 
276  184  656 
277  230  543 
278  742  327 
279  571  18  
280  2    108 
281  7    479 
282  708  270 
283  35   321 
284  720  6   
285  617  835 
286  277  748 
287  946  98  
288  820  349 
289  692  200 
290  19   965 
291  968  638 
292  516  895 
293  753  304 
294  476  926 
295  549  16  
296  957  457 
297  619  489 
298  120  522 
299  177  638 
300  569  497 
301  994  915 
302  948  768 
303  967  116 
304  342  729 
305  709  504 
306  667  129 
307  305  936 
308  944  276 
309  241  277 
310  376  331 
311  430  787 
312  495  678 
313  173  636 
314  547  307 
315  811  398 
316  190  963 
317  42   180 
318  750  931 
319  348  106 
320  228  208 
321  974  388 
322  785  647 
323  684  842 
324  704  411 
325  769  1   
326  546  212 
327  117  224 
328  949  843 
329  896  599 
330  595  998 
331  313  135 
332  709  373 
333  80   412 
334  948  8   
335  69   439 
336  92   917 
337  531  717 
338  419  399 
339  853  740 
340  348  604 
341  604  310 
342  380  831 
343  579  802 
344  18   567 
345  644  602 
346  528  409 
347  119  390 
348  774  321 
349  490  562 
350  180  275 
351  632  902 
352  561  622 
353  663  490 
354  981  171 
355  340  492 
356  989  93  
357  309  16  
358  474  312 
359  688  183 
360  989  120 
361  499  503 
362  20   407 
363  978  766 
364  532  289 
365  720  71  
366  544  928 
367  741  786 
368  567  23  
369  253  739 
370  639  375 
371  841  918 
372  381  259 
373  703  548 
374  656  46  
375  187  668 
376  171  800 
377  58   123 
378  31   505 
379  829  247 
380  227  816 
381  465  635 
382  11   145 
383  961  686 
384  800  979 
385  535  178 
386  778  951 
387  768  776 
388  292  438 
389  961  295 
390  270  261 
391  488  102 
392  19   935 
393  64   668 
394  580  432 
395  591  343 
396  42   775 
397  778  834 
398  772  611 
399  669  936 
400  943  102 
401  47   880 
DEMAND_SECTION
1    0   
2    7   
3    81  
4    8   
5    8   
6    5   
7    7   
8    1   
9    60  
10   4   
11   2   
12   7   
13   9   
14   9   
15   3   
16   74  
17   7   
18   8   
19   98  
20   9   
21   4   
22   7   
23   9   
24   8   
25   2   
26   8   
27   3   
28   4   
29   3   
30   9   
31   6   
32   1   
33   6   
34   4   
35   9   
36   5   
37   6   
38   3   
39   9   
40   5   
41   8   
42   70  
43   10  
44   5   
45   9   
46   2   
47   10  
48   6   
49   7   
50   69  
51   9   
52   8   
53   1   
54   10  
55   7   
56   7   
57   3   
58   9   
59   6   
60   60  
61   4   
62   7   
63   3   
64   4   
65   63  
66   2   
67   80  
68   7   
69   9   
70   8   
71   3   
72   7   
73   5   
74   2   
75   9   
76   3   
77   1   
78   2   
79   1   
80   100 
81   8   
82   2   
83   2   
84   65  
85   70  
86   1   
87   7   
88   1   
89   10  
90   56  
91   3   
92   3   
93   8   
94   1   
95   6   
96   5   
97   1   
98   2   
99   7   
100  7   
101  8   
102  100 
103  10  
104  8   
105  95  
106  8   
107  53  
108  9   
109  100 
110  3   
111  91  
112  6   
113  5   
114  2   
115  7   
116  4   
117  10  
118  10  
119  8   
120  9   
121  10  
122  9   
123  88  
124  8   
125  6   
126  4   
127  61  
128  10  
129  10  
130  2   
131  8   
132  5   
133  9   
134  1   
135  9   
136  2   
137  9   
138  2   
139  10  
140  1   
141  3   
142  9   
143  3   
144  9   
145  2   
146  4   
147  6   
148  7   
149  2   
150  4   
151  10  
152  5   
153  5   
154  1   
155  6   
156  9   
157  68  
158  7   
159  6   
160  9   
161  88  
162  9   
163  65  
164  77  
165  10  
166  6   
167  3   
168  7   
169  5   
170  7   
171  3   
172  6   
173  9   
174  9   
175  4   
176  2   
177  3   
178  7   
179  3   
180  6   
181  71  
182  1   
183  7   
184  4   
185  3   
186  99  
187  5   
188  10  
189  4   
190  2   
191  4   
192  3   
193  7   
194  81  
195  10  
196  3   
197  9   
198  8   
199  4   
200  1   
201  7   
202  1   
203  7   
204  3   
205  2   
206  9   
207  3   
208  7   
209  10  
210  7   
211  2   
212  78  
213  10  
214  8   
215  57  
216  7   
217  8   
218  6   
219  9   
220  4   
221  2   
222  69  
223  4   
224  3   
225  3   
226  7   
227  3   
228  7   
229  6   
230  4   
231  3   
232  6   
233  7   
234  10  
235  3   
236  4   
237  59  
238  3   
239  4   
240  6   
241  9   
242  6   
243  9   
244  7   
245  100 
246  3   
247  10  
248  3   
249  10  
250  8   
251  9   
252  56  
253  5   
254  3   
255  1   
256  2   
257  5   
258  1   
259  8   
260  5   
261  4   
262  8   
263  9   
264  7   
265  3   
266  1   
267  6   
268  75  
269  3   
270  3   
271  91  
272  81  
273  9   
274  9   
275  2   
276  2   
277  4   
278  1   
279  1   
280  5   
281  9   
282  4   
283  9   
284  10  
285  8   
286  86  
287  3   
288  8   
289  5   
290  6   
291  80  
292  3   
293  3   
294  4   
295  60  
296  10  
297  2   
298  5   
299  6   
300  3   
301  73  
302  85  
303  2   
304  5   
305  4   
306  7   
307  97  
308  10  
309  3   
310  1   
311  6   
312  8   
313  9   
314  1   
315  1   
316  8   
317  8   
318  10  
319  8   
320  5   
321  1   
322  3   
323  8   
324  93  
325  1   
326  4   
327  3   
328  7   
329  3   
330  3   
331  10  
332  8   
333  4   
334  9   
335  9   
336  4   
337  1   
338  6   
339  8   
340  1   
341  4   
342  7   
343  2   
344  6   
345  8   
346  10  
347  5   
348  9   
349  10  
350  5   
351  94  
352  7   
353  5   
354  7   
355  7   
356  74  
357  8   
358  7   
359  3   
360  51  
361  3   
362  92  
363  8   
364  9   
365  1   
366  9   
367  5   
368  5   
369  10  
370  9   
371  9   
372  2   
373  5   
374  75  
375  9   
376  3   
377  2   
378  9   
379  3   
380  7   
381  1   
382  1   
383  4   
384  2   
385  6   
386  8   
387  7   
388  1   
389  9   
390  2   
391  4   
392  7   
393  8   
394  68  
395  83  
396  6   
397  4   
398  10  
399  8   
400  7   
401  8   
DEPOT_SECTION
1
-1
EOF
