NAME : XML400_2264_19
COMMENT : Generated as the XML100 dataset from the CVRPLIB
TYPE : CVRP
DIMENSION : 401
EDGE_WEIGHT_TYPE : EUC_2D
CAPACITY : 604
NODE_COORD_SECTION
1    500  500 
2    826  456 
3    900  405 
4    838  192 
5    672  407 
6    924  344 
7    826  712 
8    670  217 
9    972  686 
10   746  450 
11   968  423 
12   729  388 
13   996  652 
14   665  394 
15   977  648 
16   639  342 
17   792  346 
18   855  622 
19   1000 631 
20   790  394 
21   831  292 
22   986  742 
23   730  389 
24   993  601 
25   981  645 
26   860  584 
27   831  566 
28   835  667 
29   703  380 
30   962  631 
31   786  405 
32   803  723 
33   964  677 
34   918  143 
35   688  760 
36   743  556 
37   797  694 
38   738  468 
39   952  586 
40   948  445 
41   734  363 
42   853  283 
43   782  259 
44   737  355 
45   907  290 
46   627  349 
47   552  309 
48   694  411 
49   813  386 
50   773  597 
51   889  628 
52   932  580 
53   583  701 
54   990  549 
55   572  301 
56   544  309 
57   700  342 
58   877  640 
59   660  404 
60   757  318 
61   629  398 
62   775  381 
63   668  255 
64   915  779 
65   794  489 
66   869  501 
67   972  504 
68   980  606 
69   922  683 
70   753  298 
71   864  422 
72   938  609 
73   938  618 
74   785  296 
75   773  569 
76   995  743 
77   979  646 
78   843  493 
79   714  348 
80   801  523 
81   711  431 
82   807  426 
83   878  715 
84   781  383 
85   975  495 
86   774  514 
87   761  306 
88   756  475 
89   747  417 
90   978  649 
91   853  398 
92   959  654 
93   979  641 
94   982  674 
95   798  346 
96   971  655 
97   702  369 
98   911  888 
99   935  580 
100  926  342 
101  737  326 
102  679  501 
103  593  318 
104  796  668 
105  795  294 
106  826  120 
107  806  300 
108  868  293 
109  962  147 
110  968  325 
111  718  479 
112  922  614 
113  629  230 
114  698  366 
115  874  573 
116  876  372 
117  964  732 
118  783  409 
119  819  350 
120  855  443 
121  602  272 
122  976  571 
123  808  340 
124  779  313 
125  919  482 
126  855  290 
127  832  315 
128  777  654 
129  942  721 
130  856  529 
131  905  412 
132  959  630 
133  925  628 
134  937  880 
135  917  404 
136  926  718 
137  958  185 
138  755  445 
139  782  471 
140  744  606 
141  866  815 
142  822  647 
143  920  526 
144  757  499 
145  958  827 
146  917  637 
147  890  382 
148  994  619 
149  773  391 
150  919  683 
151  947  772 
152  835  213 
153  567  398 
154  889  696 
155  779  397 
156  869  318 
157  894  402 
158  855  392 
159  963  581 
160  649  305 
161  981  635 
162  966  771 
163  993  645 
164  810  380 
165  787  378 
166  785  454 
167  960  742 
168  826  95  
169  763  295 
170  668  570 
171  791  384 
172  916  644 
173  921  759 
174  914  720 
175  901  512 
176  720  180 
177  751  433 
178  919  682 
179  722  262 
180  840  245 
181  858  671 
182  839  667 
183  744  658 
184  831  443 
185  610  304 
186  985  757 
187  890  614 
188  784  367 
189  702  325 
190  976  537 
191  945  293 
192  664  716 
193  861  717 
194  894  513 
195  763  420 
196  721  423 
197  971  714 
198  787  377 
199  975  675 
200  901  646 
201  783  343 
202  690  462 
203  882  394 
204  648  554 
205  946  635 
206  820  419 
207  949  640 
208  961  642 
209  903  700 
210  869  415 
211  694  297 
212  951  624 
213  972  656 
214  989  605 
215  780  333 
216  727  443 
217  937  652 
218  820  405 
219  821  468 
220  840  338 
221  859  113 
222  878  602 
223  749  237 
224  963  691 
225  851  370 
226  493  24  
227  954  480 
228  969  645 
229  662  219 
230  757  716 
231  715  472 
232  802  477 
233  825  353 
234  726  249 
235  778  506 
236  844  488 
237  837  601 
238  884  533 
239  850  391 
240  726  343 
241  913  587 
242  815  698 
243  899  768 
244  859  732 
245  781  413 
246  1000 591 
247  944  538 
248  968  895 
249  973  583 
250  722  345 
251  761  565 
252  812  238 
253  923  609 
254  756  343 
255  725  99  
256  917  705 
257  853  522 
258  788  173 
259  763  238 
260  895  546 
261  704  588 
262  778  375 
263  946  615 
264  944  542 
265  974  695 
266  596  362 
267  626  363 
268  870  723 
269  738  284 
270  786  342 
271  991  622 
272  823  666 
273  946  480 
274  803  669 
275  910  661 
276  807  410 
277  753  439 
278  837  420 
279  797  393 
280  808  393 
281  778  352 
282  769  420 
283  968  629 
284  661  450 
285  919  602 
286  819  533 
287  743  376 
288  826  392 
289  999  701 
290  786  328 
291  827  375 
292  997  548 
293  843  728 
294  749  446 
295  979  661 
296  733  340 
297  990  518 
298  705  367 
299  608  425 
300  944  667 
301  861  763 
302  993  681 
303  831  381 
304  959  539 
305  876  532 
306  998  387 
307  923  729 
308  857  756 
309  811  389 
310  982  653 
311  879  542 
312  837  298 
313  760  451 
314  806  329 
315  774  358 
316  899  618 
317  909  650 
318  761  159 
319  866  450 
320  732  370 
321  776  404 
322  902  409 
323  922  625 
324  722  698 
325  686  348 
326  881  444 
327  899  65  
328  999  817 
329  887  258 
330  864  629 
331  557  212 
332  852  682 
333  811  402 
334  696  290 
335  765  371 
336  919  704 
337  833  524 
338  560  286 
339  964  217 
340  847  297 
341  813  313 
342  964  482 
343  779  418 
344  970  772 
345  721  333 
346  977  695 
347  640  515 
348  969  700 
349  664  491 
350  647  240 
351  996  564 
352  839  608 
353  727  367 
354  827  454 
355  844  305 
356  778  332 
357  957  154 
358  637  311 
359  889  285 
360  779  422 
361  782  558 
362  960  592 
363  799  409 
364  655  383 
365  905  665 
366  764  397 
367  927  680 
368  901  551 
369  731  476 
370  665  283 
371  970  650 
372  628  392 
373  754  626 
374  707  523 
375  805  299 
376  978  617 
377  835  336 
378  795  352 
379  994  598 
380  700  529 
381  976  284 
382  888  827 
383  839  306 
384  882  249 
385  839  324 
386  851  527 
387  737  276 
388  746  352 
389  993  647 
390  749  497 
391  970  654 
392  943  646 
393  920  415 
394  787  398 
395  936  625 
396  847  785 
397  956  701 
398  892  536 
399  784  356 
400  801  436 
401  972  812 
DEMAND_SECTION
1    0   
2    2   
3    20  
4    26  
5    17  
6    34  
7    72  
8    36  
9    52  
10   40  
11   44  
12   41  
13   55  
14   37  
15   77  
16   14  
17   23  
18   61  
19   100 
20   15  
21   49  
22   74  
23   4   
24   51  
25   62  
26   77  
27   56  
28   64  
29   29  
30   64  
31   4   
32   51  
33   94  
34   6   
35   70  
36   89  
37   99  
38   22  
39   94  
40   16  
41   48  
42   21  
43   37  
44   18  
45   50  
46   1   
47   28  
48   5   
49   36  
50   54  
51   83  
52   51  
53   55  
54   82  
55   43  
56   37  
57   39  
58   60  
59   23  
60   1   
61   37  
62   41  
63   16  
64   57  
65   6   
66   89  
67   78  
68   76  
69   85  
70   30  
71   3   
72   57  
73   76  
74   36  
75   78  
76   63  
77   53  
78   41  
79   39  
80   92  
81   6   
82   14  
83   77  
84   22  
85   34  
86   86  
87   39  
88   35  
89   47  
90   66  
91   9   
92   66  
93   96  
94   68  
95   39  
96   86  
97   46  
98   67  
99   73  
100  13  
101  9   
102  77  
103  49  
104  52  
105  25  
106  3   
107  49  
108  31  
109  19  
110  17  
111  39  
112  76  
113  44  
114  49  
115  76  
116  29  
117  71  
118  26  
119  9   
120  50  
121  37  
122  91  
123  17  
124  12  
125  32  
126  45  
127  8   
128  89  
129  65  
130  83  
131  35  
132  92  
133  88  
134  70  
135  29  
136  94  
137  10  
138  19  
139  13  
140  86  
141  90  
142  87  
143  51  
144  47  
145  81  
146  57  
147  6   
148  71  
149  2   
150  88  
151  57  
152  47  
153  12  
154  52  
155  33  
156  3   
157  22  
158  3   
159  87  
160  48  
161  90  
162  68  
163  57  
164  15  
165  41  
166  26  
167  69  
168  1   
169  7   
170  90  
171  50  
172  87  
173  87  
174  85  
175  81  
176  16  
177  20  
178  83  
179  28  
180  22  
181  82  
182  79  
183  79  
184  25  
185  40  
186  93  
187  84  
188  22  
189  4   
190  97  
191  25  
192  84  
193  71  
194  89  
195  8   
196  25  
197  67  
198  1   
199  88  
200  78  
201  19  
202  21  
203  38  
204  73  
205  82  
206  3   
207  77  
208  51  
209  75  
210  16  
211  29  
212  78  
213  55  
214  77  
215  33  
216  18  
217  67  
218  38  
219  18  
220  6   
221  50  
222  86  
223  18  
224  71  
225  18  
226  85  
227  25  
228  86  
229  42  
230  85  
231  2   
232  16  
233  4   
234  23  
235  85  
236  30  
237  70  
238  82  
239  41  
240  23  
241  67  
242  58  
243  81  
244  53  
245  29  
246  69  
247  71  
248  95  
249  70  
250  6   
251  82  
252  30  
253  78  
254  20  
255  9   
256  63  
257  80  
258  3   
259  21  
260  85  
261  100 
262  26  
263  95  
264  99  
265  91  
266  30  
267  18  
268  71  
269  33  
270  15  
271  51  
272  92  
273  21  
274  76  
275  93  
276  30  
277  38  
278  50  
279  30  
280  21  
281  33  
282  34  
283  63  
284  7   
285  72  
286  67  
287  4   
288  25  
289  58  
290  46  
291  12  
292  94  
293  80  
294  22  
295  84  
296  2   
297  74  
298  7   
299  21  
300  67  
301  95  
302  97  
303  34  
304  88  
305  72  
306  9   
307  68  
308  63  
309  25  
310  82  
311  75  
312  6   
313  35  
314  21  
315  2   
316  98  
317  51  
318  50  
319  21  
320  28  
321  45  
322  10  
323  61  
324  67  
325  12  
326  15  
327  30  
328  75  
329  41  
330  96  
331  48  
332  74  
333  24  
334  36  
335  33  
336  91  
337  92  
338  5   
339  32  
340  41  
341  6   
342  44  
343  35  
344  90  
345  14  
346  59  
347  88  
348  86  
349  6   
350  45  
351  70  
352  98  
353  17  
354  33  
355  39  
356  28  
357  21  
358  17  
359  17  
360  21  
361  66  
362  90  
363  30  
364  20  
365  71  
366  3   
367  89  
368  95  
369  33  
370  6   
371  58  
372  44  
373  63  
374  54  
375  7   
376  72  
377  44  
378  36  
379  67  
380  76  
381  2   
382  66  
383  26  
384  46  
385  3   
386  51  
387  34  
388  2   
389  75  
390  38  
391  71  
392  86  
393  11  
394  46  
395  90  
396  96  
397  79  
398  99  
399  13  
400  20  
401  62  
DEPOT_SECTION
1
-1
EOF
