NAME : XML400_3175_16
COMMENT : Generated as the XML100 dataset from the CVRPLIB
TYPE : CVRP
DIMENSION : 401
EDGE_WEIGHT_TYPE : EUC_2D
CAPACITY : 199
NODE_COORD_SECTION
1    0    0   
2    960  447 
3    835  434 
4    852  365 
5    759  951 
6    412  587 
7    498  928 
8    801  548 
9    491  233 
10   40   297 
11   133  772 
12   60   967 
13   568  718 
14   118  234 
15   422  911 
16   513  126 
17   712  573 
18   928  862 
19   912  100 
20   329  719 
21   571  719 
22   938  930 
23   651  617 
24   265  136 
25   82   707 
26   675  556 
27   381  576 
28   32   855 
29   85   214 
30   474  175 
31   65   879 
32   899  565 
33   465  184 
34   737  890 
35   206  189 
36   254  275 
37   320  885 
38   414  520 
39   270  893 
40   375  430 
41   996  112 
42   958  485 
43   539  389 
44   428  274 
45   830  174 
46   394  299 
47   197  535 
48   789  950 
49   400  571 
50   93   572 
51   762  429 
52   132  518 
53   823  292 
54   249  703 
55   122  473 
56   311  925 
57   257  289 
58   63   531 
59   881  907 
60   846  284 
61   737  386 
62   716  839 
63   883  22  
64   42   364 
65   270  847 
66   545  557 
67   642  99  
68   321  678 
69   35   571 
70   496  539 
71   677  996 
72   237  306 
73   393  810 
74   938  97  
75   840  47  
76   412  176 
77   814  583 
78   955  24  
79   555  984 
80   250  864 
81   526  530 
82   557  935 
83   838  387 
84   71   13  
85   453  828 
86   510  981 
87   40   110 
88   620  941 
89   522  317 
90   703  737 
91   821  949 
92   170  341 
93   271  155 
94   397  11  
95   886  678 
96   27   41  
97   992  58  
98   448  888 
99   55   786 
100  217  565 
101  91   498 
102  617  19  
103  447  609 
104  442  512 
105  821  679 
106  912  470 
107  249  791 
108  53   62  
109  995  733 
110  147  78  
111  889  590 
112  377  805 
113  856  440 
114  582  289 
115  286  812 
116  612  555 
117  380  834 
118  364  740 
119  301  797 
120  146  118 
121  77   814 
122  442  278 
123  570  674 
124  372  866 
125  737  698 
126  37   314 
127  716  922 
128  877  876 
129  516  568 
130  676  468 
131  628  409 
132  775  855 
133  707  949 
134  361  977 
135  304  443 
136  34   704 
137  171  35  
138  171  44  
139  393  255 
140  119  253 
141  229  412 
142  901  316 
143  572  235 
144  304  164 
145  554  208 
146  941  199 
147  936  130 
148  576  870 
149  860  409 
150  258  560 
151  962  20  
152  621  621 
153  154  112 
154  505  437 
155  442  762 
156  133  830 
157  89   894 
158  778  51  
159  403  34  
160  452  564 
161  55   348 
162  246  181 
163  747  203 
164  807  504 
165  284  576 
166  135  596 
167  277  42  
168  333  68  
169  223  592 
170  75   38  
171  758  598 
172  49   803 
173  400  490 
174  885  684 
175  481  981 
176  28   874 
177  84   119 
178  839  546 
179  409  166 
180  644  221 
181  582  475 
182  503  93  
183  159  140 
184  904  782 
185  652  338 
186  347  358 
187  20   228 
188  902  467 
189  351  364 
190  826  984 
191  314  49  
192  995  29  
193  256  849 
194  490  131 
195  110  148 
196  571  870 
197  356  716 
198  127  326 
199  166  583 
200  946  667 
201  458  175 
202  389  197 
203  489  46  
204  92   746 
205  632  583 
206  676  955 
207  900  672 
208  278  747 
209  468  606 
210  284  934 
211  881  286 
212  85   59  
213  162  190 
214  975  558 
215  198  210 
216  488  476 
217  496  62  
218  903  300 
219  158  421 
220  52   430 
221  487  587 
222  396  725 
223  142  589 
224  185  959 
225  438  996 
226  941  704 
227  557  22  
228  286  471 
229  568  962 
230  449  596 
231  416  419 
232  455  267 
233  153  45  
234  527  673 
235  150  67  
236  272  11  
237  625  49  
238  865  543 
239  396  491 
240  334  516 
241  695  369 
242  638  927 
243  299  140 
244  196  649 
245  638  774 
246  844  879 
247  538  287 
248  187  438 
249  139  123 
250  33   645 
251  325  417 
252  225  339 
253  501  670 
254  513  68  
255  421  479 
256  261  926 
257  821  211 
258  667  400 
259  860  715 
260  703  57  
261  557  677 
262  712  560 
263  533  814 
264  989  60  
265  961  236 
266  858  125 
267  807  141 
268  253  796 
269  903  514 
270  558  596 
271  424  543 
272  192  395 
273  561  768 
274  190  852 
275  583  527 
276  732  277 
277  795  553 
278  471  93  
279  526  932 
280  705  934 
281  877  134 
282  3    253 
283  603  895 
284  709  159 
285  343  950 
286  927  494 
287  639  683 
288  871  175 
289  521  709 
290  630  625 
291  528  330 
292  344  249 
293  300  588 
294  919  99  
295  106  457 
296  756  221 
297  82   365 
298  423  667 
299  483  53  
300  946  201 
301  942  585 
302  997  530 
303  300  709 
304  792  417 
305  772  30  
306  909  682 
307  37   353 
308  764  709 
309  830  794 
310  79   755 
311  648  744 
312  943  280 
313  614  379 
314  112  132 
315  250  600 
316  591  377 
317  436  363 
318  230  124 
319  293  552 
320  314  108 
321  16   689 
322  3    481 
323  694  249 
324  884  904 
325  866  688 
326  916  945 
327  886  428 
328  346  591 
329  711  167 
330  156  677 
331  805  705 
332  313  679 
333  317  640 
334  639  35  
335  221  443 
336  737  597 
337  557  639 
338  697  799 
339  733  456 
340  500  343 
341  648  995 
342  52   979 
343  500  370 
344  702  87  
345  870  708 
346  518  275 
347  946  694 
348  184  753 
349  678  632 
350  914  122 
351  303  453 
352  553  219 
353  99   812 
354  379  866 
355  325  895 
356  396  519 
357  50   538 
358  354  702 
359  290  793 
360  615  413 
361  420  759 
362  93   126 
363  383  292 
364  275  359 
365  350  789 
366  138  390 
367  916  791 
368  559  401 
369  567  652 
370  99   416 
371  583  349 
372  670  97  
373  75   553 
374  64   287 
375  245  475 
376  838  849 
377  265  560 
378  348  576 
379  36   90  
380  578  144 
381  869  702 
382  732  714 
383  693  503 
384  843  676 
385  714  940 
386  56   287 
387  32   344 
388  287  76  
389  799  89  
390  977  550 
391  619  805 
392  614  736 
393  583  492 
394  268  718 
395  792  495 
396  806  250 
397  208  304 
398  98   154 
399  444  144 
400  202  229 
401  196  204 
DEMAND_SECTION
1    0   
2    7   
3    5   
4    6   
5    10  
6    6   
7    7   
8    5   
9    10  
10   2   
11   4   
12   8   
13   8   
14   4   
15   9   
16   6   
17   5   
18   58  
19   10  
20   8   
21   2   
22   9   
23   5   
24   3   
25   4   
26   9   
27   2   
28   8   
29   7   
30   9   
31   8   
32   62  
33   71  
34   6   
35   2   
36   9   
37   56  
38   3   
39   6   
40   7   
41   8   
42   7   
43   6   
44   3   
45   10  
46   7   
47   6   
48   10  
49   2   
50   7   
51   1   
52   6   
53   1   
54   8   
55   7   
56   2   
57   8   
58   1   
59   5   
60   4   
61   5   
62   2   
63   6   
64   7   
65   1   
66   10  
67   72  
68   9   
69   5   
70   8   
71   10  
72   98  
73   7   
74   10  
75   5   
76   9   
77   4   
78   76  
79   5   
80   6   
81   1   
82   8   
83   10  
84   2   
85   7   
86   10  
87   5   
88   8   
89   3   
90   2   
91   8   
92   9   
93   1   
94   2   
95   56  
96   9   
97   5   
98   3   
99   57  
100  3   
101  10  
102  10  
103  2   
104  1   
105  3   
106  6   
107  2   
108  5   
109  2   
110  9   
111  3   
112  2   
113  4   
114  2   
115  6   
116  7   
117  76  
118  5   
119  3   
120  7   
121  8   
122  7   
123  9   
124  81  
125  4   
126  9   
127  6   
128  5   
129  2   
130  10  
131  8   
132  10  
133  7   
134  8   
135  7   
136  8   
137  4   
138  7   
139  3   
140  4   
141  85  
142  7   
143  81  
144  6   
145  3   
146  3   
147  6   
148  1   
149  7   
150  3   
151  98  
152  4   
153  9   
154  4   
155  4   
156  7   
157  8   
158  5   
159  10  
160  1   
161  1   
162  10  
163  8   
164  3   
165  7   
166  4   
167  5   
168  8   
169  5   
170  10  
171  5   
172  6   
173  4   
174  3   
175  10  
176  8   
177  7   
178  5   
179  4   
180  68  
181  4   
182  5   
183  4   
184  8   
185  10  
186  2   
187  7   
188  7   
189  3   
190  10  
191  7   
192  4   
193  8   
194  10  
195  6   
196  2   
197  10  
198  9   
199  5   
200  3   
201  10  
202  10  
203  7   
204  3   
205  3   
206  85  
207  1   
208  2   
209  6   
210  5   
211  9   
212  10  
213  8   
214  8   
215  70  
216  5   
217  3   
218  7   
219  1   
220  4   
221  7   
222  10  
223  9   
224  56  
225  7   
226  4   
227  4   
228  3   
229  9   
230  5   
231  61  
232  9   
233  1   
234  1   
235  3   
236  6   
237  64  
238  4   
239  2   
240  10  
241  65  
242  7   
243  6   
244  1   
245  2   
246  5   
247  9   
248  4   
249  5   
250  6   
251  10  
252  9   
253  73  
254  4   
255  8   
256  9   
257  10  
258  10  
259  7   
260  10  
261  9   
262  7   
263  9   
264  1   
265  9   
266  2   
267  76  
268  1   
269  3   
270  3   
271  7   
272  5   
273  9   
274  4   
275  7   
276  3   
277  9   
278  5   
279  7   
280  4   
281  8   
282  7   
283  5   
284  84  
285  2   
286  3   
287  6   
288  8   
289  10  
290  3   
291  86  
292  10  
293  2   
294  5   
295  9   
296  9   
297  66  
298  10  
299  2   
300  7   
301  61  
302  5   
303  10  
304  8   
305  4   
306  10  
307  2   
308  3   
309  9   
310  4   
311  10  
312  8   
313  8   
314  8   
315  9   
316  7   
317  6   
318  6   
319  98  
320  1   
321  5   
322  3   
323  8   
324  4   
325  6   
326  1   
327  9   
328  6   
329  1   
330  82  
331  5   
332  2   
333  9   
334  5   
335  7   
336  9   
337  5   
338  7   
339  5   
340  5   
341  3   
342  8   
343  4   
344  6   
345  1   
346  9   
347  7   
348  9   
349  9   
350  9   
351  60  
352  5   
353  88  
354  7   
355  1   
356  5   
357  1   
358  7   
359  8   
360  7   
361  8   
362  10  
363  3   
364  1   
365  10  
366  1   
367  9   
368  2   
369  3   
370  2   
371  5   
372  6   
373  7   
374  7   
375  1   
376  4   
377  4   
378  8   
379  4   
380  8   
381  1   
382  2   
383  53  
384  5   
385  7   
386  5   
387  2   
388  4   
389  10  
390  9   
391  7   
392  10  
393  2   
394  4   
395  9   
396  3   
397  2   
398  5   
399  5   
400  67  
401  6   
DEPOT_SECTION
1
-1
EOF
