NAME : XML400_1145_24
COMMENT : Generated as the XML100 dataset from the CVRPLIB
TYPE : CVRP
DIMENSION : 401
EDGE_WEIGHT_TYPE : EUC_2D
CAPACITY : 1117
NODE_COORD_SECTION
1    662  50  
2    89   733 
3    967  68  
4    391  537 
5    298  309 
6    868  620 
7    227  694 
8    180  848 
9    476  352 
10   535  676 
11   649  670 
12   38   782 
13   927  553 
14   407  755 
15   529  125 
16   569  170 
17   237  362 
18   324  330 
19   808  452 
20   656  431 
21   511  165 
22   709  177 
23   468  69  
24   609  346 
25   123  214 
26   554  10  
27   515  329 
28   540  93  
29   832  112 
30   992  995 
31   865  573 
32   20   481 
33   695  808 
34   911  140 
35   242  957 
36   188  321 
37   121  667 
38   574  612 
39   306  303 
40   88   99  
41   843  535 
42   322  284 
43   282  876 
44   926  133 
45   19   911 
46   840  228 
47   518  833 
48   822  570 
49   618  691 
50   927  134 
51   753  726 
52   780  600 
53   440  522 
54   370  207 
55   10   300 
56   501  794 
57   535  378 
58   540  227 
59   238  29  
60   700  450 
61   785  27  
62   304  895 
63   637  528 
64   888  784 
65   607  923 
66   907  379 
67   168  305 
68   294  319 
69   540  222 
70   648  667 
71   811  941 
72   224  843 
73   529  972 
74   143  24  
75   990  800 
76   55   567 
77   451  415 
78   749  737 
79   280  115 
80   840  721 
81   993  316 
82   149  40  
83   738  453 
84   703  68  
85   956  114 
86   162  6   
87   822  34  
88   798  580 
89   123  423 
90   560  699 
91   758  278 
92   959  695 
93   805  219 
94   177  650 
95   45   360 
96   624  692 
97   35   822 
98   396  294 
99   421  903 
100  114  59  
101  652  903 
102  438  156 
103  698  897 
104  591  407 
105  40   393 
106  75   207 
107  217  974 
108  606  279 
109  890  276 
110  459  80  
111  602  803 
112  530  140 
113  624  296 
114  487  169 
115  309  568 
116  536  192 
117  103  719 
118  604  345 
119  916  422 
120  658  810 
121  1000 412 
122  881  92  
123  512  774 
124  401  269 
125  724  108 
126  963  628 
127  211  535 
128  369  316 
129  711  165 
130  700  830 
131  624  682 
132  973  696 
133  446  514 
134  757  388 
135  29   491 
136  144  737 
137  957  580 
138  429  61  
139  173  220 
140  220  579 
141  870  297 
142  679  217 
143  596  457 
144  812  737 
145  610  868 
146  301  289 
147  357  696 
148  122  951 
149  7    830 
150  443  732 
151  843  311 
152  674  609 
153  113  322 
154  282  908 
155  888  727 
156  709  78  
157  49   148 
158  489  93  
159  953  456 
160  275  914 
161  461  766 
162  848  147 
163  278  430 
164  667  80  
165  968  584 
166  180  636 
167  238  479 
168  172  366 
169  549  865 
170  503  480 
171  998  877 
172  596  824 
173  921  355 
174  448  571 
175  39   363 
176  120  971 
177  53   554 
178  635  254 
179  436  444 
180  824  13  
181  70   988 
182  816  841 
183  717  817 
184  916  370 
185  668  305 
186  962  248 
187  432  595 
188  792  758 
189  706  673 
190  337  34  
191  584  845 
192  943  765 
193  789  716 
194  50   404 
195  508  199 
196  589  789 
197  930  435 
198  261  816 
199  979  211 
200  798  801 
201  235  31  
202  573  664 
203  372  293 
204  445  753 
205  447  314 
206  391  135 
207  631  809 
208  643  118 
209  530  833 
210  347  223 
211  270  110 
212  534  476 
213  422  671 
214  334  387 
215  215  704 
216  233  749 
217  715  105 
218  501  429 
219  708  987 
220  281  514 
221  758  826 
222  454  433 
223  63   557 
224  629  303 
225  721  535 
226  85   580 
227  594  448 
228  571  83  
229  501  662 
230  260  32  
231  107  860 
232  740  40  
233  307  912 
234  178  938 
235  62   983 
236  841  873 
237  420  700 
238  362  866 
239  443  46  
240  240  751 
241  538  710 
242  727  973 
243  891  586 
244  342  511 
245  120  398 
246  191  705 
247  543  101 
248  234  932 
249  186  101 
250  765  293 
251  275  48  
252  915  921 
253  948  316 
254  988  352 
255  756  631 
256  971  946 
257  983  673 
258  586  201 
259  909  77  
260  666  81  
261  784  958 
262  746  675 
263  531  131 
264  89   414 
265  188  57  
266  434  436 
267  213  733 
268  483  90  
269  690  779 
270  230  822 
271  490  861 
272  163  503 
273  464  571 
274  284  631 
275  132  753 
276  268  686 
277  7    758 
278  152  93  
279  849  408 
280  630  895 
281  95   462 
282  534  927 
283  554  100 
284  473  929 
285  348  251 
286  440  105 
287  711  330 
288  984  336 
289  484  306 
290  769  393 
291  17   956 
292  799  802 
293  200  650 
294  153  398 
295  522  530 
296  228  748 
297  781  650 
298  746  692 
299  769  941 
300  586  56  
301  374  640 
302  759  878 
303  788  774 
304  417  629 
305  718  477 
306  872  773 
307  395  470 
308  541  682 
309  676  498 
310  358  826 
311  763  893 
312  221  183 
313  246  356 
314  463  363 
315  436  89  
316  257  532 
317  497  886 
318  375  1000
319  487  683 
320  263  557 
321  778  886 
322  919  462 
323  579  542 
324  713  640 
325  0    466 
326  80   538 
327  721  464 
328  938  331 
329  651  912 
330  147  219 
331  914  230 
332  979  121 
333  211  240 
334  156  969 
335  151  207 
336  642  692 
337  88   691 
338  917  640 
339  463  708 
340  186  997 
341  217  27  
342  56   738 
343  121  68  
344  146  479 
345  646  51  
346  91   710 
347  479  279 
348  585  980 
349  460  549 
350  776  538 
351  455  452 
352  241  114 
353  435  217 
354  884  220 
355  625  881 
356  60   605 
357  175  919 
358  521  6   
359  357  828 
360  370  520 
361  496  80  
362  304  831 
363  646  549 
364  691  282 
365  655  109 
366  711  687 
367  623  803 
368  386  320 
369  551  653 
370  442  81  
371  691  547 
372  364  152 
373  314  331 
374  99   937 
375  345  669 
376  959  730 
377  372  961 
378  279  733 
379  1    779 
380  444  720 
381  948  101 
382  723  895 
383  748  174 
384  720  84  
385  582  379 
386  777  475 
387  853  851 
388  760  669 
389  567  274 
390  462  566 
391  853  469 
392  736  567 
393  347  621 
394  726  150 
395  250  130 
396  669  671 
397  858  705 
398  34   17  
399  925  862 
400  877  413 
401  359  576 
DEMAND_SECTION
1    0   
2    28  
3    8   
4    20  
5    68  
6    84  
7    45  
8    97  
9    7   
10   52  
11   69  
12   91  
13   71  
14   24  
15   94  
16   27  
17   6   
18   8   
19   55  
20   77  
21   97  
22   14  
23   60  
24   80  
25   3   
26   21  
27   74  
28   71  
29   89  
30   79  
31   54  
32   35  
33   61  
34   92  
35   46  
36   76  
37   30  
38   92  
39   15  
40   74  
41   79  
42   7   
43   96  
44   74  
45   7   
46   17  
47   34  
48   29  
49   32  
50   1   
51   38  
52   16  
53   70  
54   45  
55   37  
56   28  
57   54  
58   49  
59   51  
60   2   
61   79  
62   40  
63   80  
64   15  
65   58  
66   90  
67   90  
68   69  
69   32  
70   39  
71   17  
72   11  
73   51  
74   39  
75   80  
76   10  
77   50  
78   29  
79   39  
80   29  
81   100 
82   54  
83   36  
84   43  
85   71  
86   76  
87   74  
88   31  
89   88  
90   36  
91   51  
92   92  
93   90  
94   56  
95   55  
96   93  
97   64  
98   85  
99   7   
100  8   
101  14  
102  5   
103  41  
104  62  
105  9   
106  32  
107  5   
108  88  
109  84  
110  72  
111  58  
112  74  
113  10  
114  25  
115  70  
116  97  
117  34  
118  75  
119  82  
120  49  
121  95  
122  53  
123  2   
124  31  
125  11  
126  1   
127  72  
128  90  
129  18  
130  34  
131  15  
132  83  
133  16  
134  65  
135  28  
136  77  
137  37  
138  49  
139  91  
140  22  
141  45  
142  48  
143  54  
144  42  
145  27  
146  99  
147  54  
148  20  
149  100 
150  58  
151  34  
152  76  
153  20  
154  1   
155  3   
156  47  
157  96  
158  16  
159  65  
160  32  
161  75  
162  86  
163  49  
164  91  
165  57  
166  84  
167  12  
168  14  
169  4   
170  95  
171  50  
172  37  
173  5   
174  2   
175  93  
176  5   
177  68  
178  67  
179  32  
180  45  
181  77  
182  10  
183  33  
184  88  
185  93  
186  69  
187  99  
188  49  
189  43  
190  81  
191  79  
192  71  
193  73  
194  48  
195  67  
196  6   
197  43  
198  55  
199  25  
200  16  
201  68  
202  61  
203  33  
204  90  
205  43  
206  55  
207  56  
208  48  
209  31  
210  28  
211  11  
212  42  
213  1   
214  76  
215  9   
216  50  
217  63  
218  31  
219  35  
220  7   
221  85  
222  56  
223  86  
224  98  
225  57  
226  4   
227  97  
228  57  
229  13  
230  96  
231  8   
232  25  
233  28  
234  8   
235  22  
236  13  
237  62  
238  3   
239  45  
240  42  
241  17  
242  27  
243  24  
244  27  
245  88  
246  91  
247  99  
248  89  
249  7   
250  15  
251  14  
252  94  
253  75  
254  41  
255  42  
256  17  
257  14  
258  99  
259  18  
260  33  
261  90  
262  83  
263  90  
264  30  
265  64  
266  66  
267  9   
268  78  
269  56  
270  45  
271  32  
272  54  
273  82  
274  35  
275  45  
276  79  
277  22  
278  15  
279  17  
280  49  
281  94  
282  12  
283  72  
284  52  
285  20  
286  34  
287  1   
288  85  
289  88  
290  51  
291  5   
292  70  
293  21  
294  16  
295  83  
296  50  
297  78  
298  39  
299  86  
300  68  
301  16  
302  99  
303  20  
304  83  
305  43  
306  49  
307  65  
308  33  
309  11  
310  88  
311  71  
312  28  
313  79  
314  70  
315  87  
316  28  
317  20  
318  60  
319  61  
320  67  
321  84  
322  39  
323  76  
324  15  
325  39  
326  89  
327  20  
328  77  
329  49  
330  47  
331  77  
332  16  
333  85  
334  14  
335  22  
336  94  
337  82  
338  57  
339  72  
340  81  
341  35  
342  86  
343  7   
344  16  
345  96  
346  12  
347  90  
348  84  
349  23  
350  40  
351  84  
352  68  
353  18  
354  70  
355  59  
356  79  
357  10  
358  40  
359  60  
360  73  
361  45  
362  83  
363  77  
364  35  
365  26  
366  12  
367  41  
368  37  
369  47  
370  23  
371  38  
372  1   
373  61  
374  97  
375  15  
376  26  
377  14  
378  39  
379  78  
380  58  
381  45  
382  96  
383  53  
384  98  
385  70  
386  59  
387  56  
388  44  
389  33  
390  75  
391  23  
392  74  
393  12  
394  85  
395  99  
396  71  
397  81  
398  40  
399  72  
400  63  
401  84  
DEPOT_SECTION
1
-1
EOF
