NAME : XML400_2163_20
COMMENT : Generated as the XML100 dataset from the CVRPLIB
TYPE : CVRP
DIMENSION : 401
EDGE_WEIGHT_TYPE : EUC_2D
CAPACITY : 414
NODE_COORD_SECTION
1    500  500 
2    640  329 
3    858  835 
4    634  133 
5    774  274 
6    984  660 
7    781  170 
8    863  123 
9    294  222 
10   5    586 
11   100  366 
12   94   304 
13   158  563 
14   184  701 
15   502  763 
16   356  956 
17   317  80  
18   485  796 
19   546  964 
20   228  398 
21   813  899 
22   811  224 
23   96   355 
24   150  573 
25   843  787 
26   772  80  
27   505  392 
28   614  982 
29   955  866 
30   538  416 
31   624  995 
32   745  885 
33   189  945 
34   271  328 
35   823  850 
36   586  748 
37   438  877 
38   824  9   
39   25   406 
40   11   898 
41   859  232 
42   706  377 
43   639  714 
44   604  91  
45   533  49  
46   154  974 
47   50   993 
48   78   188 
49   458  549 
50   918  412 
51   546  671 
52   944  559 
53   664  919 
54   811  443 
55   261  394 
56   820  119 
57   711  877 
58   253  255 
59   698  633 
60   763  762 
61   846  122 
62   406  97  
63   22   925 
64   89   695 
65   267  967 
66   891  547 
67   451  806 
68   708  709 
69   37   114 
70   504  641 
71   576  657 
72   603  772 
73   42   714 
74   166  920 
75   342  346 
76   729  377 
77   548  841 
78   409  628 
79   696  294 
80   985  195 
81   532  51  
82   80   61  
83   656  797 
84   89   393 
85   16   427 
86   365  742 
87   577  732 
88   980  210 
89   107  712 
90   416  891 
91   872  515 
92   484  290 
93   133  450 
94   806  170 
95   141  481 
96   75   634 
97   429  866 
98   868  1   
99   689  951 
100  275  826 
101  169  817 
102  879  437 
103  435  122 
104  153  809 
105  247  346 
106  940  807 
107  486  609 
108  599  248 
109  285  866 
110  524  74  
111  913  273 
112  107  289 
113  34   741 
114  708  905 
115  755  855 
116  200  126 
117  266  965 
118  273  851 
119  158  245 
120  388  936 
121  836  964 
122  548  664 
123  487  267 
124  710  214 
125  800  507 
126  922  600 
127  813  455 
128  59   91  
129  195  280 
130  745  576 
131  806  681 
132  873  204 
133  854  828 
134  704  166 
135  363  102 
136  973  309 
137  120  869 
138  275  892 
139  608  49  
140  458  92  
141  158  505 
142  23   698 
143  175  185 
144  144  417 
145  477  388 
146  370  927 
147  692  133 
148  955  534 
149  7    951 
150  780  538 
151  560  544 
152  174  966 
153  307  690 
154  616  789 
155  388  791 
156  850  71  
157  341  459 
158  46   938 
159  432  488 
160  303  603 
161  270  26  
162  714  817 
163  121  321 
164  842  90  
165  998  450 
166  387  723 
167  987  938 
168  922  73  
169  5    877 
170  902  369 
171  452  559 
172  703  150 
173  282  642 
174  789  586 
175  999  557 
176  663  846 
177  288  182 
178  618  951 
179  254  845 
180  733  16  
181  260  92  
182  532  133 
183  254  445 
184  712  100 
185  908  789 
186  726  669 
187  739  230 
188  926  959 
189  249  442 
190  730  10  
191  169  342 
192  599  582 
193  485  844 
194  287  572 
195  41   449 
196  765  232 
197  163  420 
198  67   434 
199  793  169 
200  5    611 
201  357  761 
202  713  307 
203  867  365 
204  568  316 
205  805  152 
206  793  663 
207  361  660 
208  857  845 
209  836  395 
210  477  215 
211  251  7   
212  935  630 
213  982  989 
214  134  334 
215  708  93  
216  411  355 
217  35   858 
218  481  32  
219  104  985 
220  384  383 
221  681  499 
222  599  42  
223  729  646 
224  274  340 
225  347  766 
226  366  352 
227  237  49  
228  490  229 
229  1000 489 
230  939  897 
231  88   353 
232  738  834 
233  743  567 
234  982  193 
235  476  461 
236  450  988 
237  271  330 
238  650  744 
239  125  630 
240  302  335 
241  588  387 
242  884  785 
243  572  290 
244  199  444 
245  596  745 
246  290  482 
247  982  673 
248  618  805 
249  511  404 
250  791  876 
251  558  763 
252  708  680 
253  589  360 
254  696  962 
255  84   611 
256  824  253 
257  870  872 
258  762  125 
259  103  727 
260  421  259 
261  380  645 
262  752  764 
263  784  567 
264  949  634 
265  513  598 
266  776  572 
267  812  229 
268  632  707 
269  497  101 
270  951  838 
271  381  316 
272  205  594 
273  565  491 
274  74   924 
275  985  296 
276  4    469 
277  55   416 
278  703  61  
279  631  469 
280  648  363 
281  247  205 
282  366  961 
283  137  333 
284  713  529 
285  376  844 
286  640  126 
287  811  264 
288  29   912 
289  662  577 
290  436  512 
291  925  789 
292  868  929 
293  693  510 
294  982  384 
295  853  800 
296  116  934 
297  821  39  
298  324  136 
299  509  218 
300  589  992 
301  163  713 
302  146  4   
303  840  839 
304  863  962 
305  252  143 
306  341  746 
307  585  716 
308  418  468 
309  137  961 
310  366  268 
311  128  247 
312  692  289 
313  810  52  
314  838  361 
315  23   319 
316  777  540 
317  564  414 
318  254  984 
319  926  83  
320  473  128 
321  201  609 
322  917  263 
323  775  835 
324  285  333 
325  571  556 
326  707  62  
327  331  556 
328  189  966 
329  947  919 
330  53   971 
331  203  519 
332  172  275 
333  646  24  
334  866  692 
335  850  586 
336  631  984 
337  151  81  
338  378  209 
339  926  334 
340  422  581 
341  253  870 
342  600  825 
343  240  680 
344  539  28  
345  592  210 
346  412  261 
347  922  997 
348  799  252 
349  344  602 
350  121  710 
351  922  350 
352  150  90  
353  717  79  
354  540  28  
355  578  158 
356  824  955 
357  766  367 
358  498  296 
359  364  305 
360  588  208 
361  487  632 
362  577  31  
363  88   645 
364  453  648 
365  824  820 
366  627  401 
367  333  857 
368  2    92  
369  198  403 
370  254  551 
371  1000 920 
372  971  228 
373  593  35  
374  384  279 
375  189  421 
376  63   992 
377  573  321 
378  144  153 
379  690  70  
380  585  826 
381  121  444 
382  212  702 
383  333  681 
384  778  722 
385  674  354 
386  578  795 
387  86   342 
388  82   717 
389  583  74  
390  499  102 
391  879  890 
392  7    552 
393  492  72  
394  919  572 
395  200  696 
396  899  566 
397  606  588 
398  931  137 
399  811  858 
400  800  62  
401  527  681 
DEMAND_SECTION
1    0   
2    39  
3    60  
4    19  
5    44  
6    89  
7    28  
8    43  
9    66  
10   39  
11   87  
12   86  
13   5   
14   41  
15   80  
16   41  
17   59  
18   6   
19   64  
20   100 
21   83  
22   37  
23   98  
24   33  
25   62  
26   15  
27   24  
28   81  
29   92  
30   30  
31   84  
32   78  
33   50  
34   62  
35   86  
36   73  
37   17  
38   6   
39   64  
40   41  
41   5   
42   7   
43   72  
44   25  
45   44  
46   28  
47   11  
48   73  
49   23  
50   30  
51   70  
52   93  
53   56  
54   3   
55   79  
56   5   
57   55  
58   59  
59   62  
60   80  
61   25  
62   67  
63   46  
64   17  
65   43  
66   57  
67   31  
68   92  
69   89  
70   69  
71   79  
72   52  
73   48  
74   22  
75   69  
76   1   
77   69  
78   11  
79   16  
80   16  
81   24  
82   88  
83   85  
84   70  
85   81  
86   5   
87   72  
88   24  
89   25  
90   6   
91   51  
92   92  
93   84  
94   6   
95   88  
96   34  
97   8   
98   23  
99   94  
100  20  
101  42  
102  5   
103  61  
104  42  
105  54  
106  87  
107  36  
108  11  
109  12  
110  5   
111  30  
112  75  
113  14  
114  98  
115  90  
116  60  
117  31  
118  8   
119  59  
120  4   
121  57  
122  78  
123  55  
124  28  
125  88  
126  94  
127  40  
128  86  
129  71  
130  57  
131  60  
132  10  
133  71  
134  44  
135  84  
136  24  
137  9   
138  13  
139  5   
140  63  
141  7   
142  25  
143  65  
144  94  
145  51  
146  11  
147  41  
148  68  
149  43  
150  52  
151  93  
152  16  
153  28  
154  82  
155  21  
156  35  
157  83  
158  30  
159  79  
160  26  
161  75  
162  84  
163  85  
164  19  
165  16  
166  44  
167  67  
168  21  
169  38  
170  19  
171  34  
172  9   
173  39  
174  59  
175  78  
176  62  
177  71  
178  65  
179  40  
180  42  
181  67  
182  42  
183  99  
184  13  
185  57  
186  52  
187  14  
188  64  
189  100 
190  39  
191  52  
192  67  
193  13  
194  18  
195  56  
196  4   
197  74  
198  57  
199  5   
200  16  
201  39  
202  16  
203  36  
204  43  
205  10  
206  99  
207  3   
208  87  
209  15  
210  72  
211  92  
212  96  
213  83  
214  74  
215  20  
216  89  
217  20  
218  72  
219  47  
220  55  
221  22  
222  28  
223  63  
224  77  
225  47  
226  71  
227  54  
228  78  
229  33  
230  98  
231  82  
232  79  
233  75  
234  6   
235  86  
236  24  
237  88  
238  68  
239  4   
240  77  
241  8   
242  86  
243  47  
244  72  
245  99  
246  93  
247  98  
248  64  
249  20  
250  59  
251  70  
252  97  
253  8   
254  88  
255  39  
256  47  
257  51  
258  14  
259  10  
260  54  
261  33  
262  68  
263  97  
264  52  
265  65  
266  99  
267  40  
268  94  
269  78  
270  59  
271  55  
272  37  
273  47  
274  4   
275  34  
276  70  
277  66  
278  24  
279  47  
280  41  
281  91  
282  35  
283  77  
284  54  
285  47  
286  50  
287  43  
288  39  
289  66  
290  41  
291  94  
292  85  
293  52  
294  34  
295  86  
296  14  
297  13  
298  93  
299  23  
300  73  
301  39  
302  81  
303  90  
304  93  
305  99  
306  23  
307  71  
308  82  
309  33  
310  69  
311  71  
312  42  
313  39  
314  47  
315  99  
316  92  
317  38  
318  40  
319  43  
320  64  
321  32  
322  40  
323  84  
324  54  
325  58  
326  34  
327  37  
328  25  
329  86  
330  19  
331  8   
332  82  
333  12  
334  64  
335  59  
336  93  
337  86  
338  64  
339  23  
340  42  
341  30  
342  85  
343  42  
344  8   
345  24  
346  95  
347  59  
348  32  
349  11  
350  37  
351  26  
352  60  
353  1   
354  6   
355  29  
356  72  
357  10  
358  60  
359  79  
360  46  
361  15  
362  34  
363  12  
364  4   
365  57  
366  35  
367  28  
368  63  
369  98  
370  37  
371  79  
372  10  
373  18  
374  97  
375  67  
376  4   
377  14  
378  100 
379  10  
380  68  
381  78  
382  44  
383  21  
384  63  
385  16  
386  53  
387  91  
388  37  
389  22  
390  64  
391  54  
392  43  
393  88  
394  69  
395  39  
396  64  
397  90  
398  35  
399  70  
400  19  
401  66  
DEPOT_SECTION
1
-1
EOF
