NAME : XML600_1122_31
COMMENT : Generated as the XML100 dataset from the CVRPLIB
TYPE : CVRP
DIMENSION : 601
EDGE_WEIGHT_TYPE : EUC_2D
CAPACITY : 45
NODE_COORD_SECTION
1    124  237 
2    607  561 
3    787  757 
4    690  339 
5    671  335 
6    462  579 
7    784  877 
8    858  399 
9    288  799 
10   90   298 
11   751  300 
12   495  612 
13   5    986 
14   470  677 
15   680  923 
16   153  592 
17   893  640 
18   292  936 
19   974  210 
20   218  721 
21   550  575 
22   324  977 
23   573  540 
24   776  82  
25   767  253 
26   526  721 
27   773  351 
28   980  6   
29   384  228 
30   786  549 
31   674  735 
32   576  816 
33   592  931 
34   802  750 
35   302  585 
36   312  468 
37   882  513 
38   758  981 
39   82   51  
40   729  109 
41   524  643 
42   906  89  
43   733  646 
44   750  824 
45   798  910 
46   278  349 
47   173  592 
48   490  784 
49   102  141 
50   218  334 
51   241  336 
52   334  146 
53   559  75  
54   128  535 
55   490  878 
56   104  861 
57   911  899 
58   606  690 
59   647  462 
60   99   108 
61   697  301 
62   236  104 
63   646  762 
64   550  547 
65   655  93  
66   148  643 
67   136  260 
68   915  654 
69   339  848 
70   374  815 
71   678  552 
72   2    40  
73   790  802 
74   909  192 
75   813  633 
76   872  301 
77   419  584 
78   770  253 
79   432  950 
80   328  731 
81   246  113 
82   279  61  
83   593  77  
84   23   867 
85   355  294 
86   547  226 
87   205  206 
88   55   828 
89   262  987 
90   582  601 
91   366  708 
92   987  506 
93   144  622 
94   844  207 
95   885  86  
96   695  910 
97   571  951 
98   107  996 
99   783  712 
100  665  82  
101  329  133 
102  878  702 
103  783  303 
104  208  508 
105  9    317 
106  239  742 
107  503  681 
108  841  420 
109  536  876 
110  59   659 
111  709  804 
112  60   785 
113  767  754 
114  896  886 
115  65   73  
116  399  754 
117  804  156 
118  154  685 
119  81   673 
120  27   55  
121  49   330 
122  786  205 
123  112  279 
124  502  446 
125  282  452 
126  563  313 
127  864  808 
128  969  583 
129  646  985 
130  952  521 
131  441  454 
132  903  399 
133  248  157 
134  383  638 
135  386  774 
136  476  686 
137  437  587 
138  551  707 
139  685  280 
140  953  750 
141  673  705 
142  624  184 
143  922  781 
144  692  337 
145  61   34  
146  347  577 
147  240  185 
148  755  231 
149  235  326 
150  853  802 
151  788  26  
152  142  647 
153  327  445 
154  62   538 
155  23   290 
156  819  526 
157  702  90  
158  367  109 
159  585  597 
160  852  950 
161  426  195 
162  691  587 
163  988  712 
164  152  449 
165  106  342 
166  20   150 
167  473  135 
168  307  350 
169  272  2   
170  705  616 
171  192  369 
172  596  44  
173  696  558 
174  65   575 
175  127  886 
176  290  28  
177  705  643 
178  262  55  
179  518  408 
180  302  905 
181  660  986 
182  144  993 
183  312  797 
184  75   732 
185  197  730 
186  687  356 
187  685  661 
188  951  304 
189  843  451 
190  984  728 
191  56   489 
192  490  592 
193  654  444 
194  462  777 
195  305  394 
196  22   752 
197  537  133 
198  938  715 
199  778  735 
200  667  81  
201  416  746 
202  297  813 
203  646  799 
204  73   519 
205  133  570 
206  486  837 
207  396  791 
208  219  740 
209  384  844 
210  39   791 
211  914  744 
212  379  82  
213  524  976 
214  440  577 
215  257  632 
216  534  352 
217  489  210 
218  294  788 
219  509  713 
220  151  303 
221  808  344 
222  830  768 
223  483  166 
224  426  297 
225  207  887 
226  198  262 
227  349  342 
228  951  20  
229  174  737 
230  821  417 
231  179  523 
232  53   685 
233  392  816 
234  69   800 
235  466  863 
236  906  381 
237  673  658 
238  322  190 
239  156  130 
240  397  858 
241  537  514 
242  288  951 
243  985  790 
244  537  105 
245  443  98  
246  389  127 
247  887  623 
248  889  175 
249  196  59  
250  875  667 
251  317  376 
252  990  990 
253  821  138 
254  966  129 
255  505  832 
256  378  224 
257  268  501 
258  544  256 
259  611  822 
260  862  831 
261  215  355 
262  449  104 
263  718  149 
264  461  505 
265  600  431 
266  558  47  
267  466  449 
268  407  372 
269  509  29  
270  226  473 
271  282  633 
272  760  294 
273  554  18  
274  2    606 
275  997  853 
276  524  184 
277  892  13  
278  511  74  
279  591  332 
280  941  472 
281  375  964 
282  176  773 
283  986  480 
284  903  198 
285  94   316 
286  761  770 
287  149  261 
288  908  789 
289  734  771 
290  389  755 
291  407  376 
292  623  418 
293  267  253 
294  911  184 
295  348  70  
296  823  876 
297  445  924 
298  264  485 
299  348  317 
300  172  82  
301  953  558 
302  869  196 
303  895  59  
304  723  627 
305  251  897 
306  388  646 
307  39   879 
308  872  350 
309  503  605 
310  702  851 
311  27   267 
312  1000 755 
313  354  15  
314  634  149 
315  121  796 
316  608  496 
317  505  660 
318  458  72  
319  990  845 
320  159  926 
321  969  633 
322  147  704 
323  579  883 
324  312  628 
325  277  917 
326  241  842 
327  14   534 
328  362  67  
329  672  162 
330  510  240 
331  587  459 
332  20   906 
333  778  813 
334  74   468 
335  679  133 
336  7    378 
337  364  795 
338  960  152 
339  126  487 
340  121  665 
341  816  961 
342  409  156 
343  926  37  
344  757  79  
345  729  902 
346  289  648 
347  25   795 
348  832  11  
349  729  511 
350  79   286 
351  714  388 
352  62   462 
353  216  529 
354  440  246 
355  784  721 
356  280  541 
357  259  91  
358  764  105 
359  20   74  
360  298  198 
361  704  468 
362  154  837 
363  160  66  
364  151  673 
365  621  299 
366  329  527 
367  789  957 
368  875  206 
369  660  245 
370  440  641 
371  893  376 
372  138  187 
373  877  508 
374  219  422 
375  766  155 
376  596  507 
377  957  360 
378  661  874 
379  397  554 
380  807  690 
381  937  400 
382  127  284 
383  44   277 
384  114  85  
385  689  591 
386  185  801 
387  97   917 
388  355  157 
389  953  264 
390  777  304 
391  102  385 
392  650  748 
393  493  792 
394  155  159 
395  126  86  
396  617  333 
397  686  930 
398  959  451 
399  641  141 
400  541  450 
401  665  745 
402  267  574 
403  43   820 
404  719  725 
405  699  896 
406  506  599 
407  532  737 
408  926  148 
409  705  427 
410  682  663 
411  534  447 
412  470  255 
413  78   405 
414  832  351 
415  538  417 
416  831  908 
417  391  645 
418  897  615 
419  75   763 
420  28   413 
421  548  439 
422  881  356 
423  536  748 
424  870  602 
425  841  148 
426  933  2   
427  66   664 
428  515  419 
429  771  116 
430  398  508 
431  138  289 
432  838  780 
433  230  143 
434  139  751 
435  404  933 
436  6    398 
437  913  712 
438  893  743 
439  531  656 
440  956  372 
441  359  391 
442  134  53  
443  888  902 
444  909  705 
445  410  603 
446  527  761 
447  412  393 
448  267  164 
449  748  199 
450  280  530 
451  897  587 
452  136  476 
453  212  880 
454  531  377 
455  190  56  
456  684  317 
457  82   904 
458  335  586 
459  60   229 
460  834  517 
461  770  96  
462  18   101 
463  573  741 
464  83   496 
465  398  889 
466  697  139 
467  106  470 
468  684  685 
469  874  598 
470  297  196 
471  313  778 
472  158  764 
473  786  970 
474  31   552 
475  830  686 
476  54   136 
477  292  364 
478  24   949 
479  762  878 
480  531  219 
481  3    72  
482  202  708 
483  373  846 
484  711  158 
485  769  374 
486  2    372 
487  46   555 
488  534  400 
489  240  11  
490  364  306 
491  518  410 
492  512  717 
493  303  67  
494  734  699 
495  178  710 
496  909  798 
497  910  763 
498  934  882 
499  532  811 
500  884  872 
501  900  569 
502  337  730 
503  358  533 
504  168  781 
505  364  863 
506  300  946 
507  972  185 
508  408  808 
509  309  933 
510  311  210 
511  392  55  
512  19   20  
513  569  743 
514  480  513 
515  47   765 
516  116  218 
517  373  688 
518  860  892 
519  189  467 
520  653  193 
521  821  662 
522  156  299 
523  721  95  
524  352  210 
525  41   574 
526  879  114 
527  416  878 
528  735  106 
529  209  176 
530  856  670 
531  626  226 
532  727  794 
533  842  79  
534  237  759 
535  692  418 
536  194  788 
537  330  834 
538  732  728 
539  361  147 
540  535  309 
541  552  114 
542  651  511 
543  119  232 
544  322  857 
545  574  556 
546  687  851 
547  487  259 
548  186  807 
549  87   554 
550  105  361 
551  869  855 
552  173  477 
553  355  463 
554  578  791 
555  304  161 
556  511  463 
557  184  105 
558  851  797 
559  486  537 
560  967  761 
561  447  326 
562  25   188 
563  843  146 
564  233  375 
565  479  516 
566  720  740 
567  924  628 
568  851  415 
569  475  909 
570  708  604 
571  327  0   
572  955  243 
573  352  182 
574  284  978 
575  140  677 
576  611  689 
577  798  543 
578  116  585 
579  262  401 
580  611  289 
581  167  578 
582  797  336 
583  432  970 
584  35   358 
585  832  949 
586  742  485 
587  526  214 
588  44   690 
589  328  607 
590  105  715 
591  152  152 
592  461  987 
593  827  556 
594  266  650 
595  780  871 
596  493  549 
597  253  976 
598  556  596 
599  555  780 
600  646  233 
601  631  281 
DEMAND_SECTION
1    0   
2    6   
3    8   
4    5   
5    10  
6    8   
7    3   
8    10  
9    4   
10   3   
11   8   
12   1   
13   8   
14   6   
15   4   
16   6   
17   5   
18   10  
19   4   
20   9   
21   7   
22   6   
23   4   
24   6   
25   1   
26   4   
27   2   
28   10  
29   6   
30   1   
31   3   
32   6   
33   4   
34   1   
35   4   
36   3   
37   5   
38   4   
39   7   
40   9   
41   4   
42   1   
43   4   
44   9   
45   2   
46   8   
47   10  
48   1   
49   2   
50   4   
51   10  
52   2   
53   4   
54   1   
55   7   
56   5   
57   2   
58   3   
59   3   
60   10  
61   10  
62   6   
63   5   
64   5   
65   8   
66   3   
67   10  
68   10  
69   10  
70   3   
71   5   
72   10  
73   10  
74   5   
75   9   
76   6   
77   10  
78   10  
79   6   
80   7   
81   4   
82   3   
83   4   
84   9   
85   5   
86   6   
87   3   
88   6   
89   10  
90   5   
91   3   
92   5   
93   5   
94   4   
95   3   
96   8   
97   2   
98   1   
99   1   
100  10  
101  8   
102  10  
103  2   
104  7   
105  6   
106  10  
107  1   
108  10  
109  8   
110  8   
111  2   
112  9   
113  3   
114  10  
115  5   
116  7   
117  10  
118  4   
119  5   
120  6   
121  6   
122  1   
123  5   
124  6   
125  10  
126  7   
127  2   
128  9   
129  1   
130  3   
131  8   
132  8   
133  9   
134  7   
135  4   
136  9   
137  7   
138  8   
139  4   
140  10  
141  10  
142  4   
143  5   
144  1   
145  5   
146  3   
147  7   
148  8   
149  2   
150  5   
151  2   
152  7   
153  10  
154  8   
155  9   
156  2   
157  10  
158  7   
159  6   
160  9   
161  5   
162  9   
163  6   
164  9   
165  5   
166  9   
167  4   
168  2   
169  7   
170  1   
171  5   
172  8   
173  9   
174  2   
175  10  
176  8   
177  9   
178  2   
179  3   
180  10  
181  5   
182  3   
183  5   
184  10  
185  7   
186  10  
187  6   
188  10  
189  7   
190  3   
191  7   
192  4   
193  4   
194  6   
195  2   
196  9   
197  6   
198  1   
199  1   
200  2   
201  10  
202  3   
203  2   
204  1   
205  4   
206  4   
207  1   
208  2   
209  5   
210  1   
211  2   
212  6   
213  2   
214  4   
215  9   
216  8   
217  7   
218  4   
219  4   
220  5   
221  1   
222  2   
223  5   
224  6   
225  5   
226  6   
227  2   
228  7   
229  9   
230  7   
231  8   
232  4   
233  4   
234  10  
235  5   
236  6   
237  2   
238  10  
239  9   
240  6   
241  10  
242  3   
243  7   
244  10  
245  8   
246  3   
247  9   
248  4   
249  1   
250  6   
251  5   
252  10  
253  4   
254  5   
255  8   
256  4   
257  6   
258  9   
259  6   
260  6   
261  6   
262  4   
263  1   
264  5   
265  4   
266  3   
267  5   
268  2   
269  7   
270  5   
271  1   
272  5   
273  9   
274  6   
275  7   
276  5   
277  6   
278  4   
279  7   
280  6   
281  7   
282  1   
283  10  
284  7   
285  9   
286  9   
287  2   
288  7   
289  2   
290  5   
291  6   
292  9   
293  3   
294  2   
295  1   
296  1   
297  6   
298  1   
299  10  
300  1   
301  4   
302  8   
303  3   
304  10  
305  6   
306  9   
307  5   
308  6   
309  4   
310  8   
311  4   
312  7   
313  6   
314  9   
315  2   
316  5   
317  2   
318  2   
319  3   
320  7   
321  5   
322  8   
323  6   
324  9   
325  3   
326  9   
327  2   
328  8   
329  10  
330  9   
331  6   
332  5   
333  10  
334  5   
335  2   
336  3   
337  6   
338  10  
339  2   
340  5   
341  6   
342  4   
343  4   
344  5   
345  2   
346  1   
347  9   
348  4   
349  10  
350  9   
351  1   
352  5   
353  5   
354  6   
355  8   
356  4   
357  6   
358  7   
359  6   
360  1   
361  6   
362  9   
363  6   
364  7   
365  4   
366  3   
367  9   
368  5   
369  8   
370  5   
371  6   
372  6   
373  8   
374  10  
375  1   
376  4   
377  2   
378  3   
379  8   
380  8   
381  10  
382  3   
383  9   
384  10  
385  2   
386  5   
387  4   
388  6   
389  6   
390  1   
391  9   
392  8   
393  4   
394  5   
395  7   
396  10  
397  10  
398  3   
399  7   
400  9   
401  6   
402  7   
403  1   
404  1   
405  5   
406  5   
407  10  
408  3   
409  9   
410  2   
411  1   
412  10  
413  5   
414  6   
415  4   
416  5   
417  3   
418  6   
419  5   
420  8   
421  3   
422  9   
423  10  
424  1   
425  2   
426  7   
427  5   
428  9   
429  10  
430  5   
431  5   
432  3   
433  7   
434  3   
435  3   
436  7   
437  7   
438  7   
439  1   
440  6   
441  6   
442  2   
443  6   
444  3   
445  9   
446  1   
447  9   
448  3   
449  8   
450  8   
451  5   
452  6   
453  2   
454  1   
455  5   
456  10  
457  4   
458  5   
459  7   
460  9   
461  5   
462  1   
463  10  
464  7   
465  2   
466  9   
467  2   
468  6   
469  5   
470  8   
471  9   
472  3   
473  9   
474  3   
475  3   
476  2   
477  1   
478  2   
479  6   
480  8   
481  10  
482  1   
483  9   
484  5   
485  3   
486  9   
487  10  
488  3   
489  6   
490  3   
491  1   
492  4   
493  5   
494  2   
495  10  
496  1   
497  9   
498  3   
499  7   
500  9   
501  6   
502  10  
503  9   
504  2   
505  7   
506  3   
507  7   
508  6   
509  9   
510  6   
511  2   
512  8   
513  9   
514  1   
515  8   
516  8   
517  6   
518  8   
519  4   
520  9   
521  1   
522  5   
523  4   
524  10  
525  1   
526  8   
527  4   
528  4   
529  8   
530  10  
531  6   
532  2   
533  10  
534  5   
535  10  
536  7   
537  8   
538  10  
539  4   
540  9   
541  4   
542  10  
543  6   
544  5   
545  2   
546  9   
547  10  
548  6   
549  3   
550  9   
551  7   
552  4   
553  4   
554  3   
555  6   
556  1   
557  3   
558  5   
559  2   
560  2   
561  9   
562  10  
563  10  
564  8   
565  5   
566  2   
567  9   
568  3   
569  1   
570  9   
571  1   
572  9   
573  6   
574  2   
575  6   
576  3   
577  7   
578  1   
579  5   
580  2   
581  5   
582  1   
583  10  
584  4   
585  3   
586  1   
587  7   
588  10  
589  9   
590  8   
591  8   
592  3   
593  9   
594  6   
595  10  
596  1   
597  3   
598  2   
599  8   
600  1   
601  10  
DEPOT_SECTION
1
-1
EOF
