NAME : XML600_2333_32
COMMENT : Generated as the XML100 dataset from the CVRPLIB
TYPE : CVRP
DIMENSION : 601
EDGE_WEIGHT_TYPE : EUC_2D
CAPACITY : 79
NODE_COORD_SECTION
1    500  500 
2    347  113 
3    637  193 
4    147  576 
5    748  793 
6    632  752 
7    334  677 
8    142  327 
9    781  570 
10   85   619 
11   173  314 
12   234  846 
13   255  640 
14   483  647 
15   133  516 
16   515  590 
17   363  978 
18   149  640 
19   166  949 
20   106  678 
21   15   380 
22   763  301 
23   847  133 
24   756  24  
25   707  778 
26   371  680 
27   641  284 
28   721  969 
29   450  991 
30   385  605 
31   563  868 
32   424  444 
33   640  724 
34   330  675 
35   656  687 
36   588  970 
37   279  700 
38   275  748 
39   484  980 
40   713  147 
41   188  838 
42   73   622 
43   236  747 
44   713  830 
45   463  557 
46   326  668 
47   159  411 
48   209  241 
49   303  913 
50   624  510 
51   75   277 
52   690  693 
53   408  715 
54   690  37  
55   673  631 
56   771  120 
57   714  678 
58   458  990 
59   299  399 
60   518  56  
61   657  790 
62   228  384 
63   310  17  
64   155  427 
65   369  359 
66   484  584 
67   349  786 
68   174  278 
69   626  39  
70   259  749 
71   103  254 
72   311  530 
73   152  375 
74   173  407 
75   125  367 
76   700  91  
77   558  770 
78   347  983 
79   499  693 
80   286  985 
81   176  207 
82   633  37  
83   83   406 
84   468  971 
85   178  378 
86   328  731 
87   591  705 
88   93   410 
89   182  357 
90   178  405 
91   85   424 
92   211  411 
93   291  529 
94   413  137 
95   262  731 
96   632  840 
97   443  434 
98   167  917 
99   213  219 
100  118  466 
101  326  779 
102  402  899 
103  473  523 
104  121  1   
105  233  53  
106  422  505 
107  28   676 
108  842  8   
109  626  649 
110  294  804 
111  150  320 
112  253  394 
113  1    340 
114  120  377 
115  593  755 
116  962  710 
117  133  343 
118  145  735 
119  232  712 
120  419  956 
121  638  744 
122  90   637 
123  715  698 
124  218  566 
125  909  182 
126  468  49  
127  643  706 
128  180  567 
129  332  426 
130  278  464 
131  118  335 
132  403  724 
133  111  296 
134  50   704 
135  217  76  
136  340  784 
137  521  60  
138  268  517 
139  215  789 
140  271  43  
141  829  203 
142  229  315 
143  354  715 
144  104  302 
145  78   411 
146  582  838 
147  620  712 
148  56   481 
149  225  677 
150  92   413 
151  313  799 
152  721  764 
153  193  626 
154  294  300 
155  31   335 
156  661  740 
157  534  785 
158  497  80  
159  253  784 
160  458  408 
161  341  744 
162  978  779 
163  569  760 
164  707  712 
165  195  299 
166  166  739 
167  588  877 
168  4    448 
169  573  995 
170  696  419 
171  487  663 
172  990  408 
173  182  216 
174  154  383 
175  723  967 
176  680  569 
177  858  993 
178  146  397 
179  129  475 
180  924  53  
181  659  811 
182  200  782 
183  217  713 
184  60   222 
185  23   182 
186  658  702 
187  552  693 
188  157  420 
189  223  365 
190  374  525 
191  171  840 
192  703  682 
193  688  730 
194  649  711 
195  198  299 
196  288  876 
197  600  855 
198  766  2   
199  453  674 
200  793  203 
201  137  325 
202  966  521 
203  627  445 
204  236  294 
205  179  654 
206  135  629 
207  69   266 
208  191  390 
209  332  676 
210  391  335 
211  331  293 
212  263  653 
213  351  784 
214  620  414 
215  913  825 
216  703  677 
217  727  644 
218  30   301 
219  553  918 
220  314  734 
221  632  644 
222  156  535 
223  890  122 
224  446  374 
225  711  946 
226  657  737 
227  547  286 
228  12   527 
229  139  491 
230  666  660 
231  663  762 
232  260  646 
233  146  899 
234  139  347 
235  389  150 
236  632  356 
237  144  282 
238  350  387 
239  486  558 
240  40   499 
241  179  514 
242  872  639 
243  400  15  
244  24   896 
245  231  215 
246  121  429 
247  156  786 
248  190  699 
249  169  914 
250  706  710 
251  338  790 
252  280  202 
253  205  297 
254  755  593 
255  917  911 
256  284  855 
257  198  675 
258  145  669 
259  311  692 
260  775  427 
261  379  427 
262  380  819 
263  172  375 
264  754  898 
265  94   303 
266  698  189 
267  369  251 
268  842  849 
269  112  366 
270  446  620 
271  887  344 
272  406  318 
273  674  725 
274  250  187 
275  991  819 
276  706  705 
277  108  103 
278  737  701 
279  113  47  
280  686  735 
281  143  874 
282  261  192 
283  102  931 
284  528  792 
285  726  795 
286  30   277 
287  16   388 
288  134  371 
289  223  183 
290  607  456 
291  15   154 
292  558  24  
293  231  425 
294  277  819 
295  392  388 
296  842  188 
297  148  18  
298  48   178 
299  148  265 
300  728  184 
301  469  607 
302  675  703 
303  234  332 
304  36   725 
305  949  268 
306  187  894 
307  233  345 
308  305  877 
309  648  694 
310  320  767 
311  115  743 
312  158  296 
313  35   643 
314  42   112 
315  330  835 
316  548  868 
317  562  812 
318  408  327 
319  292  799 
320  234  727 
321  303  817 
322  543  399 
323  579  739 
324  627  505 
325  877  698 
326  161  580 
327  7    293 
328  464  645 
329  242  452 
330  936  860 
331  302  704 
332  806  750 
333  147  528 
334  698  686 
335  604  642 
336  328  231 
337  766  57  
338  955  82  
339  680  381 
340  478  902 
341  891  317 
342  159  786 
343  790  414 
344  23   367 
345  946  936 
346  273  789 
347  160  363 
348  153  324 
349  547  391 
350  297  347 
351  329  833 
352  891  856 
353  542  788 
354  322  794 
355  324  71  
356  461  723 
357  177  308 
358  101  398 
359  979  160 
360  283  713 
361  749  610 
362  765  725 
363  454  284 
364  58   195 
365  626  149 
366  204  438 
367  337  702 
368  317  553 
369  412  314 
370  551  509 
371  770  696 
372  792  693 
373  308  769 
374  178  403 
375  263  865 
376  323  641 
377  761  732 
378  654  606 
379  149  461 
380  394  777 
381  333  807 
382  988  640 
383  942  771 
384  497  906 
385  734  742 
386  322  636 
387  52   546 
388  287  687 
389  576  134 
390  607  112 
391  527  677 
392  649  374 
393  767  348 
394  193  899 
395  31   608 
396  318  778 
397  850  144 
398  248  713 
399  268  700 
400  895  780 
401  221  854 
402  553  680 
403  415  72  
404  129  371 
405  996  850 
406  427  940 
407  875  987 
408  672  735 
409  476  433 
410  209  745 
411  262  760 
412  251  342 
413  718  631 
414  672  762 
415  339  436 
416  295  775 
417  516  87  
418  276  691 
419  139  527 
420  34   93  
421  43   312 
422  141  475 
423  519  677 
424  27   453 
425  64   380 
426  470  659 
427  157  199 
428  404  830 
429  19   741 
430  22   648 
431  555  56  
432  512  750 
433  499  164 
434  632  675 
435  344  537 
436  738  284 
437  83   371 
438  673  712 
439  124  390 
440  336  807 
441  898  678 
442  142  295 
443  421  613 
444  227  482 
445  735  144 
446  250  484 
447  755  638 
448  135  417 
449  133  484 
450  720  253 
451  81   446 
452  308  345 
453  627  736 
454  19   480 
455  330  769 
456  345  65  
457  105  242 
458  474  624 
459  148  630 
460  550  381 
461  900  323 
462  146  377 
463  425  377 
464  0    341 
465  671  518 
466  647  826 
467  614  649 
468  486  225 
469  644  671 
470  20   584 
471  768  316 
472  300  736 
473  631  338 
474  428  247 
475  577  208 
476  245  778 
477  282  22  
478  473  883 
479  547  451 
480  256  796 
481  790  748 
482  409  81  
483  318  628 
484  133  335 
485  381  409 
486  674  235 
487  965  704 
488  98   624 
489  960  369 
490  519  617 
491  553  112 
492  313  387 
493  160  544 
494  126  313 
495  150  518 
496  304  585 
497  293  170 
498  540  47  
499  911  476 
500  73   14  
501  331  965 
502  724  640 
503  307  446 
504  503  259 
505  544  556 
506  581  215 
507  313  800 
508  563  655 
509  288  725 
510  145  407 
511  338  820 
512  262  443 
513  62   247 
514  754  645 
515  71   988 
516  239  288 
517  638  699 
518  445  820 
519  249  756 
520  268  769 
521  56   459 
522  684  702 
523  650  700 
524  237  391 
525  306  899 
526  124  343 
527  895  238 
528  380  58  
529  321  637 
530  320  910 
531  409  848 
532  453  289 
533  90   48  
534  168  803 
535  787  552 
536  739  512 
537  924  786 
538  449  264 
539  252  375 
540  571  766 
541  523  698 
542  106  437 
543  618  716 
544  256  781 
545  778  835 
546  469  336 
547  736  698 
548  656  864 
549  694  710 
550  427  128 
551  230  374 
552  405  226 
553  293  375 
554  492  850 
555  27   432 
556  280  460 
557  416  729 
558  358  141 
559  51   618 
560  248  507 
561  738  609 
562  648  706 
563  485  447 
564  188  480 
565  909  100 
566  721  705 
567  108  469 
568  392  804 
569  305  754 
570  706  680 
571  5    623 
572  189  304 
573  795  123 
574  199  336 
575  233  496 
576  45   296 
577  930  433 
578  139  321 
579  303  420 
580  697  725 
581  796  618 
582  168  384 
583  764  266 
584  329  823 
585  566  668 
586  369  877 
587  796  474 
588  732  709 
589  765  468 
590  312  788 
591  107  657 
592  593  142 
593  353  798 
594  558  938 
595  736  688 
596  657  791 
597  577  771 
598  291  841 
599  596  403 
600  686  696 
601  834  213 
DEMAND_SECTION
1    0   
2    6   
3    6   
4    6   
5    10  
6    6   
7    5   
8    7   
9    9   
10   10  
11   5   
12   9   
13   6   
14   5   
15   5   
16   7   
17   7   
18   7   
19   6   
20   9   
21   9   
22   6   
23   5   
24   6   
25   9   
26   5   
27   7   
28   7   
29   5   
30   10  
31   8   
32   9   
33   7   
34   9   
35   8   
36   10  
37   8   
38   8   
39   6   
40   5   
41   9   
42   10  
43   10  
44   8   
45   7   
46   7   
47   9   
48   5   
49   5   
50   10  
51   9   
52   5   
53   8   
54   7   
55   7   
56   10  
57   6   
58   10  
59   8   
60   5   
61   10  
62   8   
63   6   
64   7   
65   6   
66   9   
67   8   
68   7   
69   9   
70   5   
71   6   
72   5   
73   6   
74   10  
75   8   
76   7   
77   8   
78   9   
79   8   
80   7   
81   9   
82   5   
83   8   
84   6   
85   10  
86   10  
87   7   
88   9   
89   8   
90   8   
91   6   
92   8   
93   10  
94   7   
95   8   
96   7   
97   6   
98   7   
99   8   
100  8   
101  10  
102  9   
103  8   
104  9   
105  5   
106  7   
107  8   
108  6   
109  9   
110  8   
111  6   
112  6   
113  6   
114  7   
115  5   
116  6   
117  7   
118  6   
119  9   
120  5   
121  10  
122  7   
123  8   
124  5   
125  7   
126  9   
127  10  
128  9   
129  6   
130  6   
131  5   
132  5   
133  9   
134  5   
135  8   
136  9   
137  7   
138  10  
139  10  
140  9   
141  6   
142  5   
143  5   
144  9   
145  7   
146  8   
147  7   
148  6   
149  10  
150  5   
151  5   
152  8   
153  7   
154  9   
155  7   
156  6   
157  5   
158  8   
159  8   
160  7   
161  5   
162  9   
163  7   
164  7   
165  6   
166  8   
167  7   
168  9   
169  7   
170  6   
171  9   
172  8   
173  9   
174  8   
175  6   
176  10  
177  10  
178  5   
179  8   
180  7   
181  6   
182  9   
183  9   
184  6   
185  8   
186  5   
187  5   
188  10  
189  5   
190  10  
191  6   
192  8   
193  5   
194  6   
195  10  
196  5   
197  8   
198  9   
199  9   
200  8   
201  8   
202  8   
203  10  
204  8   
205  8   
206  6   
207  10  
208  10  
209  10  
210  8   
211  6   
212  5   
213  5   
214  10  
215  5   
216  5   
217  5   
218  9   
219  10  
220  8   
221  5   
222  7   
223  7   
224  5   
225  9   
226  9   
227  9   
228  7   
229  10  
230  7   
231  5   
232  6   
233  6   
234  8   
235  10  
236  6   
237  6   
238  9   
239  6   
240  6   
241  9   
242  6   
243  10  
244  5   
245  7   
246  9   
247  5   
248  9   
249  6   
250  10  
251  9   
252  6   
253  9   
254  7   
255  9   
256  7   
257  7   
258  5   
259  5   
260  8   
261  6   
262  7   
263  9   
264  8   
265  5   
266  7   
267  7   
268  10  
269  8   
270  7   
271  5   
272  9   
273  6   
274  7   
275  9   
276  5   
277  6   
278  9   
279  6   
280  10  
281  5   
282  5   
283  9   
284  6   
285  6   
286  8   
287  8   
288  6   
289  6   
290  6   
291  10  
292  8   
293  7   
294  10  
295  8   
296  10  
297  6   
298  9   
299  8   
300  5   
301  8   
302  9   
303  9   
304  10  
305  8   
306  8   
307  7   
308  7   
309  10  
310  10  
311  6   
312  7   
313  7   
314  10  
315  10  
316  7   
317  8   
318  6   
319  10  
320  8   
321  9   
322  9   
323  9   
324  10  
325  9   
326  8   
327  9   
328  6   
329  5   
330  9   
331  7   
332  10  
333  6   
334  6   
335  9   
336  5   
337  7   
338  8   
339  9   
340  7   
341  9   
342  6   
343  6   
344  6   
345  9   
346  7   
347  8   
348  8   
349  9   
350  10  
351  8   
352  6   
353  9   
354  6   
355  9   
356  9   
357  8   
358  10  
359  7   
360  7   
361  5   
362  5   
363  8   
364  8   
365  5   
366  8   
367  10  
368  5   
369  6   
370  8   
371  9   
372  7   
373  8   
374  9   
375  8   
376  5   
377  7   
378  7   
379  9   
380  6   
381  10  
382  7   
383  8   
384  7   
385  8   
386  5   
387  10  
388  9   
389  8   
390  10  
391  9   
392  9   
393  7   
394  8   
395  8   
396  7   
397  8   
398  7   
399  5   
400  7   
401  8   
402  5   
403  5   
404  7   
405  8   
406  10  
407  9   
408  5   
409  9   
410  5   
411  7   
412  10  
413  9   
414  6   
415  8   
416  8   
417  5   
418  10  
419  6   
420  9   
421  7   
422  7   
423  5   
424  10  
425  8   
426  6   
427  7   
428  8   
429  5   
430  5   
431  9   
432  7   
433  6   
434  7   
435  7   
436  9   
437  6   
438  6   
439  8   
440  9   
441  7   
442  8   
443  6   
444  9   
445  8   
446  8   
447  8   
448  9   
449  9   
450  8   
451  6   
452  10  
453  9   
454  8   
455  8   
456  5   
457  6   
458  6   
459  6   
460  8   
461  7   
462  7   
463  6   
464  8   
465  9   
466  7   
467  7   
468  5   
469  7   
470  6   
471  6   
472  9   
473  6   
474  10  
475  5   
476  8   
477  8   
478  9   
479  6   
480  9   
481  7   
482  6   
483  6   
484  6   
485  6   
486  9   
487  5   
488  5   
489  8   
490  5   
491  9   
492  9   
493  10  
494  6   
495  7   
496  7   
497  8   
498  7   
499  10  
500  8   
501  8   
502  8   
503  7   
504  7   
505  6   
506  8   
507  7   
508  5   
509  5   
510  9   
511  5   
512  8   
513  5   
514  7   
515  10  
516  9   
517  6   
518  9   
519  10  
520  9   
521  6   
522  9   
523  5   
524  5   
525  6   
526  6   
527  9   
528  9   
529  10  
530  7   
531  8   
532  8   
533  5   
534  9   
535  10  
536  9   
537  7   
538  10  
539  7   
540  6   
541  8   
542  8   
543  5   
544  5   
545  10  
546  7   
547  6   
548  10  
549  9   
550  5   
551  7   
552  5   
553  10  
554  7   
555  6   
556  10  
557  10  
558  7   
559  8   
560  9   
561  9   
562  7   
563  10  
564  6   
565  5   
566  7   
567  9   
568  5   
569  6   
570  8   
571  5   
572  8   
573  9   
574  6   
575  10  
576  6   
577  5   
578  9   
579  9   
580  10  
581  8   
582  7   
583  8   
584  10  
585  8   
586  5   
587  10  
588  5   
589  10  
590  9   
591  5   
592  5   
593  7   
594  8   
595  9   
596  8   
597  8   
598  9   
599  9   
600  9   
601  8   
DEPOT_SECTION
1
-1
EOF
