NAME : XML600_1142_30
COMMENT : Generated as the XML100 dataset from the CVRPLIB
TYPE : CVRP
DIMENSION : 601
EDGE_WEIGHT_TYPE : EUC_2D
CAPACITY : 373
NODE_COORD_SECTION
1    666  885 
2    152  902 
3    439  605 
4    717  302 
5    488  717 
6    401  93  
7    950  900 
8    599  575 
9    859  233 
10   579  337 
11   428  931 
12   388  486 
13   949  782 
14   720  303 
15   127  701 
16   858  920 
17   547  677 
18   446  594 
19   178  285 
20   282  989 
21   889  117 
22   585  654 
23   486  504 
24   703  389 
25   1    355 
26   108  436 
27   271  481 
28   635  358 
29   322  801 
30   916  618 
31   956  929 
32   991  532 
33   830  188 
34   138  235 
35   642  900 
36   682  707 
37   242  292 
38   129  900 
39   784  584 
40   461  995 
41   958  629 
42   160  329 
43   252  750 
44   435  942 
45   21   427 
46   330  935 
47   285  756 
48   331  723 
49   496  73  
50   592  764 
51   65   344 
52   123  465 
53   83   240 
54   655  57  
55   840  875 
56   883  818 
57   974  838 
58   640  822 
59   893  383 
60   612  95  
61   864  594 
62   564  73  
63   346  250 
64   792  318 
65   990  837 
66   894  860 
67   271  741 
68   108  296 
69   807  544 
70   86   704 
71   694  267 
72   384  218 
73   204  687 
74   769  545 
75   8    861 
76   134  52  
77   101  265 
78   352  512 
79   200  402 
80   516  391 
81   560  565 
82   185  282 
83   215  152 
84   788  688 
85   34   653 
86   180  707 
87   394  541 
88   999  889 
89   250  222 
90   130  86  
91   121  495 
92   186  615 
93   861  268 
94   852  574 
95   127  160 
96   40   668 
97   743  11  
98   615  243 
99   237  944 
100  456  466 
101  246  782 
102  769  823 
103  67   789 
104  990  126 
105  646  981 
106  155  920 
107  574  467 
108  121  131 
109  6    531 
110  605  73  
111  715  433 
112  263  718 
113  536  449 
114  407  344 
115  270  595 
116  137  331 
117  852  313 
118  153  37  
119  603  911 
120  795  834 
121  649  362 
122  277  719 
123  208  885 
124  666  680 
125  906  698 
126  860  164 
127  564  13  
128  526  148 
129  740  638 
130  952  674 
131  133  720 
132  402  112 
133  823  538 
134  703  445 
135  101  785 
136  368  897 
137  299  361 
138  389  929 
139  268  373 
140  722  580 
141  656  882 
142  578  715 
143  247  872 
144  777  781 
145  36   917 
146  992  449 
147  249  652 
148  792  6   
149  748  363 
150  387  860 
151  981  952 
152  841  145 
153  60   245 
154  513  954 
155  628  666 
156  348  639 
157  183  590 
158  433  445 
159  843  856 
160  199  516 
161  715  432 
162  735  923 
163  995  724 
164  431  264 
165  171  481 
166  535  596 
167  422  966 
168  563  11  
169  350  959 
170  865  242 
171  89   271 
172  233  294 
173  297  306 
174  794  874 
175  945  341 
176  327  566 
177  870  585 
178  875  35  
179  177  896 
180  237  538 
181  809  444 
182  139  869 
183  539  440 
184  927  347 
185  95   463 
186  205  433 
187  237  138 
188  261  495 
189  536  196 
190  303  83  
191  226  147 
192  409  995 
193  844  587 
194  282  298 
195  960  362 
196  739  403 
197  457  815 
198  698  213 
199  763  998 
200  437  321 
201  752  580 
202  82   627 
203  467  209 
204  409  204 
205  774  863 
206  998  766 
207  431  789 
208  474  580 
209  817  672 
210  933  636 
211  363  93  
212  317  651 
213  294  2   
214  745  176 
215  210  780 
216  813  850 
217  715  278 
218  144  426 
219  186  819 
220  264  491 
221  784  634 
222  622  581 
223  371  352 
224  790  48  
225  411  564 
226  998  608 
227  615  550 
228  291  755 
229  112  762 
230  67   620 
231  167  469 
232  336  250 
233  296  452 
234  718  828 
235  459  815 
236  475  930 
237  396  548 
238  794  576 
239  918  453 
240  692  784 
241  419  131 
242  261  188 
243  738  360 
244  161  119 
245  253  867 
246  346  12  
247  786  665 
248  117  854 
249  856  937 
250  17   349 
251  323  684 
252  691  940 
253  103  690 
254  268  92  
255  383  833 
256  518  649 
257  527  590 
258  132  177 
259  44   64  
260  115  115 
261  893  28  
262  661  697 
263  36   636 
264  11   134 
265  965  53  
266  762  847 
267  60   813 
268  121  24  
269  68   695 
270  976  974 
271  208  428 
272  755  844 
273  259  250 
274  821  371 
275  770  972 
276  113  577 
277  941  45  
278  635  375 
279  877  555 
280  564  998 
281  51   503 
282  86   70  
283  396  632 
284  25   567 
285  792  205 
286  756  557 
287  174  439 
288  849  330 
289  737  525 
290  734  627 
291  99   125 
292  139  826 
293  0    906 
294  214  749 
295  465  340 
296  736  416 
297  986  466 
298  670  71  
299  650  13  
300  37   433 
301  848  352 
302  699  134 
303  582  641 
304  111  220 
305  611  30  
306  731  459 
307  517  499 
308  832  672 
309  218  849 
310  382  472 
311  608  635 
312  602  988 
313  0    901 
314  871  627 
315  381  583 
316  782  33  
317  176  745 
318  777  458 
319  312  776 
320  566  921 
321  645  796 
322  286  229 
323  318  676 
324  588  33  
325  516  264 
326  83   553 
327  540  621 
328  526  723 
329  85   306 
330  144  401 
331  675  275 
332  355  859 
333  809  135 
334  69   474 
335  598  747 
336  215  955 
337  135  428 
338  413  967 
339  727  587 
340  249  697 
341  599  401 
342  972  912 
343  619  379 
344  739  332 
345  990  817 
346  920  227 
347  595  49  
348  438  93  
349  20   721 
350  360  411 
351  914  934 
352  859  104 
353  748  264 
354  478  403 
355  493  779 
356  818  737 
357  363  184 
358  360  249 
359  935  993 
360  917  441 
361  324  174 
362  1    496 
363  804  155 
364  862  752 
365  264  290 
366  671  803 
367  381  735 
368  24   992 
369  44   403 
370  514  209 
371  52   425 
372  304  655 
373  857  282 
374  203  441 
375  541  985 
376  901  245 
377  16   871 
378  114  85  
379  998  672 
380  419  74  
381  661  254 
382  306  444 
383  602  443 
384  969  883 
385  398  518 
386  518  947 
387  535  124 
388  199  983 
389  820  9   
390  635  876 
391  541  167 
392  339  221 
393  305  821 
394  567  979 
395  427  828 
396  207  178 
397  848  858 
398  467  919 
399  753  193 
400  299  32  
401  893  609 
402  368  635 
403  512  5   
404  606  296 
405  346  485 
406  927  607 
407  245  829 
408  543  105 
409  211  925 
410  856  345 
411  887  323 
412  594  824 
413  988  464 
414  31   994 
415  878  192 
416  922  393 
417  207  429 
418  89   782 
419  198  698 
420  427  23  
421  610  908 
422  126  211 
423  580  894 
424  499  820 
425  837  946 
426  644  402 
427  583  392 
428  961  869 
429  698  239 
430  205  715 
431  834  648 
432  317  538 
433  270  844 
434  437  603 
435  474  521 
436  685  305 
437  417  225 
438  627  709 
439  203  790 
440  915  767 
441  902  419 
442  713  403 
443  472  853 
444  950  68  
445  702  3   
446  110  756 
447  84   475 
448  8    983 
449  939  998 
450  357  304 
451  268  802 
452  646  434 
453  973  173 
454  300  700 
455  166  382 
456  351  266 
457  116  799 
458  962  163 
459  746  548 
460  828  172 
461  407  426 
462  48   237 
463  146  242 
464  682  365 
465  716  516 
466  954  842 
467  743  915 
468  45   604 
469  602  131 
470  978  125 
471  124  906 
472  540  973 
473  236  809 
474  634  702 
475  802  942 
476  871  794 
477  205  970 
478  842  907 
479  618  632 
480  528  967 
481  708  934 
482  548  289 
483  501  223 
484  980  993 
485  71   746 
486  483  434 
487  804  242 
488  22   853 
489  824  974 
490  9    542 
491  949  340 
492  351  382 
493  955  420 
494  63   333 
495  130  14  
496  32   247 
497  12   287 
498  333  849 
499  329  241 
500  556  131 
501  227  611 
502  323  984 
503  886  405 
504  575  638 
505  402  984 
506  462  379 
507  626  716 
508  545  224 
509  71   750 
510  41   709 
511  581  592 
512  536  175 
513  172  405 
514  827  77  
515  678  753 
516  618  330 
517  33   970 
518  497  67  
519  303  830 
520  48   878 
521  894  279 
522  119  502 
523  568  365 
524  69   254 
525  11   420 
526  954  391 
527  868  626 
528  998  992 
529  108  371 
530  695  51  
531  774  433 
532  662  539 
533  764  267 
534  700  413 
535  588  837 
536  336  634 
537  568  877 
538  133  540 
539  872  623 
540  301  115 
541  178  44  
542  722  544 
543  24   4   
544  808  714 
545  299  208 
546  748  538 
547  92   660 
548  554  169 
549  890  649 
550  629  190 
551  928  248 
552  492  212 
553  316  544 
554  175  941 
555  179  911 
556  304  417 
557  714  419 
558  603  829 
559  905  395 
560  704  881 
561  263  928 
562  343  381 
563  152  813 
564  86   450 
565  241  998 
566  848  126 
567  588  953 
568  17   634 
569  319  14  
570  455  460 
571  48   194 
572  499  228 
573  963  619 
574  502  373 
575  813  6   
576  432  961 
577  235  932 
578  708  249 
579  127  859 
580  42   254 
581  106  409 
582  529  512 
583  413  993 
584  363  318 
585  38   131 
586  660  959 
587  780  121 
588  649  37  
589  455  181 
590  32   901 
591  856  781 
592  33   964 
593  669  936 
594  284  555 
595  282  774 
596  815  334 
597  759  421 
598  996  922 
599  778  443 
600  656  27  
601  769  749 
DEMAND_SECTION
1    0   
2    34  
3    63  
4    58  
5    86  
6    89  
7    81  
8    24  
9    64  
10   50  
11   47  
12   13  
13   5   
14   13  
15   57  
16   89  
17   39  
18   92  
19   58  
20   93  
21   64  
22   89  
23   41  
24   50  
25   72  
26   49  
27   35  
28   99  
29   30  
30   59  
31   39  
32   35  
33   20  
34   16  
35   58  
36   27  
37   87  
38   22  
39   8   
40   64  
41   60  
42   100 
43   88  
44   41  
45   1   
46   21  
47   79  
48   35  
49   48  
50   72  
51   58  
52   79  
53   91  
54   26  
55   72  
56   17  
57   60  
58   25  
59   1   
60   40  
61   71  
62   61  
63   18  
64   90  
65   66  
66   97  
67   14  
68   71  
69   71  
70   75  
71   9   
72   96  
73   11  
74   100 
75   81  
76   58  
77   42  
78   28  
79   93  
80   6   
81   39  
82   22  
83   47  
84   70  
85   52  
86   11  
87   24  
88   43  
89   40  
90   76  
91   68  
92   39  
93   58  
94   10  
95   90  
96   70  
97   30  
98   30  
99   51  
100  59  
101  56  
102  92  
103  97  
104  42  
105  44  
106  73  
107  12  
108  8   
109  37  
110  14  
111  100 
112  2   
113  53  
114  8   
115  66  
116  13  
117  47  
118  16  
119  64  
120  40  
121  80  
122  33  
123  15  
124  64  
125  38  
126  34  
127  88  
128  7   
129  84  
130  23  
131  95  
132  67  
133  60  
134  42  
135  13  
136  38  
137  48  
138  97  
139  56  
140  77  
141  93  
142  65  
143  27  
144  84  
145  75  
146  66  
147  27  
148  79  
149  57  
150  65  
151  24  
152  65  
153  29  
154  76  
155  16  
156  44  
157  37  
158  20  
159  69  
160  9   
161  1   
162  33  
163  8   
164  43  
165  26  
166  49  
167  71  
168  25  
169  68  
170  8   
171  29  
172  28  
173  30  
174  24  
175  63  
176  19  
177  10  
178  17  
179  19  
180  43  
181  85  
182  29  
183  75  
184  4   
185  66  
186  1   
187  30  
188  23  
189  57  
190  23  
191  4   
192  26  
193  45  
194  93  
195  71  
196  100 
197  4   
198  85  
199  35  
200  82  
201  6   
202  59  
203  17  
204  52  
205  12  
206  11  
207  58  
208  42  
209  6   
210  20  
211  94  
212  45  
213  64  
214  83  
215  21  
216  49  
217  41  
218  24  
219  4   
220  25  
221  100 
222  33  
223  77  
224  61  
225  3   
226  45  
227  65  
228  48  
229  87  
230  18  
231  15  
232  100 
233  32  
234  22  
235  72  
236  62  
237  12  
238  85  
239  31  
240  61  
241  100 
242  1   
243  22  
244  53  
245  33  
246  67  
247  31  
248  31  
249  52  
250  75  
251  47  
252  42  
253  46  
254  48  
255  80  
256  46  
257  40  
258  35  
259  25  
260  65  
261  98  
262  50  
263  86  
264  86  
265  91  
266  6   
267  55  
268  39  
269  83  
270  95  
271  29  
272  36  
273  78  
274  72  
275  62  
276  30  
277  21  
278  37  
279  91  
280  54  
281  68  
282  100 
283  23  
284  32  
285  88  
286  44  
287  85  
288  30  
289  9   
290  54  
291  47  
292  97  
293  91  
294  57  
295  27  
296  97  
297  20  
298  41  
299  59  
300  25  
301  34  
302  70  
303  63  
304  15  
305  40  
306  35  
307  62  
308  9   
309  81  
310  43  
311  79  
312  89  
313  3   
314  24  
315  84  
316  20  
317  6   
318  37  
319  77  
320  98  
321  8   
322  22  
323  42  
324  48  
325  14  
326  16  
327  44  
328  7   
329  16  
330  91  
331  90  
332  54  
333  64  
334  90  
335  74  
336  97  
337  55  
338  59  
339  4   
340  31  
341  59  
342  6   
343  84  
344  23  
345  31  
346  65  
347  21  
348  80  
349  31  
350  30  
351  31  
352  41  
353  30  
354  82  
355  57  
356  18  
357  73  
358  48  
359  86  
360  46  
361  34  
362  84  
363  77  
364  57  
365  62  
366  35  
367  65  
368  30  
369  87  
370  60  
371  71  
372  81  
373  9   
374  14  
375  100 
376  76  
377  58  
378  65  
379  77  
380  80  
381  100 
382  5   
383  47  
384  7   
385  85  
386  73  
387  93  
388  2   
389  35  
390  45  
391  41  
392  87  
393  40  
394  2   
395  19  
396  84  
397  92  
398  90  
399  14  
400  87  
401  38  
402  60  
403  54  
404  90  
405  88  
406  96  
407  46  
408  74  
409  36  
410  29  
411  18  
412  21  
413  44  
414  72  
415  15  
416  100 
417  68  
418  35  
419  27  
420  5   
421  27  
422  34  
423  83  
424  7   
425  100 
426  3   
427  83  
428  16  
429  71  
430  6   
431  66  
432  25  
433  93  
434  74  
435  37  
436  45  
437  73  
438  55  
439  60  
440  86  
441  100 
442  63  
443  73  
444  41  
445  2   
446  24  
447  35  
448  6   
449  56  
450  33  
451  25  
452  24  
453  41  
454  48  
455  69  
456  45  
457  44  
458  89  
459  63  
460  85  
461  95  
462  21  
463  20  
464  30  
465  15  
466  52  
467  76  
468  7   
469  9   
470  9   
471  37  
472  17  
473  73  
474  83  
475  29  
476  37  
477  5   
478  36  
479  26  
480  74  
481  29  
482  29  
483  75  
484  83  
485  46  
486  91  
487  99  
488  59  
489  67  
490  58  
491  23  
492  76  
493  25  
494  72  
495  18  
496  66  
497  76  
498  41  
499  45  
500  62  
501  79  
502  73  
503  53  
504  39  
505  47  
506  67  
507  72  
508  28  
509  31  
510  13  
511  3   
512  52  
513  16  
514  44  
515  73  
516  51  
517  84  
518  87  
519  78  
520  69  
521  95  
522  60  
523  34  
524  53  
525  35  
526  72  
527  63  
528  87  
529  61  
530  78  
531  15  
532  4   
533  90  
534  46  
535  4   
536  66  
537  87  
538  49  
539  97  
540  97  
541  68  
542  5   
543  14  
544  10  
545  26  
546  78  
547  79  
548  33  
549  97  
550  35  
551  40  
552  89  
553  17  
554  56  
555  8   
556  75  
557  49  
558  5   
559  51  
560  77  
561  10  
562  94  
563  100 
564  73  
565  3   
566  36  
567  59  
568  24  
569  36  
570  42  
571  16  
572  82  
573  40  
574  65  
575  44  
576  44  
577  69  
578  67  
579  49  
580  64  
581  11  
582  7   
583  21  
584  56  
585  27  
586  76  
587  18  
588  8   
589  80  
590  23  
591  46  
592  94  
593  34  
594  72  
595  99  
596  66  
597  19  
598  93  
599  20  
600  75  
601  67  
DEPOT_SECTION
1
-1
EOF
