NAME : XML600_1355_25
COMMENT : Generated as the XML100 dataset from the CVRPLIB
TYPE : CVRP
DIMENSION : 601
EDGE_WEIGHT_TYPE : EUC_2D
CAPACITY : 1516
NODE_COORD_SECTION
1    450  503 
2    175  904 
3    412  313 
4    85   345 
5    742  862 
6    368  810 
7    765  360 
8    883  343 
9    341  963 
10   96   369 
11   564  492 
12   388  486 
13   521  103 
14   481  457 
15   384  781 
16   484  868 
17   922  694 
18   72   258 
19   621  864 
20   482  440 
21   417  558 
22   375  552 
23   77   382 
24   731  187 
25   412  470 
26   476  473 
27   313  595 
28   647  629 
29   340  957 
30   146  436 
31   320  234 
32   565  410 
33   24   757 
34   305  865 
35   374  708 
36   61   248 
37   418  415 
38   301  504 
39   593  96  
40   432  807 
41   28   327 
42   282  481 
43   832  777 
44   432  834 
45   803  997 
46   442  70  
47   353  370 
48   210  321 
49   699  787 
50   356  942 
51   359  804 
52   440  374 
53   716  40  
54   660  414 
55   449  212 
56   715  84  
57   599  794 
58   947  992 
59   658  224 
60   567  362 
61   367  664 
62   412  824 
63   118  615 
64   585  523 
65   566  253 
66   275  446 
67   293  732 
68   359  943 
69   468  859 
70   166  786 
71   637  142 
72   604  630 
73   475  763 
74   261  803 
75   360  507 
76   599  124 
77   815  404 
78   163  753 
79   947  996 
80   12   849 
81   79   521 
82   856  707 
83   231  142 
84   76   357 
85   619  138 
86   891  835 
87   390  642 
88   611  125 
89   288  393 
90   382  549 
91   455  808 
92   422  204 
93   364  522 
94   691  499 
95   447  813 
96   441  464 
97   141  361 
98   369  466 
99   73   980 
100  276  662 
101  406  524 
102  318  915 
103  675  2   
104  76   231 
105  406  780 
106  614  1   
107  347  84  
108  564  180 
109  667  919 
110  921  417 
111  370  979 
112  626  905 
113  39   452 
114  811  56  
115  458  274 
116  576  28  
117  551  209 
118  346  87  
119  921  556 
120  325  531 
121  426  870 
122  599  514 
123  603  237 
124  199  809 
125  678  160 
126  540  455 
127  208  220 
128  904  103 
129  376  460 
130  34   351 
131  320  946 
132  278  473 
133  519  508 
134  675  118 
135  507  390 
136  114  59  
137  648  765 
138  224  474 
139  764  833 
140  823  650 
141  612  448 
142  636  140 
143  41   367 
144  296  993 
145  466  501 
146  442  809 
147  953  103 
148  584  484 
149  450  404 
150  833  532 
151  580  123 
152  214  941 
153  324  920 
154  839  630 
155  463  370 
156  532  302 
157  370  816 
158  946  603 
159  976  226 
160  43   439 
161  540  580 
162  203  931 
163  980  699 
164  517  53  
165  855  457 
166  430  421 
167  240  580 
168  483  814 
169  53   345 
170  68   962 
171  239  862 
172  243  585 
173  479  700 
174  506  815 
175  429  452 
176  607  638 
177  790  732 
178  316  831 
179  464  437 
180  822  154 
181  342  987 
182  158  766 
183  636  130 
184  390  990 
185  340  504 
186  799  264 
187  328  944 
188  593  708 
189  299  499 
190  993  907 
191  404  790 
192  897  552 
193  522  922 
194  193  319 
195  108  239 
196  449  541 
197  356  889 
198  872  653 
199  580  881 
200  968  212 
201  498  802 
202  50   145 
203  662  425 
204  295  83  
205  158  990 
206  166  594 
207  192  741 
208  729  451 
209  294  532 
210  546  506 
211  37   736 
212  497  739 
213  444  458 
214  298  502 
215  457  904 
216  328  512 
217  285  303 
218  294  797 
219  324  2   
220  43   379 
221  470  205 
222  45   169 
223  809  425 
224  384  300 
225  240  664 
226  511  502 
227  335  407 
228  856  286 
229  356  884 
230  475  265 
231  337  462 
232  151  451 
233  436  840 
234  335  519 
235  261  341 
236  533  144 
237  100  244 
238  597  812 
239  78   494 
240  116  606 
241  799  272 
242  387  822 
243  289  686 
244  721  856 
245  383  550 
246  201  421 
247  51   378 
248  256  518 
249  378  453 
250  331  530 
251  931  522 
252  646  798 
253  346  268 
254  336  483 
255  723  273 
256  366  255 
257  96   242 
258  598  223 
259  985  529 
260  735  912 
261  344  999 
262  371  306 
263  423  734 
264  371  989 
265  375  852 
266  918  960 
267  109  989 
268  265  324 
269  394  447 
270  576  213 
271  614  78  
272  370  364 
273  460  514 
274  689  117 
275  380  661 
276  316  896 
277  894  226 
278  281  807 
279  721  563 
280  170  549 
281  785  575 
282  332  620 
283  22   296 
284  236  921 
285  525  359 
286  220  815 
287  889  394 
288  845  885 
289  557  976 
290  607  577 
291  724  824 
292  192  344 
293  557  338 
294  201  420 
295  424  977 
296  129  135 
297  864  593 
298  45   828 
299  549  590 
300  781  168 
301  306  841 
302  396  753 
303  774  537 
304  938  169 
305  66   60  
306  402  912 
307  224  268 
308  703  95  
309  777  328 
310  367  164 
311  427  843 
312  314  835 
313  400  597 
314  33   831 
315  412  827 
316  589  231 
317  686  810 
318  446  758 
319  665  369 
320  310  559 
321  255  471 
322  503  874 
323  397  811 
324  92   364 
325  370  866 
326  639  106 
327  800  23  
328  340  685 
329  136  955 
330  382  858 
331  554  147 
332  525  349 
333  367  577 
334  349  25  
335  53   768 
336  246  943 
337  887  176 
338  101  268 
339  317  823 
340  243  370 
341  660  12  
342  310  945 
343  33   417 
344  222  176 
345  838  683 
346  477  951 
347  818  863 
348  291  959 
349  130  624 
350  261  918 
351  742  59  
352  278  342 
353  158  951 
354  891  447 
355  534  466 
356  134  841 
357  246  655 
358  11   523 
359  952  323 
360  499  179 
361  47   427 
362  304  516 
363  328  455 
364  38   235 
365  603  16  
366  246  273 
367  692  103 
368  92   453 
369  172  296 
370  696  729 
371  14   286 
372  450  417 
373  405  940 
374  125  248 
375  362  987 
376  687  280 
377  350  366 
378  617  441 
379  546  826 
380  95   225 
381  813  96  
382  452  898 
383  182  885 
384  72   497 
385  470  952 
386  54   318 
387  554  128 
388  42   362 
389  402  488 
390  523  796 
391  155  159 
392  42   209 
393  590  315 
394  138  191 
395  279  804 
396  397  558 
397  262  324 
398  72   483 
399  224  886 
400  257  556 
401  44   501 
402  350  455 
403  701  560 
404  355  817 
405  660  141 
406  194  872 
407  648  377 
408  568  543 
409  447  244 
410  929  823 
411  561  894 
412  340  517 
413  304  344 
414  935  345 
415  858  372 
416  382  25  
417  559  988 
418  22   783 
419  431  802 
420  201  862 
421  747  797 
422  293  697 
423  539  637 
424  335  861 
425  591  787 
426  80   333 
427  769  672 
428  74   686 
429  185  108 
430  897  430 
431  258  870 
432  304  995 
433  776  158 
434  448  365 
435  373  838 
436  349  481 
437  985  161 
438  665  479 
439  571  283 
440  374  937 
441  390  872 
442  556  38  
443  27   969 
444  621  396 
445  57   601 
446  397  795 
447  367  516 
448  614  146 
449  673  195 
450  372  213 
451  489  142 
452  965  727 
453  386  785 
454  449  832 
455  409  616 
456  13   289 
457  260  398 
458  966  542 
459  311  629 
460  458  410 
461  862  750 
462  281  457 
463  361  477 
464  803  929 
465  275  819 
466  456  49  
467  120  387 
468  548  806 
469  147  233 
470  31   278 
471  242  251 
472  983  87  
473  116  511 
474  100  405 
475  365  550 
476  775  67  
477  418  989 
478  468  441 
479  748  486 
480  639  143 
481  676  857 
482  104  384 
483  351  14  
484  921  139 
485  569  465 
486  819  357 
487  286  949 
488  58   17  
489  640  107 
490  599  115 
491  146  902 
492  292  202 
493  351  535 
494  423  365 
495  549  123 
496  807  647 
497  512  223 
498  448  458 
499  878  51  
500  434  151 
501  37   613 
502  453  164 
503  761  945 
504  335  666 
505  111  153 
506  1000 809 
507  551  425 
508  615  818 
509  343  396 
510  594  130 
511  584  202 
512  120  494 
513  357  815 
514  439  634 
515  699  444 
516  720  238 
517  709  238 
518  410  579 
519  569  87  
520  808  607 
521  372  571 
522  560  542 
523  312  300 
524  831  865 
525  103  37  
526  999  839 
527  32   898 
528  36   392 
529  666  141 
530  495  915 
531  369  34  
532  387  308 
533  497  40  
534  494  294 
535  801  442 
536  474  56  
537  13   274 
538  717  726 
539  609  119 
540  494  797 
541  915  729 
542  25   346 
543  485  578 
544  209  832 
545  197  421 
546  368  825 
547  298  998 
548  162  82  
549  323  188 
550  378  878 
551  582  119 
552  723  253 
553  922  709 
554  695  163 
555  267  912 
556  495  492 
557  260  598 
558  225  906 
559  972  593 
560  626  194 
561  337  329 
562  569  297 
563  300  954 
564  357  405 
565  79   308 
566  201  670 
567  857  471 
568  454  850 
569  0    33  
570  407  271 
571  293  914 
572  747  187 
573  158  964 
574  315  929 
575  900  963 
576  725  37  
577  448  564 
578  64   538 
579  423  80  
580  487  510 
581  321  209 
582  136  334 
583  840  405 
584  438  474 
585  651  209 
586  470  444 
587  749  762 
588  509  799 
589  160  892 
590  884  843 
591  271  747 
592  72   281 
593  161  457 
594  205  918 
595  13   479 
596  238  588 
597  373  367 
598  485  972 
599  406  553 
600  528  250 
601  424  449 
DEMAND_SECTION
1    0   
2    88  
3    84  
4    58  
5    62  
6    66  
7    84  
8    78  
9    74  
10   73  
11   81  
12   78  
13   60  
14   54  
15   55  
16   94  
17   81  
18   71  
19   56  
20   82  
21   70  
22   68  
23   51  
24   61  
25   90  
26   99  
27   87  
28   65  
29   95  
30   94  
31   64  
32   83  
33   86  
34   72  
35   53  
36   69  
37   72  
38   79  
39   60  
40   95  
41   95  
42   93  
43   98  
44   50  
45   50  
46   51  
47   87  
48   51  
49   92  
50   61  
51   51  
52   72  
53   87  
54   80  
55   67  
56   98  
57   93  
58   78  
59   96  
60   64  
61   70  
62   54  
63   75  
64   83  
65   78  
66   59  
67   70  
68   52  
69   74  
70   92  
71   74  
72   61  
73   70  
74   66  
75   75  
76   82  
77   81  
78   75  
79   93  
80   80  
81   55  
82   79  
83   53  
84   93  
85   80  
86   96  
87   79  
88   81  
89   65  
90   70  
91   82  
92   78  
93   52  
94   71  
95   84  
96   61  
97   66  
98   54  
99   89  
100  76  
101  85  
102  86  
103  50  
104  79  
105  69  
106  86  
107  73  
108  73  
109  51  
110  96  
111  78  
112  67  
113  73  
114  79  
115  78  
116  57  
117  81  
118  58  
119  65  
120  73  
121  89  
122  95  
123  71  
124  69  
125  70  
126  69  
127  68  
128  52  
129  75  
130  57  
131  52  
132  59  
133  58  
134  61  
135  64  
136  84  
137  73  
138  76  
139  52  
140  62  
141  54  
142  86  
143  65  
144  82  
145  75  
146  74  
147  60  
148  75  
149  82  
150  53  
151  93  
152  67  
153  98  
154  93  
155  81  
156  74  
157  94  
158  65  
159  57  
160  63  
161  85  
162  72  
163  57  
164  91  
165  51  
166  76  
167  67  
168  51  
169  60  
170  55  
171  51  
172  86  
173  68  
174  55  
175  63  
176  80  
177  90  
178  94  
179  72  
180  94  
181  68  
182  75  
183  78  
184  92  
185  60  
186  78  
187  92  
188  93  
189  89  
190  84  
191  67  
192  92  
193  53  
194  63  
195  96  
196  95  
197  70  
198  95  
199  56  
200  86  
201  99  
202  70  
203  54  
204  65  
205  58  
206  55  
207  50  
208  75  
209  85  
210  60  
211  87  
212  91  
213  67  
214  69  
215  77  
216  90  
217  58  
218  90  
219  90  
220  73  
221  53  
222  70  
223  87  
224  68  
225  61  
226  83  
227  96  
228  53  
229  57  
230  75  
231  77  
232  100 
233  84  
234  94  
235  73  
236  68  
237  70  
238  82  
239  99  
240  55  
241  58  
242  86  
243  71  
244  95  
245  88  
246  56  
247  66  
248  86  
249  77  
250  62  
251  54  
252  92  
253  58  
254  70  
255  100 
256  57  
257  89  
258  91  
259  50  
260  79  
261  70  
262  81  
263  92  
264  90  
265  65  
266  100 
267  55  
268  55  
269  64  
270  76  
271  55  
272  72  
273  68  
274  67  
275  84  
276  93  
277  62  
278  76  
279  54  
280  74  
281  86  
282  72  
283  58  
284  75  
285  74  
286  59  
287  95  
288  93  
289  90  
290  83  
291  61  
292  88  
293  83  
294  55  
295  100 
296  72  
297  53  
298  77  
299  88  
300  75  
301  88  
302  94  
303  52  
304  77  
305  93  
306  67  
307  54  
308  80  
309  79  
310  67  
311  81  
312  51  
313  72  
314  85  
315  89  
316  63  
317  54  
318  52  
319  72  
320  98  
321  87  
322  61  
323  89  
324  69  
325  51  
326  73  
327  78  
328  80  
329  68  
330  87  
331  61  
332  51  
333  54  
334  58  
335  68  
336  54  
337  61  
338  71  
339  100 
340  58  
341  52  
342  91  
343  73  
344  97  
345  76  
346  87  
347  77  
348  53  
349  84  
350  86  
351  83  
352  89  
353  67  
354  75  
355  74  
356  59  
357  61  
358  59  
359  63  
360  58  
361  85  
362  81  
363  55  
364  53  
365  78  
366  90  
367  97  
368  95  
369  91  
370  73  
371  59  
372  85  
373  53  
374  67  
375  80  
376  60  
377  90  
378  85  
379  84  
380  68  
381  97  
382  80  
383  58  
384  98  
385  89  
386  60  
387  64  
388  64  
389  70  
390  61  
391  90  
392  65  
393  67  
394  50  
395  50  
396  57  
397  53  
398  67  
399  51  
400  77  
401  52  
402  99  
403  94  
404  65  
405  60  
406  57  
407  78  
408  70  
409  93  
410  62  
411  70  
412  80  
413  83  
414  56  
415  71  
416  86  
417  84  
418  79  
419  93  
420  77  
421  54  
422  57  
423  81  
424  89  
425  68  
426  79  
427  79  
428  50  
429  55  
430  62  
431  92  
432  64  
433  55  
434  87  
435  84  
436  51  
437  83  
438  95  
439  60  
440  87  
441  81  
442  68  
443  100 
444  98  
445  51  
446  87  
447  93  
448  54  
449  86  
450  57  
451  60  
452  72  
453  55  
454  52  
455  67  
456  95  
457  92  
458  66  
459  93  
460  52  
461  62  
462  88  
463  53  
464  84  
465  82  
466  92  
467  63  
468  68  
469  76  
470  95  
471  59  
472  55  
473  65  
474  57  
475  50  
476  62  
477  96  
478  71  
479  98  
480  89  
481  73  
482  96  
483  56  
484  97  
485  89  
486  89  
487  98  
488  69  
489  59  
490  50  
491  52  
492  82  
493  70  
494  50  
495  90  
496  56  
497  55  
498  75  
499  55  
500  50  
501  63  
502  90  
503  87  
504  62  
505  61  
506  63  
507  94  
508  88  
509  85  
510  67  
511  90  
512  63  
513  58  
514  82  
515  96  
516  72  
517  93  
518  54  
519  50  
520  87  
521  77  
522  70  
523  69  
524  79  
525  58  
526  90  
527  78  
528  83  
529  50  
530  64  
531  82  
532  59  
533  50  
534  79  
535  78  
536  75  
537  59  
538  96  
539  58  
540  91  
541  68  
542  58  
543  54  
544  53  
545  95  
546  97  
547  95  
548  72  
549  76  
550  68  
551  79  
552  85  
553  57  
554  53  
555  97  
556  77  
557  99  
558  94  
559  88  
560  74  
561  97  
562  72  
563  52  
564  52  
565  98  
566  78  
567  61  
568  50  
569  71  
570  58  
571  57  
572  62  
573  50  
574  99  
575  96  
576  72  
577  90  
578  89  
579  89  
580  70  
581  79  
582  72  
583  65  
584  63  
585  98  
586  93  
587  53  
588  97  
589  63  
590  62  
591  82  
592  85  
593  50  
594  66  
595  87  
596  89  
597  78  
598  92  
599  96  
600  70  
601  66  
DEPOT_SECTION
1
-1
EOF
