NAME : XML600_3271_29
COMMENT : Generated as the XML100 dataset from the CVRPLIB
TYPE : CVRP
DIMENSION : 601
EDGE_WEIGHT_TYPE : EUC_2D
CAPACITY : 128
NODE_COORD_SECTION
1    0    0   
2    603  698 
3    244  994 
4    940  716 
5    892  828 
6    361  523 
7    872  837 
8    39   234 
9    153  583 
10   944  713 
11   87   247 
12   20   257 
13   931  761 
14   33   276 
15   825  514 
16   797  681 
17   672  281 
18   929  980 
19   40   333 
20   813  787 
21   196  172 
22   936  885 
23   685  220 
24   420  703 
25   797  937 
26   966  718 
27   433  273 
28   20   342 
29   760  915 
30   598  71  
31   622  554 
32   619  768 
33   651  837 
34   874  747 
35   320  993 
36   637  282 
37   342  523 
38   712  959 
39   107  220 
40   597  758 
41   504  530 
42   290  997 
43   520  645 
44   637  803 
45   744  511 
46   857  806 
47   106  776 
48   618  161 
49   86   956 
50   615  900 
51   203  983 
52   81   203 
53   951  855 
54   631  118 
55   570  349 
56   472  201 
57   255  859 
58   466  795 
59   692  631 
60   85   191 
61   23   207 
62   871  862 
63   141  757 
64   523  920 
65   315  653 
66   648  286 
67   135  933 
68   655  322 
69   669  229 
70   661  652 
71   983  941 
72   756  243 
73   170  918 
74   436  790 
75   619  655 
76   925  838 
77   960  805 
78   70   422 
79   928  834 
80   756  499 
81   903  679 
82   247  231 
83   462  546 
84   201  362 
85   627  223 
86   694  514 
87   623  472 
88   888  901 
89   584  270 
90   48   277 
91   698  130 
92   997  844 
93   615  742 
94   906  973 
95   613  818 
96   641  233 
97   648  281 
98   260  959 
99   557  657 
100  666  344 
101  944  801 
102  991  796 
103  664  249 
104  741  203 
105  632  296 
106  347  987 
107  737  727 
108  72   126 
109  728  678 
110  57   83  
111  623  723 
112  794  889 
113  625  275 
114  832  726 
115  943  850 
116  657  218 
117  145  879 
118  781  788 
119  601  830 
120  451  644 
121  194  991 
122  587  675 
123  983  913 
124  982  796 
125  822  816 
126  930  767 
127  657  254 
128  707  740 
129  307  886 
130  902  705 
131  608  734 
132  145  79  
133  882  866 
134  921  794 
135  866  858 
136  892  758 
137  80   205 
138  8    195 
139  681  827 
140  569  747 
141  689  273 
142  619  110 
143  622  610 
144  14   781 
145  791  302 
146  855  732 
147  691  889 
148  255  426 
149  961  759 
150  101  102 
151  649  227 
152  705  644 
153  643  342 
154  634  193 
155  601  681 
156  566  485 
157  416  635 
158  980  875 
159  722  589 
160  222  940 
161  18   216 
162  997  793 
163  659  398 
164  561  253 
165  888  895 
166  602  300 
167  171  998 
168  846  898 
169  235  982 
170  118  168 
171  885  844 
172  567  189 
173  616  719 
174  799  157 
175  633  372 
176  891  905 
177  708  820 
178  567  692 
179  882  856 
180  772  167 
181  84   306 
182  600  887 
183  931  578 
184  922  758 
185  588  742 
186  704  935 
187  942  825 
188  998  924 
189  824  195 
190  622  753 
191  703  979 
192  631  731 
193  604  210 
194  859  836 
195  612  699 
196  693  404 
197  102  219 
198  662  318 
199  49   320 
200  776  914 
201  851  837 
202  996  837 
203  391  843 
204  795  945 
205  174  985 
206  659  267 
207  998  636 
208  371  883 
209  627  809 
210  706  873 
211  955  683 
212  818  943 
213  825  802 
214  494  306 
215  910  788 
216  821  957 
217  614  228 
218  157  132 
219  581  716 
220  729  703 
221  100  263 
222  596  201 
223  809  821 
224  447  734 
225  846  870 
226  950  707 
227  862  832 
228  954  677 
229  700  681 
230  862  841 
231  571  796 
232  25   232 
233  120  887 
234  707  567 
235  680  977 
236  701  771 
237  659  527 
238  703  951 
239  838  767 
240  645  601 
241  912  954 
242  634  699 
243  865  879 
244  47   237 
245  634  708 
246  9    247 
247  189  833 
248  900  845 
249  611  333 
250  632  127 
251  259  934 
252  702  866 
253  93   218 
254  648  727 
255  891  890 
256  157  257 
257  626  327 
258  858  713 
259  650  684 
260  434  660 
261  641  306 
262  845  621 
263  793  858 
264  787  271 
265  480  645 
266  968  966 
267  660  688 
268  884  743 
269  443  363 
270  140  981 
271  667  318 
272  615  280 
273  552  251 
274  127  224 
275  281  947 
276  826  756 
277  131  105 
278  920  921 
279  131  352 
280  699  306 
281  238  1000
282  877  816 
283  908  803 
284  937  708 
285  898  637 
286  901  773 
287  162  879 
288  547  788 
289  97   75  
290  562  669 
291  345  671 
292  697  494 
293  321  899 
294  964  856 
295  945  824 
296  675  573 
297  53   181 
298  720  724 
299  226  994 
300  683  595 
301  857  720 
302  849  865 
303  811  344 
304  901  674 
305  24   221 
306  67   210 
307  232  933 
308  41   975 
309  542  174 
310  193  825 
311  717  691 
312  136  956 
313  711  787 
314  635  267 
315  922  836 
316  701  221 
317  803  726 
318  208  962 
319  643  365 
320  900  933 
321  909  771 
322  874  624 
323  721  958 
324  932  894 
325  943  742 
326  119  206 
327  951  755 
328  439  998 
329  603  673 
330  76   262 
331  34   293 
332  265  952 
333  643  257 
334  64   126 
335  941  826 
336  203  995 
337  704  999 
338  779  773 
339  556  216 
340  47   82  
341  546  809 
342  543  273 
343  594  318 
344  106  244 
345  107  218 
346  12   246 
347  105  294 
348  72   269 
349  797  939 
350  853  852 
351  811  855 
352  786  780 
353  826  206 
354  867  872 
355  27   230 
356  850  810 
357  679  254 
358  842  52  
359  242  173 
360  237  961 
361  837  867 
362  674  184 
363  638  249 
364  217  363 
365  647  325 
366  941  933 
367  645  782 
368  154  154 
369  516  250 
370  874  623 
371  53   260 
372  142  207 
373  427  986 
374  579  217 
375  420  956 
376  924  718 
377  966  733 
378  695  666 
379  910  829 
380  488  700 
381  854  757 
382  862  770 
383  751  921 
384  47   966 
385  820  773 
386  516  142 
387  795  698 
388  66   189 
389  900  909 
390  576  687 
391  672  264 
392  452  233 
393  636  728 
394  598  863 
395  62   978 
396  935  723 
397  495  42  
398  185  810 
399  634  255 
400  692  327 
401  749  205 
402  641  779 
403  844  888 
404  504  136 
405  70   280 
406  639  217 
407  857  906 
408  60   235 
409  836  883 
410  595  268 
411  616  736 
412  697  810 
413  487  204 
414  617  292 
415  661  240 
416  888  795 
417  898  827 
418  680  348 
419  80   203 
420  630  356 
421  538  282 
422  886  861 
423  660  226 
424  623  725 
425  818  839 
426  878  713 
427  602  806 
428  146  953 
429  918  795 
430  359  908 
431  711  218 
432  562  742 
433  204  140 
434  647  319 
435  44   267 
436  85   268 
437  583  801 
438  621  266 
439  841  705 
440  125  197 
441  985  817 
442  922  797 
443  656  269 
444  168  158 
445  698  998 
446  712  667 
447  583  266 
448  819  650 
449  612  738 
450  248  959 
451  278  960 
452  545  648 
453  159  887 
454  837  676 
455  759  784 
456  802  853 
457  562  755 
458  336  928 
459  923  743 
460  599  246 
461  811  812 
462  909  817 
463  985  812 
464  867  838 
465  851  732 
466  898  664 
467  866  693 
468  598  304 
469  864  540 
470  563  283 
471  552  682 
472  183  974 
473  1    143 
474  881  876 
475  840  686 
476  615  311 
477  639  278 
478  70   139 
479  465  790 
480  805  984 
481  605  303 
482  906  807 
483  634  864 
484  705  915 
485  793  610 
486  624  563 
487  747  890 
488  872  930 
489  921  804 
490  627  681 
491  677  616 
492  920  817 
493  836  845 
494  94   217 
495  431  796 
496  740  886 
497  819  887 
498  649  219 
499  156  933 
500  599  218 
501  601  664 
502  659  278 
503  638  731 
504  968  722 
505  685  690 
506  733  312 
507  451  334 
508  51   107 
509  871  551 
510  334  850 
511  711  571 
512  332  889 
513  603  727 
514  728  233 
515  617  384 
516  195  911 
517  593  283 
518  519  733 
519  861  762 
520  598  797 
521  831  856 
522  693  257 
523  872  875 
524  735  232 
525  743  761 
526  620  254 
527  156  308 
528  241  999 
529  660  345 
530  842  861 
531  169  912 
532  609  281 
533  870  941 
534  840  797 
535  962  804 
536  688  174 
537  833  919 
538  620  784 
539  599  334 
540  712  867 
541  881  169 
542  87   159 
543  831  833 
544  277  975 
545  936  797 
546  714  168 
547  137  910 
548  671  215 
549  799  800 
550  764  779 
551  562  317 
552  770  355 
553  812  837 
554  901  924 
555  321  358 
556  725  716 
557  970  803 
558  979  870 
559  205  955 
560  953  552 
561  246  965 
562  910  856 
563  40   213 
564  401  759 
565  43   358 
566  559  122 
567  624  242 
568  479  678 
569  528  552 
570  593  282 
571  279  998 
572  752  702 
573  636  243 
574  945  849 
575  935  903 
576  860  909 
577  849  643 
578  996  918 
579  898  886 
580  443  571 
581  541  639 
582  599  589 
583  397  64  
584  648  701 
585  659  240 
586  895  825 
587  564  326 
588  828  933 
589  314  959 
590  543  788 
591  654  637 
592  748  690 
593  955  903 
594  865  848 
595  45   273 
596  928  858 
597  605  790 
598  715  912 
599  954  767 
600  853  873 
601  283  986 
DEMAND_SECTION
1    0   
2    1   
3    71  
4    3   
5    6   
6    99  
7    6   
8    6   
9    7   
10   1   
11   88  
12   66  
13   54  
14   8   
15   8   
16   10  
17   64  
18   89  
19   8   
20   93  
21   6   
22   73  
23   6   
24   7   
25   3   
26   2   
27   1   
28   6   
29   68  
30   70  
31   8   
32   3   
33   7   
34   6   
35   9   
36   8   
37   7   
38   4   
39   6   
40   5   
41   52  
42   5   
43   7   
44   2   
45   3   
46   53  
47   7   
48   6   
49   9   
50   8   
51   79  
52   4   
53   6   
54   6   
55   5   
56   8   
57   6   
58   2   
59   10  
60   56  
61   9   
62   8   
63   76  
64   7   
65   8   
66   6   
67   9   
68   8   
69   5   
70   10  
71   3   
72   7   
73   9   
74   3   
75   8   
76   87  
77   7   
78   4   
79   7   
80   3   
81   2   
82   8   
83   5   
84   8   
85   55  
86   79  
87   1   
88   3   
89   3   
90   72  
91   74  
92   7   
93   1   
94   9   
95   94  
96   76  
97   96  
98   79  
99   3   
100  52  
101  73  
102  54  
103  6   
104  8   
105  98  
106  4   
107  85  
108  1   
109  3   
110  10  
111  1   
112  3   
113  53  
114  3   
115  2   
116  6   
117  6   
118  7   
119  78  
120  5   
121  87  
122  3   
123  86  
124  94  
125  3   
126  5   
127  4   
128  7   
129  7   
130  2   
131  98  
132  6   
133  10  
134  6   
135  54  
136  79  
137  74  
138  10  
139  79  
140  54  
141  88  
142  4   
143  92  
144  81  
145  5   
146  10  
147  10  
148  79  
149  8   
150  63  
151  3   
152  82  
153  5   
154  8   
155  77  
156  10  
157  97  
158  5   
159  9   
160  3   
161  8   
162  6   
163  78  
164  79  
165  91  
166  10  
167  5   
168  10  
169  53  
170  3   
171  1   
172  63  
173  4   
174  9   
175  8   
176  1   
177  90  
178  7   
179  66  
180  72  
181  8   
182  3   
183  88  
184  9   
185  8   
186  2   
187  5   
188  6   
189  69  
190  99  
191  6   
192  5   
193  58  
194  97  
195  65  
196  4   
197  5   
198  4   
199  5   
200  83  
201  2   
202  2   
203  6   
204  52  
205  7   
206  84  
207  5   
208  2   
209  78  
210  7   
211  74  
212  7   
213  4   
214  5   
215  97  
216  8   
217  5   
218  3   
219  72  
220  1   
221  2   
222  6   
223  2   
224  88  
225  97  
226  6   
227  3   
228  53  
229  1   
230  10  
231  83  
232  8   
233  3   
234  63  
235  10  
236  1   
237  70  
238  10  
239  60  
240  7   
241  8   
242  5   
243  6   
244  2   
245  66  
246  75  
247  78  
248  1   
249  79  
250  87  
251  1   
252  67  
253  5   
254  2   
255  10  
256  8   
257  96  
258  6   
259  5   
260  7   
261  66  
262  53  
263  2   
264  1   
265  9   
266  4   
267  76  
268  10  
269  1   
270  9   
271  10  
272  3   
273  66  
274  8   
275  83  
276  87  
277  7   
278  4   
279  9   
280  53  
281  92  
282  62  
283  62  
284  7   
285  6   
286  7   
287  60  
288  85  
289  4   
290  10  
291  2   
292  6   
293  94  
294  1   
295  2   
296  52  
297  4   
298  77  
299  6   
300  85  
301  4   
302  93  
303  67  
304  1   
305  3   
306  7   
307  2   
308  63  
309  99  
310  1   
311  52  
312  6   
313  8   
314  3   
315  57  
316  1   
317  3   
318  79  
319  6   
320  50  
321  69  
322  1   
323  10  
324  1   
325  2   
326  75  
327  55  
328  60  
329  77  
330  1   
331  2   
332  63  
333  1   
334  4   
335  1   
336  69  
337  66  
338  8   
339  66  
340  6   
341  73  
342  52  
343  70  
344  98  
345  88  
346  2   
347  5   
348  1   
349  1   
350  75  
351  9   
352  87  
353  61  
354  2   
355  75  
356  6   
357  3   
358  7   
359  75  
360  55  
361  3   
362  87  
363  68  
364  10  
365  6   
366  4   
367  95  
368  2   
369  7   
370  63  
371  5   
372  8   
373  8   
374  4   
375  6   
376  8   
377  4   
378  82  
379  8   
380  9   
381  2   
382  91  
383  9   
384  10  
385  5   
386  10  
387  74  
388  76  
389  92  
390  75  
391  10  
392  10  
393  8   
394  2   
395  54  
396  8   
397  98  
398  82  
399  85  
400  6   
401  1   
402  8   
403  5   
404  3   
405  1   
406  6   
407  60  
408  1   
409  6   
410  3   
411  89  
412  9   
413  3   
414  5   
415  53  
416  7   
417  6   
418  3   
419  2   
420  6   
421  5   
422  5   
423  6   
424  4   
425  5   
426  91  
427  3   
428  4   
429  5   
430  4   
431  63  
432  7   
433  7   
434  4   
435  9   
436  8   
437  10  
438  2   
439  91  
440  69  
441  8   
442  2   
443  1   
444  2   
445  10  
446  64  
447  88  
448  3   
449  7   
450  10  
451  10  
452  2   
453  4   
454  3   
455  6   
456  8   
457  95  
458  5   
459  8   
460  4   
461  7   
462  8   
463  9   
464  72  
465  7   
466  91  
467  7   
468  1   
469  7   
470  9   
471  2   
472  3   
473  70  
474  10  
475  9   
476  1   
477  8   
478  3   
479  8   
480  91  
481  10  
482  5   
483  3   
484  93  
485  52  
486  5   
487  8   
488  69  
489  73  
490  4   
491  10  
492  65  
493  97  
494  83  
495  8   
496  71  
497  4   
498  8   
499  1   
500  2   
501  5   
502  5   
503  2   
504  8   
505  4   
506  3   
507  6   
508  8   
509  8   
510  9   
511  8   
512  1   
513  70  
514  2   
515  5   
516  6   
517  4   
518  5   
519  8   
520  58  
521  5   
522  4   
523  2   
524  10  
525  69  
526  7   
527  5   
528  3   
529  98  
530  8   
531  3   
532  84  
533  8   
534  1   
535  100 
536  5   
537  8   
538  10  
539  8   
540  10  
541  9   
542  53  
543  1   
544  4   
545  56  
546  2   
547  63  
548  10  
549  98  
550  9   
551  91  
552  3   
553  80  
554  5   
555  6   
556  5   
557  71  
558  73  
559  84  
560  8   
561  58  
562  54  
563  62  
564  7   
565  8   
566  70  
567  61  
568  51  
569  3   
570  2   
571  6   
572  9   
573  2   
574  2   
575  5   
576  8   
577  8   
578  1   
579  7   
580  59  
581  66  
582  93  
583  1   
584  6   
585  5   
586  91  
587  2   
588  72  
589  2   
590  6   
591  8   
592  10  
593  3   
594  4   
595  52  
596  63  
597  70  
598  5   
599  5   
600  2   
601  3   
DEPOT_SECTION
1
-1
EOF
