NAME : XML600_3275_33
COMMENT : Generated as the XML100 dataset from the CVRPLIB
TYPE : CVRP
DIMENSION : 601
EDGE_WEIGHT_TYPE : EUC_2D
CAPACITY : 198
NODE_COORD_SECTION
1    0    0   
2    936  81  
3    886  223 
4    377  126 
5    91   16  
6    814  82  
7    290  225 
8    280  50  
9    970  249 
10   834  87  
11   945  183 
12   207  65  
13   890  333 
14   302  64  
15   907  156 
16   897  219 
17   286  65  
18   934  48  
19   155  167 
20   832  238 
21   331  243 
22   885  110 
23   276  75  
24   278  246 
25   191  187 
26   922  186 
27   855  96  
28   914  182 
29   888  282 
30   234  185 
31   264  338 
32   346  237 
33   247  124 
34   287  169 
35   342  114 
36   941  275 
37   265  1   
38   279  174 
39   979  149 
40   442  70  
41   948  189 
42   850  282 
43   226  186 
44   823  176 
45   876  191 
46   775  99  
47   193  170 
48   266  11  
49   834  203 
50   254  122 
51   632  324 
52   105  179 
53   331  67  
54   945  128 
55   237  60  
56   265  131 
57   343  78  
58   293  220 
59   303  14  
60   262  251 
61   991  262 
62   501  17  
63   300  125 
64   1000 338 
65   867  101 
66   465  170 
67   971  140 
68   299  156 
69   322  158 
70   343  190 
71   960  396 
72   194  228 
73   205  76  
74   303  144 
75   184  53  
76   909  201 
77   287  47  
78   902  162 
79   805  238 
80   341  283 
81   336  186 
82   240  200 
83   974  177 
84   972  244 
85   340  147 
86   881  233 
87   837  208 
88   964  249 
89   333  117 
90   998  162 
91   287  159 
92   275  203 
93   973  96  
94   412  190 
95   330  148 
96   301  179 
97   761  343 
98   269  235 
99   861  259 
100  427  165 
101  911  224 
102  836  193 
103  958  228 
104  265  112 
105  260  6   
106  311  228 
107  877  249 
108  180  181 
109  230  11  
110  855  328 
111  310  110 
112  989  188 
113  224  205 
114  275  189 
115  232  218 
116  245  148 
117  373  77  
118  893  220 
119  257  122 
120  322  139 
121  371  242 
122  916  194 
123  252  25  
124  563  174 
125  906  177 
126  952  144 
127  816  274 
128  772  195 
129  106  105 
130  244  57  
131  870  83  
132  919  223 
133  868  150 
134  310  2   
135  225  53  
136  878  194 
137  185  227 
138  860  164 
139  979  264 
140  302  165 
141  899  253 
142  191  185 
143  267  153 
144  939  57  
145  935  194 
146  800  149 
147  183  339 
148  849  172 
149  362  152 
150  859  55  
151  912  219 
152  924  193 
153  939  331 
154  917  163 
155  952  130 
156  135  109 
157  394  131 
158  248  4   
159  247  225 
160  466  92  
161  873  367 
162  286  134 
163  157  160 
164  261  226 
165  195  290 
166  977  173 
167  859  288 
168  798  40  
169  693  274 
170  351  165 
171  208  116 
172  331  168 
173  865  224 
174  950  173 
175  801  239 
176  362  30  
177  823  236 
178  853  249 
179  919  231 
180  994  234 
181  100  39  
182  977  312 
183  283  142 
184  901  173 
185  258  76  
186  841  140 
187  815  240 
188  312  303 
189  950  56  
190  997  415 
191  256  115 
192  309  136 
193  996  190 
194  619  203 
195  934  233 
196  952  129 
197  275  277 
198  251  158 
199  839  90  
200  918  243 
201  933  115 
202  191  134 
203  336  134 
204  303  195 
205  814  289 
206  934  354 
207  298  116 
208  947  144 
209  164  265 
210  87   189 
211  297  148 
212  702  224 
213  335  183 
214  385  102 
215  938  342 
216  833  149 
217  237  124 
218  309  140 
219  961  164 
220  937  206 
221  294  258 
222  850  485 
223  884  209 
224  392  183 
225  251  144 
226  261  328 
227  317  98  
228  923  155 
229  401  97  
230  202  287 
231  284  186 
232  274  163 
233  304  164 
234  238  228 
235  349  77  
236  985  413 
237  240  170 
238  881  194 
239  278  44  
240  910  230 
241  273  167 
242  851  162 
243  982  362 
244  237  119 
245  367  67  
246  203  224 
247  918  188 
248  928  143 
249  946  179 
250  266  191 
251  259  152 
252  278  165 
253  289  165 
254  426  0   
255  271  126 
256  293  135 
257  408  122 
258  950  405 
259  234  95  
260  923  159 
261  887  376 
262  986  346 
263  910  207 
264  926  322 
265  243  152 
266  883  113 
267  238  232 
268  769  375 
269  244  126 
270  714  161 
271  451  196 
272  933  199 
273  285  136 
274  225  140 
275  327  160 
276  236  149 
277  950  297 
278  146  103 
279  949  170 
280  921  337 
281  387  67  
282  785  333 
283  878  393 
284  429  158 
285  845  234 
286  526  356 
287  546  334 
288  977  130 
289  280  71  
290  228  271 
291  891  197 
292  871  228 
293  933  212 
294  946  160 
295  974  240 
296  995  43  
297  744  272 
298  364  149 
299  958  152 
300  336  87  
301  272  170 
302  850  308 
303  940  211 
304  928  209 
305  405  214 
306  928  218 
307  420  86  
308  366  115 
309  118  111 
310  910  197 
311  957  290 
312  870  142 
313  965  169 
314  989  197 
315  237  104 
316  944  302 
317  844  135 
318  131  342 
319  215  183 
320  896  154 
321  887  325 
322  225  224 
323  243  272 
324  507  211 
325  833  223 
326  865  203 
327  874  251 
328  261  155 
329  949  25  
330  235  26  
331  43   103 
332  995  141 
333  71   31  
334  302  201 
335  257  68  
336  255  224 
337  298  167 
338  840  258 
339  863  134 
340  713  55  
341  293  88  
342  769  301 
343  311  151 
344  901  93  
345  121  18  
346  955  82  
347  212  285 
348  948  43  
349  898  222 
350  885  530 
351  827  409 
352  76   95  
353  885  121 
354  960  35  
355  316  122 
356  265  147 
357  840  226 
358  823  304 
359  978  168 
360  961  134 
361  306  193 
362  916  202 
363  310  163 
364  257  166 
365  377  82  
366  938  235 
367  939  209 
368  802  91  
369  302  164 
370  748  129 
371  870  127 
372  287  319 
373  385  49  
374  331  78  
375  282  213 
376  300  109 
377  929  33  
378  889  235 
379  849  162 
380  273  146 
381  275  192 
382  276  157 
383  211  9   
384  936  194 
385  957  378 
386  842  150 
387  230  297 
388  286  210 
389  331  361 
390  141  368 
391  875  345 
392  996  226 
393  394  130 
394  806  102 
395  898  185 
396  934  278 
397  288  94  
398  226  448 
399  860  338 
400  230  171 
401  896  233 
402  271  172 
403  811  198 
404  778  259 
405  132  273 
406  986  154 
407  919  253 
408  987  131 
409  883  150 
410  126  180 
411  804  24  
412  904  200 
413  746  190 
414  333  119 
415  236  186 
416  507  402 
417  288  224 
418  239  93  
419  915  233 
420  827  120 
421  333  240 
422  239  205 
423  848  197 
424  996  342 
425  852  167 
426  402  110 
427  872  145 
428  920  194 
429  989  181 
430  338  220 
431  305  43  
432  902  33  
433  282  50  
434  890  315 
435  913  191 
436  945  232 
437  117  248 
438  165  166 
439  892  95  
440  190  79  
441  961  231 
442  950  194 
443  407  184 
444  359  153 
445  326  214 
446  897  304 
447  227  253 
448  253  391 
449  226  47  
450  952  249 
451  912  185 
452  883  149 
453  280  274 
454  372  110 
455  941  230 
456  364  78  
457  400  37  
458  937  214 
459  65   205 
460  856  326 
461  355  133 
462  826  145 
463  949  206 
464  147  85  
465  998  257 
466  392  209 
467  958  193 
468  104  169 
469  888  214 
470  297  66  
471  277  60  
472  943  159 
473  908  201 
474  800  119 
475  717  112 
476  694  119 
477  889  224 
478  275  163 
479  898  291 
480  893  185 
481  809  213 
482  230  277 
483  294  14  
484  254  216 
485  934  222 
486  981  154 
487  968  233 
488  930  188 
489  112  397 
490  963  383 
491  836  162 
492  831  102 
493  884  95  
494  284  207 
495  883  368 
496  908  214 
497  286  158 
498  187  292 
499  277  167 
500  811  119 
501  194  160 
502  804  507 
503  239  311 
504  501  79  
505  326  87  
506  990  216 
507  259  146 
508  329  241 
509  252  30  
510  361  184 
511  461  360 
512  179  391 
513  853  228 
514  163  74  
515  203  110 
516  265  341 
517  732  203 
518  235  71  
519  881  201 
520  918  339 
521  856  275 
522  263  114 
523  945  185 
524  911  318 
525  88   174 
526  774  65  
527  880  223 
528  822  389 
529  962  274 
530  866  148 
531  195  120 
532  999  183 
533  365  293 
534  103  55  
535  958  142 
536  812  186 
537  384  163 
538  270  159 
539  819  338 
540  339  11  
541  168  129 
542  169  94  
543  826  233 
544  935  149 
545  886  247 
546  175  43  
547  352  66  
548  921  241 
549  93   220 
550  324  98  
551  882  169 
552  147  47  
553  296  45  
554  893  35  
555  959  218 
556  316  126 
557  259  19  
558  299  64  
559  858  189 
560  976  163 
561  942  259 
562  182  153 
563  785  214 
564  971  313 
565  301  110 
566  194  154 
567  247  157 
568  838  76  
569  775  276 
570  105  73  
571  964  310 
572  211  72  
573  885  273 
574  377  95  
575  960  187 
576  268  188 
577  200  319 
578  954  381 
579  875  237 
580  990  313 
581  969  290 
582  993  220 
583  181  76  
584  964  193 
585  936  122 
586  413  319 
587  872  595 
588  968  181 
589  293  262 
590  915  184 
591  860  248 
592  966  238 
593  132  183 
594  420  52  
595  868  328 
596  987  279 
597  239  129 
598  928  202 
599  268  183 
600  917  211 
601  712  178 
DEMAND_SECTION
1    0   
2    8   
3    10  
4    4   
5    5   
6    4   
7    10  
8    8   
9    1   
10   7   
11   2   
12   4   
13   5   
14   2   
15   3   
16   9   
17   75  
18   3   
19   10  
20   66  
21   9   
22   1   
23   7   
24   1   
25   4   
26   10  
27   2   
28   8   
29   3   
30   4   
31   9   
32   5   
33   4   
34   65  
35   84  
36   3   
37   7   
38   1   
39   6   
40   10  
41   6   
42   5   
43   8   
44   1   
45   5   
46   1   
47   8   
48   6   
49   3   
50   6   
51   4   
52   6   
53   53  
54   1   
55   10  
56   6   
57   4   
58   58  
59   7   
60   2   
61   6   
62   8   
63   2   
64   3   
65   4   
66   4   
67   7   
68   3   
69   1   
70   10  
71   10  
72   8   
73   3   
74   3   
75   1   
76   1   
77   10  
78   3   
79   3   
80   9   
81   5   
82   3   
83   7   
84   10  
85   6   
86   57  
87   4   
88   3   
89   3   
90   6   
91   9   
92   10  
93   6   
94   5   
95   10  
96   9   
97   1   
98   8   
99   6   
100  9   
101  5   
102  9   
103  10  
104  2   
105  85  
106  10  
107  54  
108  3   
109  2   
110  7   
111  89  
112  1   
113  6   
114  9   
115  8   
116  1   
117  8   
118  5   
119  6   
120  9   
121  10  
122  6   
123  4   
124  7   
125  7   
126  8   
127  5   
128  8   
129  10  
130  3   
131  77  
132  10  
133  9   
134  4   
135  81  
136  2   
137  6   
138  7   
139  3   
140  5   
141  8   
142  90  
143  2   
144  5   
145  1   
146  2   
147  10  
148  2   
149  3   
150  10  
151  6   
152  8   
153  5   
154  4   
155  2   
156  6   
157  3   
158  4   
159  2   
160  1   
161  72  
162  7   
163  8   
164  6   
165  7   
166  2   
167  1   
168  9   
169  5   
170  3   
171  4   
172  9   
173  8   
174  4   
175  1   
176  5   
177  3   
178  10  
179  8   
180  5   
181  10  
182  4   
183  5   
184  3   
185  7   
186  1   
187  55  
188  10  
189  1   
190  4   
191  2   
192  7   
193  9   
194  2   
195  7   
196  7   
197  7   
198  5   
199  59  
200  5   
201  5   
202  5   
203  9   
204  5   
205  7   
206  3   
207  2   
208  3   
209  3   
210  1   
211  1   
212  2   
213  60  
214  5   
215  5   
216  3   
217  1   
218  2   
219  1   
220  9   
221  5   
222  4   
223  1   
224  3   
225  62  
226  82  
227  1   
228  91  
229  89  
230  1   
231  4   
232  5   
233  72  
234  7   
235  6   
236  7   
237  10  
238  6   
239  69  
240  10  
241  2   
242  2   
243  10  
244  7   
245  10  
246  2   
247  3   
248  6   
249  9   
250  7   
251  4   
252  3   
253  55  
254  1   
255  85  
256  6   
257  10  
258  1   
259  3   
260  9   
261  8   
262  6   
263  3   
264  6   
265  3   
266  7   
267  3   
268  5   
269  1   
270  2   
271  10  
272  2   
273  1   
274  1   
275  3   
276  6   
277  3   
278  75  
279  3   
280  2   
281  2   
282  4   
283  5   
284  7   
285  3   
286  97  
287  51  
288  7   
289  3   
290  10  
291  4   
292  9   
293  8   
294  9   
295  9   
296  7   
297  5   
298  6   
299  6   
300  4   
301  8   
302  10  
303  10  
304  9   
305  4   
306  1   
307  2   
308  8   
309  10  
310  74  
311  6   
312  4   
313  8   
314  1   
315  8   
316  2   
317  3   
318  7   
319  4   
320  8   
321  7   
322  2   
323  5   
324  7   
325  4   
326  8   
327  6   
328  6   
329  6   
330  7   
331  6   
332  6   
333  2   
334  10  
335  9   
336  5   
337  90  
338  10  
339  6   
340  8   
341  10  
342  6   
343  2   
344  10  
345  8   
346  8   
347  8   
348  3   
349  1   
350  5   
351  10  
352  4   
353  4   
354  3   
355  71  
356  8   
357  4   
358  9   
359  7   
360  8   
361  10  
362  10  
363  3   
364  7   
365  8   
366  2   
367  8   
368  3   
369  2   
370  95  
371  7   
372  2   
373  4   
374  8   
375  9   
376  4   
377  10  
378  5   
379  2   
380  10  
381  5   
382  7   
383  2   
384  2   
385  6   
386  8   
387  2   
388  66  
389  6   
390  7   
391  5   
392  7   
393  3   
394  4   
395  5   
396  9   
397  97  
398  10  
399  4   
400  9   
401  4   
402  6   
403  9   
404  4   
405  2   
406  1   
407  4   
408  8   
409  8   
410  10  
411  4   
412  8   
413  1   
414  10  
415  7   
416  69  
417  5   
418  6   
419  1   
420  98  
421  5   
422  9   
423  1   
424  3   
425  6   
426  9   
427  8   
428  2   
429  8   
430  8   
431  6   
432  4   
433  8   
434  9   
435  5   
436  10  
437  2   
438  9   
439  9   
440  5   
441  7   
442  6   
443  9   
444  5   
445  8   
446  6   
447  6   
448  4   
449  7   
450  1   
451  1   
452  2   
453  2   
454  3   
455  1   
456  6   
457  4   
458  4   
459  4   
460  6   
461  95  
462  1   
463  9   
464  6   
465  1   
466  2   
467  1   
468  6   
469  3   
470  6   
471  5   
472  9   
473  2   
474  1   
475  10  
476  7   
477  10  
478  67  
479  10  
480  2   
481  3   
482  10  
483  3   
484  5   
485  1   
486  10  
487  5   
488  2   
489  9   
490  7   
491  5   
492  2   
493  8   
494  6   
495  7   
496  3   
497  1   
498  8   
499  59  
500  7   
501  10  
502  4   
503  7   
504  77  
505  3   
506  9   
507  7   
508  3   
509  59  
510  2   
511  8   
512  8   
513  2   
514  4   
515  8   
516  7   
517  1   
518  5   
519  6   
520  4   
521  8   
522  7   
523  5   
524  9   
525  5   
526  8   
527  1   
528  2   
529  1   
530  10  
531  6   
532  10  
533  5   
534  7   
535  59  
536  10  
537  3   
538  4   
539  4   
540  52  
541  1   
542  1   
543  3   
544  7   
545  4   
546  8   
547  4   
548  7   
549  5   
550  10  
551  67  
552  10  
553  2   
554  1   
555  2   
556  4   
557  5   
558  8   
559  9   
560  4   
561  6   
562  2   
563  10  
564  9   
565  7   
566  2   
567  10  
568  7   
569  1   
570  1   
571  5   
572  6   
573  6   
574  2   
575  2   
576  5   
577  9   
578  4   
579  10  
580  3   
581  1   
582  7   
583  6   
584  52  
585  5   
586  4   
587  4   
588  5   
589  9   
590  8   
591  7   
592  1   
593  6   
594  9   
595  86  
596  2   
597  6   
598  1   
599  82  
600  7   
601  1   
DEPOT_SECTION
1
-1
EOF
