NAME : XML600_2364_26
COMMENT : Generated as the XML100 dataset from the CVRPLIB
TYPE : CVRP
DIMENSION : 601
EDGE_WEIGHT_TYPE : EUC_2D
CAPACITY : 625
NODE_COORD_SECTION
1    500  500 
2    336  583 
3    718  258 
4    483  364 
5    641  572 
6    648  193 
7    724  588 
8    947  337 
9    373  659 
10   282  212 
11   48   710 
12   799  102 
13   353  272 
14   591  311 
15   467  541 
16   104  727 
17   289  525 
18   710  546 
19   273  419 
20   697  585 
21   704  206 
22   122  524 
23   879  76  
24   90   181 
25   916  897 
26   88   257 
27   275  739 
28   796  572 
29   735  86  
30   444  260 
31   631  114 
32   465  54  
33   642  114 
34   362  972 
35   68   525 
36   504  180 
37   600  144 
38   632  176 
39   988  378 
40   446  95  
41   614  591 
42   994  821 
43   645  654 
44   201  376 
45   108  575 
46   662  96  
47   770  285 
48   790  263 
49   667  309 
50   461  451 
51   94   914 
52   612  95  
53   635  335 
54   764  80  
55   534  203 
56   937  151 
57   685  363 
58   390  418 
59   616  74  
60   649  260 
61   172  186 
62   514  72  
63   660  135 
64   146  826 
65   762  164 
66   11   781 
67   532  623 
68   541  174 
69   891  970 
70   758  279 
71   509  258 
72   651  589 
73   688  647 
74   291  691 
75   387  628 
76   917  61  
77   934  141 
78   838  918 
79   639  53  
80   783  97  
81   812  380 
82   568  294 
83   756  85  
84   255  90  
85   49   232 
86   320  448 
87   586  747 
88   647  187 
89   419  332 
90   779  68  
91   411  477 
92   542  677 
93   399  768 
94   619  124 
95   692  194 
96   336  657 
97   732  248 
98   640  183 
99   551  609 
100  636  42  
101  682  265 
102  898  164 
103  763  128 
104  766  35  
105  395  217 
106  541  182 
107  87   110 
108  374  14  
109  328  56  
110  11   865 
111  246  103 
112  446  933 
113  688  210 
114  613  305 
115  415  460 
116  800  369 
117  622  619 
118  961  750 
119  820  109 
120  923  220 
121  849  163 
122  393  405 
123  188  701 
124  768  849 
125  632  668 
126  334  346 
127  612  610 
128  568  284 
129  356  95  
130  142  41  
131  77   33  
132  736  761 
133  714  999 
134  524  353 
135  626  221 
136  941  623 
137  152  54  
138  637  230 
139  699  214 
140  211  149 
141  898  42  
142  780  315 
143  465  550 
144  544  276 
145  907  993 
146  226  561 
147  641  236 
148  722  81  
149  87   464 
150  670  281 
151  751  126 
152  678  532 
153  777  502 
154  828  736 
155  471  566 
156  910  784 
157  235  627 
158  562  604 
159  849  32  
160  779  44  
161  780  9   
162  10   356 
163  494  805 
164  495  532 
165  759  233 
166  480  251 
167  371  106 
168  877  216 
169  657  185 
170  676  711 
171  506  132 
172  511  247 
173  281  297 
174  883  69  
175  885  183 
176  287  377 
177  193  333 
178  31   927 
179  744  216 
180  79   357 
181  847  336 
182  635  157 
183  727  20  
184  701  120 
185  656  225 
186  604  425 
187  817  569 
188  475  540 
189  574  573 
190  642  61  
191  517  286 
192  687  221 
193  23   141 
194  423  520 
195  277  951 
196  162  256 
197  609  140 
198  824  37  
199  945  345 
200  602  537 
201  983  457 
202  652  614 
203  435  103 
204  397  513 
205  204  347 
206  647  517 
207  705  638 
208  918  593 
209  635  561 
210  825  56  
211  607  233 
212  456  311 
213  83   322 
214  703  39  
215  604  155 
216  733  49  
217  823  617 
218  154  620 
219  464  526 
220  487  24  
221  606  390 
222  550  211 
223  131  874 
224  304  555 
225  857  609 
226  524  567 
227  797  97  
228  259  4   
229  328  930 
230  530  507 
231  914  609 
232  673  128 
233  491  426 
234  609  638 
235  80   953 
236  677  126 
237  587  232 
238  620  247 
239  295  60  
240  897  412 
241  536  15  
242  772  161 
243  508  618 
244  687  193 
245  172  492 
246  568  111 
247  62   379 
248  649  575 
249  520  272 
250  165  233 
251  603  953 
252  695  44  
253  655  8   
254  691  190 
255  881  418 
256  653  810 
257  599  839 
258  642  154 
259  663  613 
260  635  124 
261  875  105 
262  636  259 
263  655  120 
264  494  273 
265  669  36  
266  701  105 
267  830  228 
268  340  462 
269  555  536 
270  437  800 
271  922  320 
272  299  866 
273  161  496 
274  445  282 
275  594  234 
276  772  268 
277  253  844 
278  630  175 
279  578  375 
280  551  785 
281  465  507 
282  688  27  
283  728  72  
284  523  466 
285  769  873 
286  462  874 
287  752  57  
288  660  548 
289  680  288 
290  852  480 
291  460  779 
292  158  566 
293  735  71  
294  350  925 
295  668  179 
296  771  164 
297  701  603 
298  723  124 
299  763  160 
300  271  381 
301  702  586 
302  513  659 
303  990  971 
304  904  791 
305  670  197 
306  480  994 
307  611  156 
308  700  908 
309  952  77  
310  637  312 
311  676  142 
312  59   848 
313  625  185 
314  718  651 
315  658  609 
316  290  362 
317  466  704 
318  806  391 
319  794  664 
320  992  243 
321  636  617 
322  439  198 
323  451  172 
324  682  175 
325  500  711 
326  965  402 
327  903  808 
328  467  534 
329  125  276 
330  681  216 
331  542  546 
332  70   587 
333  172  845 
334  334  526 
335  370  848 
336  343  602 
337  49   393 
338  971  152 
339  403  396 
340  613  215 
341  178  534 
342  476  237 
343  763  132 
344  495  488 
345  657  132 
346  495  973 
347  681  773 
348  990  49  
349  443  554 
350  617  352 
351  793  29  
352  590  69  
353  669  124 
354  694  544 
355  652  584 
356  845  57  
357  489  706 
358  463  388 
359  885  386 
360  982  575 
361  416  563 
362  727  196 
363  886  759 
364  407  87  
365  627  374 
366  914  278 
367  580  689 
368  31   748 
369  740  125 
370  472  747 
371  431  300 
372  562  402 
373  707  631 
374  629  163 
375  458  839 
376  587  175 
377  753  198 
378  724  162 
379  604  255 
380  401  570 
381  663  152 
382  625  296 
383  675  135 
384  526  192 
385  62   713 
386  738  191 
387  687  783 
388  147  671 
389  716  163 
390  484  469 
391  830  32  
392  420  286 
393  606  175 
394  487  474 
395  577  102 
396  574  353 
397  837  327 
398  972  808 
399  568  566 
400  234  550 
401  666  207 
402  876  26  
403  713  139 
404  650  101 
405  838  161 
406  622  793 
407  428  662 
408  594  20  
409  851  774 
410  139  141 
411  179  214 
412  627  728 
413  581  114 
414  264  559 
415  554  487 
416  556  695 
417  625  538 
418  376  508 
419  589  225 
420  382  560 
421  677  185 
422  649  751 
423  732  529 
424  428  374 
425  801  238 
426  547  102 
427  753  588 
428  304  771 
429  654  48  
430  624  196 
431  474  755 
432  749  456 
433  568  152 
434  653  995 
435  921  10  
436  673  335 
437  869  494 
438  662  582 
439  295  240 
440  921  266 
441  501  485 
442  601  194 
443  42   734 
444  658  319 
445  229  569 
446  354  75  
447  406  503 
448  704  444 
449  399  891 
450  692  70  
451  492  381 
452  485  778 
453  798  582 
454  577  586 
455  973  205 
456  601  571 
457  681  173 
458  601  180 
459  770  110 
460  525  32  
461  632  405 
462  1    849 
463  729  365 
464  623  356 
465  375  758 
466  184  660 
467  670  297 
468  675  223 
469  386  367 
470  628  138 
471  570  75  
472  752  628 
473  88   557 
474  613  540 
475  260  7   
476  522  669 
477  926  115 
478  15   981 
479  772  304 
480  759  96  
481  10   884 
482  641  220 
483  834  773 
484  65   191 
485  945  213 
486  705  250 
487  663  244 
488  296  707 
489  0    983 
490  265  463 
491  257  132 
492  713  92  
493  527  212 
494  810  52  
495  650  72  
496  698  67  
497  397  246 
498  397  911 
499  148  90  
500  636  164 
501  498  41  
502  490  464 
503  179  688 
504  646  312 
505  250  977 
506  373  711 
507  769  657 
508  474  196 
509  657  61  
510  859  968 
511  427  520 
512  566  59  
513  745  439 
514  113  617 
515  584  620 
516  606  635 
517  169  517 
518  362  503 
519  874  278 
520  638  178 
521  16   540 
522  56   347 
523  458  656 
524  706  340 
525  549  109 
526  166  466 
527  795  21  
528  508  504 
529  813  295 
530  641  201 
531  544  259 
532  4    660 
533  569  590 
534  437  300 
535  471  540 
536  654  670 
537  647  155 
538  680  152 
539  685  267 
540  644  476 
541  706  79  
542  508  234 
543  629  204 
544  627  42  
545  732  198 
546  648  226 
547  466  582 
548  581  569 
549  680  26  
550  885  166 
551  89   366 
552  948  353 
553  591  97  
554  655  536 
555  530  621 
556  290  114 
557  875  395 
558  725  60  
559  638  568 
560  722  400 
561  668  191 
562  689  223 
563  371  996 
564  88   775 
565  874  942 
566  213  797 
567  745  132 
568  829  400 
569  747  587 
570  442  467 
571  186  928 
572  402  165 
573  458  84  
574  482  459 
575  727  245 
576  473  728 
577  755  554 
578  597  117 
579  774  576 
580  636  117 
581  598  252 
582  671  322 
583  817  803 
584  739  57  
585  146  882 
586  619  540 
587  167  160 
588  271  635 
589  525  887 
590  292  447 
591  489  732 
592  737  141 
593  857  722 
594  562  298 
595  682  214 
596  221  243 
597  732  62  
598  714  270 
599  462  961 
600  747  474 
601  654  246 
DEMAND_SECTION
1    0   
2    21  
3    11  
4    74  
5    60  
6    8   
7    87  
8    24  
9    16  
10   86  
11   23  
12   34  
13   100 
14   30  
15   47  
16   12  
17   43  
18   93  
19   88  
20   52  
21   6   
22   28  
23   47  
24   84  
25   99  
26   75  
27   30  
28   70  
29   8   
30   62  
31   14  
32   53  
33   36  
34   12  
35   29  
36   24  
37   25  
38   9   
39   25  
40   73  
41   89  
42   98  
43   86  
44   58  
45   20  
46   26  
47   42  
48   49  
49   4   
50   94  
51   26  
52   22  
53   37  
54   7   
55   40  
56   36  
57   37  
58   95  
59   38  
60   11  
61   64  
62   45  
63   26  
64   17  
65   22  
66   15  
67   95  
68   48  
69   60  
70   16  
71   22  
72   77  
73   89  
74   16  
75   7   
76   20  
77   8   
78   84  
79   38  
80   32  
81   12  
82   5   
83   39  
84   53  
85   96  
86   63  
87   63  
88   32  
89   64  
90   40  
91   98  
92   74  
93   33  
94   49  
95   18  
96   35  
97   14  
98   29  
99   74  
100  30  
101  9   
102  41  
103  41  
104  8   
105  54  
106  12  
107  72  
108  76  
109  81  
110  27  
111  62  
112  49  
113  16  
114  13  
115  54  
116  30  
117  67  
118  91  
119  45  
120  46  
121  49  
122  87  
123  1   
124  97  
125  87  
126  63  
127  97  
128  23  
129  79  
130  96  
131  87  
132  66  
133  80  
134  43  
135  23  
136  99  
137  97  
138  2   
139  28  
140  87  
141  4   
142  30  
143  44  
144  13  
145  87  
146  5   
147  39  
148  16  
149  76  
150  8   
151  22  
152  62  
153  65  
154  73  
155  50  
156  79  
157  15  
158  92  
159  7   
160  32  
161  12  
162  68  
163  43  
164  14  
165  36  
166  72  
167  72  
168  27  
169  25  
170  59  
171  19  
172  45  
173  89  
174  14  
175  33  
176  63  
177  71  
178  42  
179  14  
180  91  
181  9   
182  25  
183  19  
184  10  
185  34  
186  35  
187  88  
188  46  
189  54  
190  49  
191  1   
192  44  
193  66  
194  8   
195  32  
196  94  
197  4   
198  5   
199  12  
200  78  
201  1   
202  62  
203  75  
204  22  
205  88  
206  97  
207  61  
208  69  
209  55  
210  12  
211  11  
212  86  
213  98  
214  17  
215  40  
216  31  
217  100 
218  2   
219  23  
220  97  
221  11  
222  48  
223  25  
224  41  
225  60  
226  88  
227  23  
228  80  
229  5   
230  64  
231  54  
232  37  
233  57  
234  81  
235  29  
236  46  
237  26  
238  7   
239  55  
240  30  
241  15  
242  46  
243  56  
244  27  
245  93  
246  27  
247  66  
248  61  
249  27  
250  87  
251  79  
252  37  
253  44  
254  22  
255  49  
256  58  
257  74  
258  44  
259  66  
260  26  
261  15  
262  6   
263  32  
264  72  
265  37  
266  32  
267  38  
268  82  
269  72  
270  3   
271  30  
272  40  
273  71  
274  67  
275  48  
276  32  
277  36  
278  28  
279  48  
280  84  
281  18  
282  2   
283  46  
284  22  
285  96  
286  34  
287  14  
288  68  
289  1   
290  7   
291  2   
292  27  
293  4   
294  1   
295  6   
296  1   
297  95  
298  29  
299  49  
300  61  
301  63  
302  70  
303  74  
304  56  
305  20  
306  9   
307  31  
308  88  
309  44  
310  10  
311  30  
312  46  
313  43  
314  97  
315  69  
316  75  
317  25  
318  25  
319  56  
320  33  
321  73  
322  74  
323  65  
324  43  
325  51  
326  6   
327  95  
328  42  
329  87  
330  9   
331  52  
332  22  
333  27  
334  5   
335  43  
336  30  
337  51  
338  43  
339  52  
340  16  
341  19  
342  94  
343  17  
344  97  
345  50  
346  23  
347  71  
348  50  
349  4   
350  30  
351  29  
352  10  
353  38  
354  63  
355  61  
356  17  
357  44  
358  60  
359  7   
360  59  
361  29  
362  48  
363  77  
364  61  
365  16  
366  45  
367  86  
368  32  
369  16  
370  37  
371  92  
372  37  
373  70  
374  46  
375  37  
376  32  
377  13  
378  15  
379  47  
380  6   
381  14  
382  31  
383  37  
384  24  
385  15  
386  40  
387  58  
388  26  
389  16  
390  97  
391  36  
392  68  
393  42  
394  84  
395  6   
396  1   
397  32  
398  66  
399  89  
400  41  
401  18  
402  38  
403  34  
404  2   
405  46  
406  91  
407  25  
408  12  
409  85  
410  88  
411  57  
412  62  
413  14  
414  8   
415  6   
416  88  
417  60  
418  28  
419  31  
420  32  
421  48  
422  62  
423  82  
424  85  
425  38  
426  45  
427  52  
428  34  
429  41  
430  7   
431  5   
432  5   
433  26  
434  92  
435  18  
436  1   
437  31  
438  62  
439  84  
440  46  
441  18  
442  6   
443  47  
444  29  
445  4   
446  80  
447  39  
448  41  
449  49  
450  46  
451  91  
452  42  
453  62  
454  86  
455  29  
456  69  
457  44  
458  6   
459  27  
460  8   
461  7   
462  8   
463  27  
464  19  
465  50  
466  47  
467  29  
468  9   
469  57  
470  47  
471  48  
472  64  
473  35  
474  82  
475  73  
476  65  
477  14  
478  39  
479  1   
480  5   
481  29  
482  14  
483  89  
484  75  
485  43  
486  20  
487  10  
488  31  
489  26  
490  67  
491  76  
492  4   
493  39  
494  2   
495  30  
496  10  
497  93  
498  31  
499  98  
500  41  
501  69  
502  84  
503  9   
504  30  
505  42  
506  10  
507  91  
508  90  
509  22  
510  96  
511  24  
512  21  
513  29  
514  38  
515  77  
516  72  
517  23  
518  14  
519  2   
520  14  
521  18  
522  69  
523  9   
524  17  
525  37  
526  80  
527  43  
528  77  
529  45  
530  30  
531  9   
532  18  
533  88  
534  81  
535  26  
536  79  
537  30  
538  23  
539  45  
540  30  
541  14  
542  24  
543  36  
544  28  
545  47  
546  4   
547  12  
548  87  
549  10  
550  31  
551  51  
552  33  
553  36  
554  100 
555  92  
556  81  
557  35  
558  3   
559  80  
560  26  
561  48  
562  2   
563  48  
564  39  
565  69  
566  18  
567  34  
568  22  
569  100 
570  60  
571  2   
572  70  
573  98  
574  92  
575  30  
576  40  
577  88  
578  48  
579  73  
580  24  
581  42  
582  10  
583  92  
584  27  
585  13  
586  72  
587  92  
588  49  
589  81  
590  86  
591  11  
592  14  
593  91  
594  3   
595  49  
596  61  
597  9   
598  37  
599  2   
600  19  
601  16  
DEPOT_SECTION
1
-1
EOF
