NAME : XML600_2225_27
COMMENT : Generated as the XML100 dataset from the CVRPLIB
TYPE : CVRP
DIMENSION : 601
EDGE_WEIGHT_TYPE : EUC_2D
CAPACITY : 93
NODE_COORD_SECTION
1    500  500 
2    169  79  
3    142  62  
4    400  375 
5    489  462 
6    532  256 
7    569  534 
8    980  541 
9    993  471 
10   585  524 
11   316  399 
12   455  405 
13   79   145 
14   555  519 
15   395  628 
16   400  78  
17   576  322 
18   711  101 
19   555  537 
20   511  174 
21   585  398 
22   516  289 
23   754  984 
24   63   182 
25   224  99  
26   791  466 
27   904  532 
28   539  547 
29   486  266 
30   303  410 
31   540  246 
32   449  464 
33   338  624 
34   796  846 
35   969  527 
36   549  569 
37   823  302 
38   231  170 
39   51   212 
40   908  507 
41   591  333 
42   710  132 
43   411  613 
44   971  563 
45   532  354 
46   936  453 
47   563  616 
48   245  190 
49   981  613 
50   443  291 
51   481  564 
52   491  358 
53   363  438 
54   813  885 
55   689  450 
56   592  270 
57   513  215 
58   707  894 
59   477  450 
60   498  482 
61   700  626 
62   437  234 
63   271  220 
64   627  84  
65   573  503 
66   454  183 
67   533  714 
68   525  472 
69   728  306 
70   753  488 
71   686  825 
72   502  497 
73   709  796 
74   822  862 
75   878  586 
76   120  261 
77   503  309 
78   964  793 
79   609  327 
80   55   51  
81   127  156 
82   532  232 
83   144  245 
84   105  430 
85   467  526 
86   933  423 
87   757  853 
88   994  537 
89   699  503 
90   545  454 
91   403  370 
92   298  177 
93   670  552 
94   130  59  
95   545  539 
96   726  471 
97   465  439 
98   977  480 
99   645  406 
100  818  981 
101  953  531 
102  951  598 
103  561  528 
104  671  409 
105  729  768 
106  298  163 
107  296  230 
108  145  79  
109  570  451 
110  826  804 
111  617  294 
112  728  808 
113  565  354 
114  168  309 
115  723  986 
116  382  418 
117  455  250 
118  98   232 
119  961  458 
120  551  483 
121  787  732 
122  289  208 
123  466  506 
124  581  493 
125  927  483 
126  984  599 
127  490  216 
128  453  316 
129  565  228 
130  675  774 
131  786  861 
132  488  539 
133  69   308 
134  434  339 
135  152  324 
136  314  484 
137  554  502 
138  480  135 
139  476  439 
140  505  475 
141  305  548 
142  8    343 
143  258  198 
144  471  351 
145  620  303 
146  678  155 
147  683  508 
148  761  189 
149  217  309 
150  739  781 
151  490  476 
152  571  550 
153  469  520 
154  872  654 
155  616  966 
156  778  372 
157  94   94  
158  909  572 
159  411  435 
160  977  456 
161  591  402 
162  260  144 
163  711  327 
164  118  60  
165  235  456 
166  407  181 
167  271  159 
168  180  139 
169  556  417 
170  856  678 
171  480  278 
172  674  143 
173  607  202 
174  539  193 
175  182  175 
176  6    507 
177  580  630 
178  264  375 
179  434  158 
180  808  875 
181  22   204 
182  563  568 
183  605  296 
184  586  444 
185  91   93  
186  506  433 
187  965  468 
188  482  234 
189  726  433 
190  603  204 
191  529  404 
192  778  861 
193  432  224 
194  434  432 
195  851  720 
196  984  566 
197  560  266 
198  456  428 
199  412  358 
200  620  405 
201  107  158 
202  254  595 
203  930  976 
204  598  377 
205  971  510 
206  595  250 
207  686  597 
208  607  453 
209  936  638 
210  378  490 
211  248  124 
212  516  442 
213  814  810 
214  710  820 
215  524  464 
216  764  800 
217  456  329 
218  505  469 
219  584  204 
220  618  355 
221  495  284 
222  703  551 
223  766  509 
224  570  534 
225  189  177 
226  132  70  
227  827  632 
228  106  170 
229  775  832 
230  430  258 
231  225  127 
232  722  933 
233  541  494 
234  118  171 
235  702  884 
236  663  865 
237  863  801 
238  512  476 
239  652  636 
240  986  899 
241  612  145 
242  879  516 
243  953  465 
244  657  314 
245  673  420 
246  707  818 
247  357  547 
248  821  947 
249  752  826 
250  307  546 
251  467  455 
252  471  416 
253  487  531 
254  982  501 
255  203  107 
256  508  474 
257  563  279 
258  795  903 
259  599  601 
260  531  67  
261  158  221 
262  630  854 
263  484  382 
264  929  494 
265  505  423 
266  501  471 
267  885  424 
268  502  506 
269  739  855 
270  497  446 
271  110  149 
272  812  857 
273  872  481 
274  515  463 
275  770  851 
276  822  907 
277  437  400 
278  827  604 
279  896  447 
280  939  427 
281  201  169 
282  916  523 
283  371  589 
284  461  473 
285  77   111 
286  431  621 
287  516  180 
288  524  431 
289  547  262 
290  538  442 
291  486  413 
292  172  226 
293  990  468 
294  925  469 
295  525  606 
296  482  308 
297  10   596 
298  453  528 
299  75   186 
300  808  576 
301  722  900 
302  170  176 
303  589  236 
304  782  285 
305  161  194 
306  746  219 
307  991  544 
308  920  502 
309  220  536 
310  650  260 
311  506  475 
312  467  413 
313  57   240 
314  599  294 
315  662  908 
316  642  274 
317  508  423 
318  590  236 
319  143  163 
320  130  81  
321  106  132 
322  417  421 
323  505  543 
324  656  941 
325  453  514 
326  144  244 
327  761  868 
328  590  501 
329  350  349 
330  521  487 
331  900  416 
332  724  837 
333  236  107 
334  458  467 
335  620  627 
336  652  836 
337  522  470 
338  196  327 
339  645  293 
340  918  577 
341  463  402 
342  878  751 
343  891  443 
344  503  456 
345  399  655 
346  819  949 
347  562  542 
348  790  787 
349  962  512 
350  518  472 
351  556  584 
352  995  289 
353  530  464 
354  560  465 
355  16   63  
356  792  195 
357  473  567 
358  519  445 
359  398  146 
360  532  473 
361  190  126 
362  266  103 
363  238  459 
364  408  443 
365  700  880 
366  711  889 
367  260  59  
368  122  256 
369  649  249 
370  428  537 
371  472  482 
372  70   420 
373  799  867 
374  631  502 
375  712  826 
376  131  197 
377  863  470 
378  830  958 
379  784  860 
380  624  215 
381  511  445 
382  800  795 
383  573  249 
384  926  553 
385  836  897 
386  488  556 
387  771  499 
388  746  851 
389  537  430 
390  602  178 
391  552  320 
392  714  895 
393  518  453 
394  515  429 
395  158  137 
396  453  472 
397  474  513 
398  934  516 
399  619  522 
400  845  447 
401  830  306 
402  441  354 
403  974  579 
404  168  168 
405  415  472 
406  586  183 
407  477  276 
408  755  904 
409  690  658 
410  680  245 
411  818  862 
412  566  232 
413  209  251 
414  499  569 
415  528  367 
416  397  558 
417  452  457 
418  409  532 
419  676  131 
420  780  835 
421  530  413 
422  309  176 
423  520  201 
424  414  467 
425  956  521 
426  960  811 
427  451  516 
428  247  210 
429  563  428 
430  129  236 
431  546  268 
432  817  335 
433  159  97  
434  510  184 
435  459  636 
436  666  858 
437  776  828 
438  474  517 
439  778  766 
440  681  861 
441  586  205 
442  591  549 
443  505  644 
444  724  911 
445  555  492 
446  426  607 
447  424  637 
448  391  469 
449  608  345 
450  455  252 
451  544  162 
452  576  380 
453  39   166 
454  639  427 
455  741  874 
456  981  456 
457  586  164 
458  755  876 
459  468  563 
460  979  513 
461  528  586 
462  857  923 
463  424  129 
464  677  584 
465  469  280 
466  251  67  
467  607  232 
468  533  292 
469  453  183 
470  208  343 
471  410  450 
472  451  497 
473  985  538 
474  393  7   
475  463  489 
476  298  254 
477  540  434 
478  639  831 
479  750  918 
480  495  530 
481  624  433 
482  565  207 
483  562  458 
484  923  437 
485  488  518 
486  734  183 
487  231  120 
488  571  305 
489  756  845 
490  580  372 
491  382  518 
492  72   203 
493  179  46  
494  512  484 
495  652  662 
496  717  889 
497  580  246 
498  536  459 
499  668  853 
500  451  101 
501  725  740 
502  823  656 
503  598  281 
504  602  279 
505  472  151 
506  165  250 
507  569  739 
508  456  453 
509  551  560 
510  548  298 
511  573  480 
512  416  524 
513  641  206 
514  605  271 
515  796  247 
516  375  74  
517  920  700 
518  451  496 
519  602  238 
520  224  286 
521  578  945 
522  650  296 
523  340  497 
524  930  439 
525  450  378 
526  55   266 
527  184  97  
528  499  499 
529  910  884 
530  690  862 
531  965  600 
532  869  483 
533  744  851 
534  308  159 
535  204  358 
536  407  519 
537  575  521 
538  736  865 
539  345  562 
540  540  392 
541  586  270 
542  206  147 
543  89   227 
544  321  619 
545  690  763 
546  992  427 
547  155  205 
548  221  150 
549  502  401 
550  417  461 
551  513  20  
552  543  466 
553  491  248 
554  156  38  
555  171  176 
556  178  35  
557  182  185 
558  747  619 
559  985  509 
560  399  430 
561  299  352 
562  439  512 
563  156  294 
564  683  872 
565  381  515 
566  480  485 
567  17   495 
568  159  170 
569  676  954 
570  643  777 
571  550  329 
572  796  232 
573  737  155 
574  558  678 
575  329  208 
576  537  484 
577  227  160 
578  517  426 
579  247  175 
580  590  230 
581  541  365 
582  185  172 
583  538  476 
584  467  434 
585  711  785 
586  737  941 
587  593  259 
588  520  525 
589  730  920 
590  773  738 
591  559  638 
592  838  956 
593  613  200 
594  586  246 
595  224  248 
596  592  415 
597  549  444 
598  665  893 
599  948  882 
600  956  557 
601  417  410 
DEMAND_SECTION
1    0   
2    4   
3    7   
4    8   
5    7   
6    3   
7    6   
8    7   
9    8   
10   10  
11   1   
12   3   
13   3   
14   4   
15   3   
16   2   
17   6   
18   4   
19   7   
20   2   
21   6   
22   5   
23   5   
24   6   
25   5   
26   7   
27   2   
28   6   
29   1   
30   1   
31   3   
32   10  
33   10  
34   2   
35   2   
36   6   
37   4   
38   1   
39   7   
40   5   
41   1   
42   5   
43   2   
44   5   
45   10  
46   7   
47   1   
48   9   
49   2   
50   1   
51   9   
52   4   
53   9   
54   4   
55   1   
56   9   
57   5   
58   7   
59   1   
60   10  
61   3   
62   1   
63   7   
64   7   
65   2   
66   3   
67   5   
68   8   
69   5   
70   10  
71   8   
72   5   
73   8   
74   6   
75   3   
76   9   
77   2   
78   1   
79   10  
80   9   
81   10  
82   10  
83   7   
84   4   
85   5   
86   6   
87   6   
88   7   
89   7   
90   7   
91   10  
92   10  
93   6   
94   4   
95   8   
96   2   
97   9   
98   8   
99   2   
100  9   
101  6   
102  5   
103  6   
104  8   
105  9   
106  7   
107  7   
108  4   
109  10  
110  9   
111  6   
112  4   
113  1   
114  9   
115  3   
116  8   
117  7   
118  7   
119  5   
120  8   
121  3   
122  6   
123  5   
124  6   
125  10  
126  6   
127  9   
128  3   
129  7   
130  7   
131  10  
132  2   
133  7   
134  4   
135  8   
136  3   
137  9   
138  4   
139  3   
140  7   
141  10  
142  10  
143  4   
144  8   
145  1   
146  1   
147  7   
148  5   
149  2   
150  1   
151  9   
152  5   
153  9   
154  7   
155  1   
156  9   
157  3   
158  8   
159  8   
160  2   
161  2   
162  1   
163  5   
164  10  
165  9   
166  9   
167  1   
168  2   
169  9   
170  8   
171  2   
172  2   
173  5   
174  5   
175  9   
176  7   
177  8   
178  4   
179  5   
180  3   
181  1   
182  5   
183  7   
184  6   
185  6   
186  2   
187  9   
188  2   
189  6   
190  2   
191  6   
192  8   
193  10  
194  1   
195  10  
196  9   
197  5   
198  6   
199  10  
200  8   
201  8   
202  3   
203  7   
204  4   
205  9   
206  7   
207  10  
208  8   
209  3   
210  2   
211  6   
212  1   
213  10  
214  3   
215  6   
216  6   
217  10  
218  9   
219  9   
220  8   
221  1   
222  5   
223  10  
224  6   
225  6   
226  6   
227  8   
228  4   
229  5   
230  10  
231  5   
232  8   
233  10  
234  2   
235  7   
236  9   
237  10  
238  8   
239  7   
240  5   
241  10  
242  5   
243  6   
244  2   
245  1   
246  10  
247  3   
248  10  
249  8   
250  10  
251  2   
252  7   
253  5   
254  3   
255  6   
256  5   
257  3   
258  2   
259  6   
260  2   
261  8   
262  4   
263  3   
264  3   
265  5   
266  4   
267  2   
268  6   
269  10  
270  2   
271  5   
272  10  
273  1   
274  8   
275  9   
276  6   
277  4   
278  6   
279  1   
280  9   
281  5   
282  10  
283  1   
284  9   
285  2   
286  9   
287  9   
288  1   
289  9   
290  8   
291  2   
292  1   
293  10  
294  2   
295  3   
296  10  
297  6   
298  1   
299  1   
300  7   
301  8   
302  8   
303  7   
304  2   
305  5   
306  8   
307  3   
308  7   
309  1   
310  10  
311  10  
312  8   
313  9   
314  8   
315  1   
316  9   
317  8   
318  4   
319  7   
320  7   
321  9   
322  2   
323  7   
324  10  
325  1   
326  9   
327  7   
328  7   
329  5   
330  2   
331  2   
332  10  
333  3   
334  10  
335  6   
336  2   
337  1   
338  8   
339  7   
340  8   
341  3   
342  5   
343  5   
344  8   
345  5   
346  7   
347  8   
348  9   
349  4   
350  6   
351  8   
352  3   
353  1   
354  3   
355  7   
356  8   
357  7   
358  1   
359  7   
360  1   
361  7   
362  1   
363  10  
364  7   
365  6   
366  1   
367  4   
368  1   
369  4   
370  8   
371  4   
372  4   
373  4   
374  7   
375  10  
376  6   
377  5   
378  8   
379  10  
380  2   
381  4   
382  8   
383  10  
384  7   
385  2   
386  9   
387  4   
388  8   
389  6   
390  2   
391  6   
392  8   
393  6   
394  5   
395  10  
396  8   
397  1   
398  2   
399  3   
400  2   
401  5   
402  9   
403  10  
404  3   
405  6   
406  2   
407  10  
408  8   
409  1   
410  9   
411  9   
412  8   
413  3   
414  7   
415  4   
416  3   
417  5   
418  7   
419  3   
420  2   
421  8   
422  6   
423  8   
424  7   
425  8   
426  6   
427  8   
428  7   
429  9   
430  8   
431  6   
432  5   
433  10  
434  2   
435  4   
436  4   
437  2   
438  10  
439  7   
440  1   
441  1   
442  6   
443  6   
444  10  
445  9   
446  6   
447  2   
448  10  
449  3   
450  1   
451  2   
452  10  
453  1   
454  5   
455  1   
456  5   
457  5   
458  3   
459  2   
460  9   
461  10  
462  9   
463  7   
464  3   
465  1   
466  1   
467  6   
468  9   
469  5   
470  4   
471  5   
472  2   
473  4   
474  7   
475  10  
476  2   
477  4   
478  10  
479  1   
480  10  
481  7   
482  2   
483  8   
484  4   
485  6   
486  8   
487  7   
488  6   
489  10  
490  5   
491  1   
492  2   
493  7   
494  3   
495  6   
496  9   
497  3   
498  10  
499  7   
500  8   
501  7   
502  8   
503  2   
504  2   
505  4   
506  6   
507  4   
508  3   
509  8   
510  9   
511  5   
512  1   
513  9   
514  3   
515  4   
516  6   
517  10  
518  3   
519  2   
520  3   
521  4   
522  6   
523  6   
524  5   
525  6   
526  6   
527  3   
528  2   
529  7   
530  5   
531  4   
532  8   
533  1   
534  10  
535  1   
536  8   
537  2   
538  5   
539  7   
540  8   
541  3   
542  3   
543  3   
544  8   
545  10  
546  5   
547  7   
548  3   
549  6   
550  1   
551  7   
552  7   
553  5   
554  3   
555  9   
556  10  
557  7   
558  6   
559  7   
560  5   
561  4   
562  5   
563  5   
564  8   
565  5   
566  1   
567  6   
568  9   
569  7   
570  9   
571  4   
572  3   
573  1   
574  3   
575  1   
576  5   
577  6   
578  5   
579  3   
580  8   
581  5   
582  10  
583  10  
584  8   
585  10  
586  1   
587  3   
588  4   
589  7   
590  10  
591  10  
592  8   
593  2   
594  4   
595  10  
596  8   
597  8   
598  7   
599  1   
600  2   
601  2   
DEPOT_SECTION
1
-1
EOF
