NAME : XML600_3263_36
COMMENT : Generated as the XML100 dataset from the CVRPLIB
TYPE : CVRP
DIMENSION : 601
EDGE_WEIGHT_TYPE : EUC_2D
CAPACITY : 385
NODE_COORD_SECTION
1    0    0   
2    176  640 
3    332  460 
4    323  640 
5    257  295 
6    691  20  
7    646  107 
8    150  614 
9    469  74  
10   245  595 
11   794  118 
12   366  750 
13   630  540 
14   181  686 
15   386  161 
16   610  580 
17   719  221 
18   198  626 
19   949  18  
20   324  622 
21   127  593 
22   996  126 
23   645  48  
24   635  102 
25   71   536 
26   208  294 
27   347  876 
28   547  7   
29   462  21  
30   258  627 
31   201  520 
32   84   520 
33   270  610 
34   872  50  
35   559  740 
36   157  580 
37   841  71  
38   370  68  
39   523  170 
40   824  9   
41   944  56  
42   504  31  
43   938  143 
44   342  127 
45   951  82  
46   924  226 
47   197  535 
48   306  689 
49   884  10  
50   656  668 
51   349  669 
52   650  81  
53   48   412 
54   533  188 
55   636  173 
56   275  567 
57   102  657 
58   980  81  
59   217  733 
60   510  470 
61   911  247 
62   876  280 
63   244  570 
64   90   521 
65   167  652 
66   696  596 
67   239  500 
68   914  10  
69   297  627 
70   258  617 
71   593  616 
72   118  493 
73   287  689 
74   693  145 
75   715  721 
76   367  389 
77   608  604 
78   223  515 
79   151  517 
80   644  41  
81   362  63  
82   121  513 
83   501  645 
84   752  227 
85   737  98  
86   616  702 
87   386  20  
88   501  7   
89   921  35  
90   363  549 
91   246  629 
92   634  625 
93   979  125 
94   962  63  
95   556  544 
96   194  609 
97   280  798 
98   304  737 
99   224  735 
100  328  685 
101  848  181 
102  979  8   
103  963  0   
104  324  431 
105  683  104 
106  221  595 
107  514  183 
108  213  600 
109  301  66  
110  879  15  
111  265  619 
112  587  14  
113  759  108 
114  504  7   
115  123  526 
116  941  17  
117  85   679 
118  152  589 
119  935  41  
120  376  581 
121  757  34  
122  464  56  
123  667  653 
124  128  506 
125  179  588 
126  878  180 
127  563  25  
128  272  645 
129  284  610 
130  203  536 
131  268  656 
132  609  568 
133  769  139 
134  640  137 
135  538  135 
136  856  45  
137  265  614 
138  747  138 
139  288  616 
140  810  841 
141  141  566 
142  124  495 
143  683  620 
144  782  77  
145  770  121 
146  679  110 
147  110  578 
148  207  529 
149  458  111 
150  892  74  
151  116  518 
152  10   509 
153  133  598 
154  689  398 
155  589  558 
156  305  561 
157  164  585 
158  633  655 
159  117  510 
160  397  653 
161  652  525 
162  483  805 
163  187  663 
164  142  521 
165  882  65  
166  77   711 
167  490  35  
168  753  9   
169  767  609 
170  109  600 
171  119  555 
172  896  76  
173  938  91  
174  254  609 
175  146  518 
176  943  17  
177  468  160 
178  207  506 
179  534  672 
180  375  81  
181  633  614 
182  258  597 
183  549  642 
184  726  186 
185  829  534 
186  120  501 
187  140  479 
188  230  620 
189  606  651 
190  641  581 
191  961  43  
192  611  82  
193  63   470 
194  570  566 
195  677  558 
196  254  613 
197  198  523 
198  666  539 
199  175  567 
200  119  644 
201  924  672 
202  932  29  
203  267  506 
204  174  616 
205  619  719 
206  826  640 
207  734  139 
208  500  237 
209  971  240 
210  338  831 
211  134  525 
212  561  579 
213  464  9   
214  633  595 
215  96   656 
216  550  588 
217  387  463 
218  791  147 
219  620  18  
220  969  172 
221  342  568 
222  672  65  
223  932  15  
224  949  184 
225  950  149 
226  234  495 
227  663  492 
228  573  589 
229  717  472 
230  308  691 
231  638  566 
232  197  576 
233  436  40  
234  739  96  
235  122  676 
236  581  571 
237  81   495 
238  971  73  
239  242  449 
240  192  857 
241  69   539 
242  862  166 
243  155  481 
244  491  21  
245  132  595 
246  249  326 
247  54   505 
248  402  428 
249  118  669 
250  488  626 
251  582  642 
252  973  146 
253  260  600 
254  204  458 
255  734  120 
256  957  21  
257  612  670 
258  738  90  
259  468  513 
260  766  90  
261  748  140 
262  322  59  
263  794  692 
264  434  776 
265  176  490 
266  761  240 
267  586  635 
268  201  672 
269  763  39  
270  227  544 
271  421  446 
272  540  119 
273  976  21  
274  995  43  
275  115  348 
276  708  624 
277  870  268 
278  229  617 
279  610  565 
280  324  607 
281  107  520 
282  707  646 
283  957  43  
284  656  61  
285  572  467 
286  949  48  
287  687  704 
288  676  48  
289  979  58  
290  842  89  
291  318  596 
292  533  484 
293  455  583 
294  128  417 
295  219  446 
296  702  24  
297  108  457 
298  803  88  
299  362  602 
300  642  656 
301  390  26  
302  173  595 
303  944  82  
304  655  119 
305  155  565 
306  292  552 
307  583  597 
308  663  50  
309  643  657 
310  150  715 
311  704  78  
312  627  658 
313  171  527 
314  829  118 
315  743  680 
316  197  408 
317  217  512 
318  240  388 
319  744  150 
320  598  599 
321  783  105 
322  391  395 
323  280  546 
324  284  525 
325  134  617 
326  470  59  
327  89   438 
328  360  425 
329  480  845 
330  96   492 
331  808  54  
332  233  488 
333  806  130 
334  369  757 
335  150  728 
336  639  200 
337  758  71  
338  736  123 
339  745  757 
340  434  752 
341  760  108 
342  384  742 
343  22   407 
344  326  508 
345  651  48  
346  334  768 
347  764  114 
348  249  553 
349  319  639 
350  683  656 
351  899  131 
352  610  532 
353  786  519 
354  413  5   
355  701  161 
356  698  272 
357  615  228 
358  677  496 
359  528  745 
360  184  545 
361  527  35  
362  561  37  
363  608  634 
364  252  581 
365  58   496 
366  739  556 
367  964  0   
368  430  57  
369  398  653 
370  412  170 
371  449  79  
372  634  628 
373  623  124 
374  449  344 
375  623  609 
376  221  486 
377  420  686 
378  270  598 
379  755  774 
380  621  694 
381  228  619 
382  904  97  
383  598  728 
384  390  797 
385  725  122 
386  574  627 
387  711  614 
388  199  421 
389  489  22  
390  626  674 
391  489  31  
392  241  445 
393  261  661 
394  678  46  
395  722  80  
396  861  149 
397  107  459 
398  247  628 
399  851  239 
400  703  75  
401  227  393 
402  425  625 
403  146  414 
404  810  305 
405  97   512 
406  282  603 
407  703  587 
408  45   349 
409  289  480 
410  134  543 
411  567  601 
412  220  466 
413  486  109 
414  403  596 
415  931  87  
416  117  495 
417  827  115 
418  702  520 
419  647  822 
420  764  175 
421  458  150 
422  249  641 
423  756  109 
424  51   814 
425  843  95  
426  703  173 
427  635  75  
428  687  76  
429  100  545 
430  674  155 
431  455  126 
432  973  70  
433  97   628 
434  931  64  
435  497  208 
436  419  41  
437  872  5   
438  301  580 
439  144  587 
440  326  106 
441  256  648 
442  105  534 
443  527  644 
444  853  0   
445  67   507 
446  499  24  
447  608  178 
448  115  425 
449  791  43  
450  569  735 
451  769  141 
452  718  77  
453  492  12  
454  848  681 
455  901  180 
456  419  0   
457  790  65  
458  637  488 
459  255  670 
460  273  629 
461  646  591 
462  883  665 
463  420  10  
464  612  598 
465  438  144 
466  800  2   
467  233  440 
468  912  54  
469  185  601 
470  536  697 
471  807  535 
472  698  723 
473  1000 14  
474  384  685 
475  213  556 
476  432  734 
477  455  80  
478  761  653 
479  824  44  
480  771  227 
481  230  663 
482  88   570 
483  384  65  
484  716  111 
485  154  515 
486  646  550 
487  716  120 
488  448  40  
489  763  479 
490  681  437 
491  311  727 
492  634  603 
493  763  61  
494  638  704 
495  896  96  
496  433  433 
497  707  556 
498  548  154 
499  322  611 
500  590  654 
501  614  621 
502  433  42  
503  594  624 
504  683  64  
505  284  593 
506  486  709 
507  181  500 
508  539  581 
509  334  450 
510  416  83  
511  958  48  
512  951  18  
513  962  27  
514  68   586 
515  313  512 
516  232  694 
517  617  514 
518  490  580 
519  526  94  
520  652  508 
521  391  49  
522  238  612 
523  937  64  
524  914  108 
525  927  38  
526  674  108 
527  981  18  
528  140  305 
529  640  780 
530  117  587 
531  542  721 
532  628  644 
533  506  380 
534  329  595 
535  306  593 
536  726  142 
537  106  437 
538  842  106 
539  634  277 
540  178  462 
541  134  374 
542  446  133 
543  774  316 
544  225  650 
545  616  117 
546  244  236 
547  487  3   
548  127  105 
549  612  659 
550  634  40  
551  946  28  
552  89   487 
553  880  101 
554  735  110 
555  596  669 
556  975  171 
557  680  183 
558  770  58  
559  241  459 
560  256  749 
561  177  712 
562  141  539 
563  655  522 
564  731  112 
565  600  424 
566  673  646 
567  94   561 
568  379  56  
569  816  304 
570  595  583 
571  324  605 
572  806  138 
573  551  504 
574  63   430 
575  678  608 
576  238  620 
577  717  716 
578  588  553 
579  478  690 
580  307  561 
581  557  565 
582  654  516 
583  770  709 
584  283  600 
585  847  264 
586  240  638 
587  640  599 
588  278  274 
589  609  630 
590  744  18  
591  914  39  
592  461  758 
593  289  386 
594  263  523 
595  823  186 
596  700  771 
597  66   741 
598  544  603 
599  957  18  
600  792  198 
601  341  689 
DEMAND_SECTION
1    0   
2    13  
3    57  
4    47  
5    87  
6    50  
7    6   
8    29  
9    54  
10   43  
11   31  
12   35  
13   81  
14   9   
15   98  
16   71  
17   37  
18   47  
19   16  
20   13  
21   16  
22   16  
23   1   
24   47  
25   23  
26   66  
27   12  
28   48  
29   81  
30   31  
31   47  
32   50  
33   23  
34   5   
35   82  
36   48  
37   34  
38   86  
39   5   
40   48  
41   46  
42   15  
43   4   
44   84  
45   10  
46   2   
47   30  
48   33  
49   23  
50   84  
51   41  
52   33  
53   89  
54   24  
55   44  
56   1   
57   18  
58   39  
59   43  
60   19  
61   43  
62   2   
63   49  
64   2   
65   15  
66   93  
67   13  
68   19  
69   38  
70   9   
71   73  
72   59  
73   5   
74   18  
75   82  
76   95  
77   73  
78   3   
79   41  
80   36  
81   56  
82   27  
83   92  
84   15  
85   32  
86   82  
87   75  
88   6   
89   9   
90   30  
91   24  
92   75  
93   25  
94   36  
95   100 
96   3   
97   8   
98   28  
99   16  
100  12  
101  23  
102  12  
103  44  
104  68  
105  45  
106  48  
107  50  
108  34  
109  60  
110  6   
111  7   
112  4   
113  48  
114  46  
115  48  
116  27  
117  40  
118  45  
119  28  
120  9   
121  29  
122  91  
123  74  
124  25  
125  28  
126  28  
127  20  
128  48  
129  21  
130  37  
131  48  
132  82  
133  13  
134  3   
135  39  
136  18  
137  15  
138  37  
139  27  
140  78  
141  46  
142  81  
143  85  
144  14  
145  49  
146  13  
147  26  
148  20  
149  59  
150  35  
151  24  
152  23  
153  38  
154  15  
155  78  
156  34  
157  2   
158  54  
159  31  
160  37  
161  77  
162  43  
163  18  
164  6   
165  12  
166  30  
167  64  
168  31  
169  57  
170  15  
171  36  
172  38  
173  8   
174  50  
175  12  
176  29  
177  85  
178  33  
179  84  
180  73  
181  79  
182  27  
183  100 
184  31  
185  80  
186  27  
187  53  
188  33  
189  83  
190  81  
191  45  
192  8   
193  51  
194  67  
195  86  
196  37  
197  46  
198  86  
199  6   
200  28  
201  74  
202  37  
203  9   
204  29  
205  63  
206  84  
207  44  
208  50  
209  30  
210  40  
211  18  
212  53  
213  82  
214  77  
215  17  
216  82  
217  99  
218  41  
219  13  
220  10  
221  23  
222  48  
223  44  
224  45  
225  25  
226  95  
227  15  
228  84  
229  47  
230  42  
231  94  
232  27  
233  97  
234  27  
235  46  
236  86  
237  89  
238  14  
239  99  
240  49  
241  12  
242  46  
243  63  
244  76  
245  16  
246  89  
247  37  
248  59  
249  10  
250  38  
251  81  
252  9   
253  49  
254  87  
255  14  
256  20  
257  85  
258  43  
259  28  
260  34  
261  45  
262  54  
263  56  
264  20  
265  96  
266  31  
267  60  
268  6   
269  42  
270  12  
271  95  
272  32  
273  45  
274  21  
275  75  
276  56  
277  9   
278  12  
279  76  
280  39  
281  45  
282  52  
283  15  
284  1   
285  9   
286  12  
287  95  
288  28  
289  39  
290  37  
291  6   
292  26  
293  48  
294  62  
295  88  
296  12  
297  70  
298  2   
299  5   
300  65  
301  74  
302  11  
303  45  
304  44  
305  41  
306  14  
307  64  
308  40  
309  54  
310  5   
311  39  
312  89  
313  32  
314  26  
315  70  
316  53  
317  46  
318  74  
319  24  
320  57  
321  43  
322  51  
323  17  
324  3   
325  16  
326  94  
327  66  
328  82  
329  11  
330  67  
331  1   
332  82  
333  20  
334  1   
335  13  
336  22  
337  12  
338  40  
339  64  
340  7   
341  41  
342  32  
343  94  
344  27  
345  20  
346  29  
347  33  
348  45  
349  10  
350  89  
351  31  
352  75  
353  99  
354  71  
355  12  
356  15  
357  19  
358  42  
359  98  
360  39  
361  38  
362  15  
363  68  
364  37  
365  63  
366  88  
367  28  
368  95  
369  2   
370  97  
371  81  
372  75  
373  28  
374  69  
375  65  
376  91  
377  24  
378  9   
379  59  
380  74  
381  25  
382  20  
383  88  
384  30  
385  5   
386  76  
387  71  
388  75  
389  74  
390  52  
391  76  
392  86  
393  43  
394  27  
395  18  
396  46  
397  56  
398  42  
399  47  
400  7   
401  58  
402  42  
403  77  
404  37  
405  22  
406  32  
407  54  
408  86  
409  93  
410  29  
411  74  
412  62  
413  92  
414  11  
415  48  
416  53  
417  49  
418  83  
419  99  
420  36  
421  61  
422  39  
423  3   
424  11  
425  47  
426  24  
427  45  
428  47  
429  50  
430  33  
431  71  
432  12  
433  5   
434  13  
435  72  
436  60  
437  15  
438  3   
439  8   
440  70  
441  26  
442  11  
443  61  
444  27  
445  31  
446  66  
447  25  
448  60  
449  5   
450  59  
451  34  
452  49  
453  78  
454  54  
455  23  
456  62  
457  36  
458  30  
459  20  
460  46  
461  69  
462  54  
463  69  
464  77  
465  91  
466  9   
467  92  
468  47  
469  24  
470  59  
471  72  
472  81  
473  1   
474  25  
475  3   
476  7   
477  88  
478  89  
479  25  
480  16  
481  42  
482  37  
483  97  
484  32  
485  3   
486  67  
487  44  
488  90  
489  27  
490  6   
491  10  
492  68  
493  36  
494  86  
495  10  
496  52  
497  68  
498  12  
499  26  
500  78  
501  86  
502  75  
503  95  
504  30  
505  48  
506  38  
507  31  
508  66  
509  82  
510  77  
511  29  
512  35  
513  35  
514  45  
515  7   
516  30  
517  60  
518  13  
519  49  
520  52  
521  60  
522  45  
523  39  
524  7   
525  16  
526  40  
527  34  
528  55  
529  55  
530  27  
531  75  
532  64  
533  36  
534  22  
535  44  
536  44  
537  69  
538  15  
539  5   
540  74  
541  77  
542  69  
543  9   
544  48  
545  18  
546  65  
547  51  
548  68  
549  79  
550  29  
551  26  
552  59  
553  26  
554  24  
555  52  
556  43  
557  3   
558  42  
559  52  
560  22  
561  44  
562  31  
563  93  
564  38  
565  13  
566  80  
567  10  
568  69  
569  35  
570  59  
571  38  
572  28  
573  73  
574  91  
575  63  
576  4   
577  90  
578  90  
579  29  
580  17  
581  89  
582  52  
583  86  
584  14  
585  29  
586  18  
587  78  
588  97  
589  68  
590  17  
591  35  
592  4   
593  63  
594  20  
595  9   
596  85  
597  40  
598  83  
599  2   
600  14  
601  6   
DEPOT_SECTION
1
-1
EOF
