NAME : XML600_1211_34
COMMENT : Generated as the XML100 dataset from the CVRPLIB
TYPE : CVRP
DIMENSION : 601
EDGE_WEIGHT_TYPE : EUC_2D
CAPACITY : 4
NODE_COORD_SECTION
1    292  618 
2    324  627 
3    555  380 
4    528  524 
5    639  221 
6    718  285 
7    814  82  
8    777  182 
9    794  33  
10   710  537 
11   661  653 
12   598  615 
13   327  646 
14   797  681 
15   453  642 
16   412  452 
17   502  745 
18   764  126 
19   445  638 
20   968  688 
21   433  493 
22   903  680 
23   775  769 
24   828  128 
25   987  557 
26   785  172 
27   649  162 
28   853  706 
29   868  615 
30   473  592 
31   900  647 
32   808  582 
33   586  380 
34   705  179 
35   416  561 
36   712  303 
37   854  643 
38   876  829 
39   785  64  
40   994  812 
41   831  696 
42   822  211 
43   326  789 
44   639  593 
45   936  718 
46   721  564 
47   743  412 
48   833  705 
49   948  692 
50   929  831 
51   534  576 
52   456  647 
53   588  565 
54   907  254 
55   977  773 
56   843  782 
57   747  576 
58   959  584 
59   798  734 
60   800  676 
61   324  576 
62   407  601 
63   927  655 
64   668  651 
65   592  930 
66   654  487 
67   736  538 
68   842  705 
69   628  605 
70   721  653 
71   734  205 
72   798  635 
73   930  516 
74   392  761 
75   957  780 
76   943  882 
77   578  622 
78   608  483 
79   981  994 
80   757  206 
81   636  47  
82   762  559 
83   562  116 
84   925  842 
85   801  645 
86   595  549 
87   493  538 
88   703  82  
89   784  156 
90   754  542 
91   543  615 
92   750  688 
93   602  54  
94   543  633 
95   987  771 
96   777  571 
97   508  675 
98   930  255 
99   980  750 
100  986  830 
101  686  123 
102  404  572 
103  542  524 
104  399  377 
105  731  140 
106  804  273 
107  946  613 
108  779  207 
109  777  274 
110  808  499 
111  778  656 
112  846  144 
113  848  172 
114  794  628 
115  657  604 
116  609  564 
117  816  139 
118  448  893 
119  803  47  
120  551  586 
121  767  210 
122  788  22  
123  736  649 
124  809  54  
125  515  650 
126  530  419 
127  750  651 
128  627  181 
129  760  216 
130  803  159 
131  802  42  
132  724  122 
133  646  697 
134  799  701 
135  491  585 
136  494  581 
137  540  706 
138  753  194 
139  910  663 
140  664  113 
141  450  669 
142  509  575 
143  479  723 
144  537  655 
145  750  143 
146  834  780 
147  532  558 
148  706  204 
149  983  741 
150  731  148 
151  561  603 
152  785  933 
153  787  686 
154  522  550 
155  774  347 
156  996  698 
157  773  150 
158  435  661 
159  997  770 
160  775  568 
161  749  201 
162  762  656 
163  928  679 
164  671  120 
165  871  810 
166  786  595 
167  667  751 
168  536  569 
169  684  166 
170  982  772 
171  402  587 
172  716  545 
173  982  781 
174  997  653 
175  480  543 
176  520  588 
177  479  556 
178  756  47  
179  806  304 
180  666  153 
181  793  621 
182  656  634 
183  513  576 
184  708  635 
185  901  721 
186  793  212 
187  834  640 
188  768  704 
189  968  729 
190  747  254 
191  611  720 
192  626  202 
193  558  574 
194  843  734 
195  396  661 
196  814  527 
197  773  248 
198  672  205 
199  713  206 
200  757  154 
201  959  765 
202  691  456 
203  718  568 
204  728  96  
205  791  561 
206  494  683 
207  493  715 
208  957  593 
209  554  87  
210  491  543 
211  418  559 
212  713  754 
213  1000 685 
214  751  466 
215  955  781 
216  438  671 
217  990  748 
218  496  514 
219  872  783 
220  557  591 
221  985  669 
222  988  814 
223  560  126 
224  891  634 
225  744  197 
226  307  434 
227  592  594 
228  971  761 
229  447  603 
230  622  693 
231  764  130 
232  665  169 
233  593  159 
234  527  613 
235  696  669 
236  870  705 
237  967  229 
238  741  164 
239  943  775 
240  556  375 
241  497  554 
242  749  680 
243  641  589 
244  932  774 
245  797  577 
246  881  845 
247  775  409 
248  785  630 
249  433  816 
250  400  401 
251  929  247 
252  851  166 
253  732  465 
254  921  728 
255  729  149 
256  818  236 
257  741  550 
258  847  568 
259  871  754 
260  192  493 
261  417  840 
262  406  574 
263  830  740 
264  782  187 
265  788  594 
266  835  199 
267  802  111 
268  786  157 
269  527  711 
270  987  803 
271  833  754 
272  819  200 
273  805  27  
274  754  619 
275  736  156 
276  826  733 
277  495  615 
278  756  656 
279  569  582 
280  787  643 
281  945  851 
282  352  584 
283  519  572 
284  508  581 
285  442  734 
286  819  730 
287  647  120 
288  626  564 
289  917  609 
290  792  605 
291  800  707 
292  909  623 
293  951  778 
294  740  576 
295  824  655 
296  836  153 
297  855  670 
298  493  583 
299  938  30  
300  686  65  
301  688  660 
302  873  822 
303  642  135 
304  908  672 
305  732  199 
306  997  857 
307  789  599 
308  783  101 
309  745  147 
310  880  192 
311  793  160 
312  739  189 
313  808  688 
314  994  577 
315  922  710 
316  764  362 
317  916  895 
318  275  499 
319  333  431 
320  474  708 
321  933  566 
322  805  8   
323  340  564 
324  484  587 
325  429  651 
326  925  738 
327  697  322 
328  766  830 
329  728  71  
330  697  340 
331  861  582 
332  830  195 
333  888  554 
334  291  573 
335  888  801 
336  457  614 
337  719  196 
338  771  145 
339  874  646 
340  762  176 
341  533  591 
342  718  237 
343  718  255 
344  701  184 
345  557  548 
346  734  608 
347  850  154 
348  908  653 
349  926  787 
350  707  483 
351  779  615 
352  684  643 
353  487  614 
354  971  556 
355  937  652 
356  483  491 
357  711  71  
358  683  665 
359  968  676 
360  711  507 
361  438  605 
362  908  792 
363  733  284 
364  904  740 
365  820  679 
366  532  639 
367  645  656 
368  383  525 
369  680  241 
370  613  578 
371  897  108 
372  754  199 
373  734  230 
374  573  752 
375  465  572 
376  913  619 
377  733  234 
378  391  641 
379  489  557 
380  820  638 
381  999  869 
382  338  733 
383  872  685 
384  654  862 
385  896  148 
386  649  100 
387  810  63  
388  531  648 
389  984  764 
390  995  764 
391  634  511 
392  665  718 
393  752  634 
394  558  601 
395  871  594 
396  813  253 
397  811  292 
398  811  63  
399  767  222 
400  738  195 
401  962  964 
402  727  680 
403  572  168 
404  898  180 
405  747  276 
406  934  758 
407  826  667 
408  825  613 
409  817  609 
410  682  137 
411  457  693 
412  850  139 
413  728  271 
414  991  910 
415  684  192 
416  845  298 
417  347  189 
418  756  217 
419  416  795 
420  577  483 
421  366  696 
422  937  646 
423  625  151 
424  362  415 
425  780  174 
426  783  170 
427  880  526 
428  794  621 
429  950  194 
430  729  235 
431  770  245 
432  676  247 
433  986  809 
434  825  199 
435  766  122 
436  352  513 
437  496  536 
438  527  523 
439  785  666 
440  946  345 
441  870  188 
442  931  720 
443  868  920 
444  871  678 
445  455  620 
446  831  651 
447  781  632 
448  736  215 
449  769  676 
450  360  620 
451  1000 819 
452  929  777 
453  856  582 
454  978  907 
455  712  150 
456  776  400 
457  899  641 
458  660  207 
459  478  468 
460  500  654 
461  851  979 
462  633  500 
463  874  715 
464  833  534 
465  428  741 
466  637  506 
467  840  713 
468  443  659 
469  1000 814 
470  598  416 
471  468  414 
472  370  647 
473  476  665 
474  547  478 
475  376  587 
476  973  815 
477  849  681 
478  525  548 
479  715  690 
480  749  176 
481  530  663 
482  689  162 
483  987  731 
484  480  415 
485  712  145 
486  870  75  
487  500  649 
488  952  886 
489  945  761 
490  937  92  
491  565  449 
492  733  591 
493  925  285 
494  787  571 
495  977  570 
496  414  591 
497  802  169 
498  714  196 
499  551  407 
500  733  218 
501  742  285 
502  447  615 
503  865  374 
504  770  603 
505  442  518 
506  514  543 
507  739  225 
508  942  813 
509  845  642 
510  538  491 
511  733  83  
512  805  188 
513  739  252 
514  483  564 
515  935  792 
516  680  166 
517  556  634 
518  503  542 
519  979  889 
520  758  512 
521  530  743 
522  738  543 
523  936  775 
524  402  557 
525  558  688 
526  684  675 
527  542  582 
528  837  679 
529  839  716 
530  464  528 
531  511  612 
532  686  235 
533  746  753 
534  711  795 
535  743  199 
536  734  141 
537  741  665 
538  556  638 
539  696  770 
540  836  655 
541  976  815 
542  767  174 
543  377  644 
544  963  723 
545  781  594 
546  733  190 
547  709  736 
548  485  452 
549  779  395 
550  430  516 
551  442  481 
552  829  652 
553  527  597 
554  764  141 
555  874  412 
556  497  462 
557  835  579 
558  798  539 
559  512  581 
560  798  557 
561  851  712 
562  703  557 
563  900  168 
564  827  611 
565  815  627 
566  776  227 
567  518  606 
568  733  167 
569  724  198 
570  513  509 
571  979  744 
572  898  91  
573  695  558 
574  825  686 
575  718  569 
576  775  685 
577  551  639 
578  978  855 
579  862  689 
580  770  188 
581  814  649 
582  756  537 
583  963  848 
584  613  726 
585  732  588 
586  893  124 
587  726  285 
588  956  598 
589  957  526 
590  877  692 
591  978  347 
592  797  183 
593  736  176 
594  404  368 
595  946  818 
596  852  244 
597  832  149 
598  585  812 
599  814  217 
600  825  128 
601  908  144 
DEMAND_SECTION
1    0   
2    1   
3    1   
4    1   
5    1   
6    1   
7    1   
8    1   
9    1   
10   1   
11   1   
12   1   
13   1   
14   1   
15   1   
16   1   
17   1   
18   1   
19   1   
20   1   
21   1   
22   1   
23   1   
24   1   
25   1   
26   1   
27   1   
28   1   
29   1   
30   1   
31   1   
32   1   
33   1   
34   1   
35   1   
36   1   
37   1   
38   1   
39   1   
40   1   
41   1   
42   1   
43   1   
44   1   
45   1   
46   1   
47   1   
48   1   
49   1   
50   1   
51   1   
52   1   
53   1   
54   1   
55   1   
56   1   
57   1   
58   1   
59   1   
60   1   
61   1   
62   1   
63   1   
64   1   
65   1   
66   1   
67   1   
68   1   
69   1   
70   1   
71   1   
72   1   
73   1   
74   1   
75   1   
76   1   
77   1   
78   1   
79   1   
80   1   
81   1   
82   1   
83   1   
84   1   
85   1   
86   1   
87   1   
88   1   
89   1   
90   1   
91   1   
92   1   
93   1   
94   1   
95   1   
96   1   
97   1   
98   1   
99   1   
100  1   
101  1   
102  1   
103  1   
104  1   
105  1   
106  1   
107  1   
108  1   
109  1   
110  1   
111  1   
112  1   
113  1   
114  1   
115  1   
116  1   
117  1   
118  1   
119  1   
120  1   
121  1   
122  1   
123  1   
124  1   
125  1   
126  1   
127  1   
128  1   
129  1   
130  1   
131  1   
132  1   
133  1   
134  1   
135  1   
136  1   
137  1   
138  1   
139  1   
140  1   
141  1   
142  1   
143  1   
144  1   
145  1   
146  1   
147  1   
148  1   
149  1   
150  1   
151  1   
152  1   
153  1   
154  1   
155  1   
156  1   
157  1   
158  1   
159  1   
160  1   
161  1   
162  1   
163  1   
164  1   
165  1   
166  1   
167  1   
168  1   
169  1   
170  1   
171  1   
172  1   
173  1   
174  1   
175  1   
176  1   
177  1   
178  1   
179  1   
180  1   
181  1   
182  1   
183  1   
184  1   
185  1   
186  1   
187  1   
188  1   
189  1   
190  1   
191  1   
192  1   
193  1   
194  1   
195  1   
196  1   
197  1   
198  1   
199  1   
200  1   
201  1   
202  1   
203  1   
204  1   
205  1   
206  1   
207  1   
208  1   
209  1   
210  1   
211  1   
212  1   
213  1   
214  1   
215  1   
216  1   
217  1   
218  1   
219  1   
220  1   
221  1   
222  1   
223  1   
224  1   
225  1   
226  1   
227  1   
228  1   
229  1   
230  1   
231  1   
232  1   
233  1   
234  1   
235  1   
236  1   
237  1   
238  1   
239  1   
240  1   
241  1   
242  1   
243  1   
244  1   
245  1   
246  1   
247  1   
248  1   
249  1   
250  1   
251  1   
252  1   
253  1   
254  1   
255  1   
256  1   
257  1   
258  1   
259  1   
260  1   
261  1   
262  1   
263  1   
264  1   
265  1   
266  1   
267  1   
268  1   
269  1   
270  1   
271  1   
272  1   
273  1   
274  1   
275  1   
276  1   
277  1   
278  1   
279  1   
280  1   
281  1   
282  1   
283  1   
284  1   
285  1   
286  1   
287  1   
288  1   
289  1   
290  1   
291  1   
292  1   
293  1   
294  1   
295  1   
296  1   
297  1   
298  1   
299  1   
300  1   
301  1   
302  1   
303  1   
304  1   
305  1   
306  1   
307  1   
308  1   
309  1   
310  1   
311  1   
312  1   
313  1   
314  1   
315  1   
316  1   
317  1   
318  1   
319  1   
320  1   
321  1   
322  1   
323  1   
324  1   
325  1   
326  1   
327  1   
328  1   
329  1   
330  1   
331  1   
332  1   
333  1   
334  1   
335  1   
336  1   
337  1   
338  1   
339  1   
340  1   
341  1   
342  1   
343  1   
344  1   
345  1   
346  1   
347  1   
348  1   
349  1   
350  1   
351  1   
352  1   
353  1   
354  1   
355  1   
356  1   
357  1   
358  1   
359  1   
360  1   
361  1   
362  1   
363  1   
364  1   
365  1   
366  1   
367  1   
368  1   
369  1   
370  1   
371  1   
372  1   
373  1   
374  1   
375  1   
376  1   
377  1   
378  1   
379  1   
380  1   
381  1   
382  1   
383  1   
384  1   
385  1   
386  1   
387  1   
388  1   
389  1   
390  1   
391  1   
392  1   
393  1   
394  1   
395  1   
396  1   
397  1   
398  1   
399  1   
400  1   
401  1   
402  1   
403  1   
404  1   
405  1   
406  1   
407  1   
408  1   
409  1   
410  1   
411  1   
412  1   
413  1   
414  1   
415  1   
416  1   
417  1   
418  1   
419  1   
420  1   
421  1   
422  1   
423  1   
424  1   
425  1   
426  1   
427  1   
428  1   
429  1   
430  1   
431  1   
432  1   
433  1   
434  1   
435  1   
436  1   
437  1   
438  1   
439  1   
440  1   
441  1   
442  1   
443  1   
444  1   
445  1   
446  1   
447  1   
448  1   
449  1   
450  1   
451  1   
452  1   
453  1   
454  1   
455  1   
456  1   
457  1   
458  1   
459  1   
460  1   
461  1   
462  1   
463  1   
464  1   
465  1   
466  1   
467  1   
468  1   
469  1   
470  1   
471  1   
472  1   
473  1   
474  1   
475  1   
476  1   
477  1   
478  1   
479  1   
480  1   
481  1   
482  1   
483  1   
484  1   
485  1   
486  1   
487  1   
488  1   
489  1   
490  1   
491  1   
492  1   
493  1   
494  1   
495  1   
496  1   
497  1   
498  1   
499  1   
500  1   
501  1   
502  1   
503  1   
504  1   
505  1   
506  1   
507  1   
508  1   
509  1   
510  1   
511  1   
512  1   
513  1   
514  1   
515  1   
516  1   
517  1   
518  1   
519  1   
520  1   
521  1   
522  1   
523  1   
524  1   
525  1   
526  1   
527  1   
528  1   
529  1   
530  1   
531  1   
532  1   
533  1   
534  1   
535  1   
536  1   
537  1   
538  1   
539  1   
540  1   
541  1   
542  1   
543  1   
544  1   
545  1   
546  1   
547  1   
548  1   
549  1   
550  1   
551  1   
552  1   
553  1   
554  1   
555  1   
556  1   
557  1   
558  1   
559  1   
560  1   
561  1   
562  1   
563  1   
564  1   
565  1   
566  1   
567  1   
568  1   
569  1   
570  1   
571  1   
572  1   
573  1   
574  1   
575  1   
576  1   
577  1   
578  1   
579  1   
580  1   
581  1   
582  1   
583  1   
584  1   
585  1   
586  1   
587  1   
588  1   
589  1   
590  1   
591  1   
592  1   
593  1   
594  1   
595  1   
596  1   
597  1   
598  1   
599  1   
600  1   
601  1   
DEPOT_SECTION
1
-1
EOF
