NAME : XML600_3371_35
COMMENT : Generated as the XML100 dataset from the CVRPLIB
TYPE : CVRP
DIMENSION : 601
EDGE_WEIGHT_TYPE : EUC_2D
CAPACITY : 121
NODE_COORD_SECTION
1    0    0   
2    117  316 
3    51   105 
4    216  676 
5    679  675 
6    798  147 
7    26   39  
8    557  987 
9    450  205 
10   602  92  
11   369  369 
12   28   85  
13   700  645 
14   648  40  
15   780  107 
16   411  362 
17   15   133 
18   368  19  
19   808  443 
20   13   456 
21   615  375 
22   143  327 
23   198  599 
24   488  447 
25   126  85  
26   333  433 
27   15   245 
28   169  312 
29   488  474 
30   141  250 
31   916  744 
32   899  17  
33   725  130 
34   561  49  
35   669  378 
36   505  136 
37   665  97  
38   3    563 
39   62   887 
40   574  235 
41   58   90  
42   380  379 
43   734  233 
44   840  480 
45   885  631 
46   845  985 
47   895  577 
48   991  285 
49   120  419 
50   115  313 
51   169  433 
52   790  551 
53   254  248 
54   971  154 
55   29   157 
56   331  629 
57   720  590 
58   770  420 
59   326  371 
60   596  631 
61   1    732 
62   870  525 
63   153  717 
64   500  25  
65   618  673 
66   849  578 
67   942  904 
68   564  46  
69   200  425 
70   557  177 
71   440  257 
72   432  164 
73   200  443 
74   722  757 
75   17   825 
76   78   188 
77   65   874 
78   567  227 
79   458  320 
80   356  281 
81   59   13  
82   203  286 
83   434  466 
84   509  258 
85   205  997 
86   814  67  
87   533  206 
88   838  424 
89   519  33  
90   54   455 
91   533  471 
92   629  268 
93   496  153 
94   827  518 
95   70   170 
96   226  414 
97   204  902 
98   538  24  
99   470  118 
100  792  416 
101  396  187 
102  77   461 
103  649  367 
104  863  476 
105  522  192 
106  700  607 
107  669  372 
108  585  248 
109  563  71  
110  717  367 
111  523  663 
112  701  41  
113  730  86  
114  771  514 
115  868  285 
116  433  882 
117  306  652 
118  37   882 
119  71   130 
120  364  117 
121  446  183 
122  735  295 
123  537  301 
124  459  211 
125  799  32  
126  390  111 
127  137  187 
128  218  422 
129  9    47  
130  836  215 
131  765  411 
132  67   375 
133  413  127 
134  535  489 
135  826  534 
136  661  210 
137  615  103 
138  608  64  
139  205  879 
140  594  138 
141  590  433 
142  281  599 
143  547  319 
144  530  248 
145  869  617 
146  747  502 
147  556  831 
148  405  253 
149  811  675 
150  795  658 
151  167  628 
152  458  246 
153  910  263 
154  752  491 
155  871  15  
156  545  12  
157  494  464 
158  300  846 
159  21   110 
160  374  377 
161  887  535 
162  841  10  
163  693  548 
164  209  337 
165  33   102 
166  105  127 
167  509  49  
168  778  484 
169  25   125 
170  813  451 
171  102  210 
172  987  347 
173  609  810 
174  583  16  
175  508  251 
176  317  391 
177  752  230 
178  575  30  
179  681  426 
180  180  660 
181  858  458 
182  196  357 
183  161  399 
184  833  819 
185  119  393 
186  723  279 
187  85   22  
188  797  466 
189  266  183 
190  272  114 
191  995  710 
192  452  700 
193  317  494 
194  125  342 
195  994  602 
196  163  445 
197  357  292 
198  175  419 
199  743  611 
200  152  853 
201  942  591 
202  993  395 
203  4    155 
204  166  464 
205  482  184 
206  84   440 
207  216  321 
208  434  809 
209  949  571 
210  269  574 
211  122  713 
212  801  840 
213  850  476 
214  430  128 
215  644  218 
216  44   101 
217  444  202 
218  942  168 
219  429  168 
220  192  997 
221  148  316 
222  188  627 
223  604  29  
224  1    553 
225  369  382 
226  551  557 
227  522  5   
228  53   182 
229  388  261 
230  866  550 
231  979  756 
232  375  62  
233  984  453 
234  825  527 
235  706  863 
236  493  72  
237  93   83  
238  950  805 
239  0    148 
240  585  173 
241  611  701 
242  451  996 
243  673  932 
244  833  494 
245  546  83  
246  482  327 
247  912  140 
248  114  407 
249  987  579 
250  67   332 
251  40   238 
252  971  729 
253  749  527 
254  310  318 
255  871  651 
256  513  287 
257  285  154 
258  296  429 
259  850  210 
260  939  297 
261  846  972 
262  956  48  
263  24   226 
264  641  54  
265  147  49  
266  20   521 
267  15   415 
268  358  925 
269  717  687 
270  251  143 
271  125  821 
272  379  728 
273  774  165 
274  371  315 
275  347  107 
276  603  939 
277  468  504 
278  203  84  
279  538  65  
280  905  514 
281  4    131 
282  728  454 
283  548  505 
284  25   181 
285  739  329 
286  614  972 
287  214  745 
288  592  557 
289  181  330 
290  488  91  
291  448  265 
292  9    340 
293  773  507 
294  238  312 
295  529  784 
296  64   446 
297  753  92  
298  637  564 
299  523  551 
300  81   537 
301  542  183 
302  349  17  
303  671  77  
304  239  154 
305  918  699 
306  926  721 
307  781  312 
308  860  614 
309  115  231 
310  579  106 
311  871  632 
312  664  568 
313  37   397 
314  340  169 
315  511  69  
316  636  469 
317  480  100 
318  232  254 
319  833  861 
320  405  182 
321  968  39  
322  163  258 
323  568  325 
324  484  66  
325  54   351 
326  185  407 
327  333  431 
328  746  322 
329  547  787 
330  808  553 
331  623  260 
332  989  345 
333  801  303 
334  20   214 
335  917  78  
336  620  200 
337  777  431 
338  324  732 
339  218  58  
340  336  41  
341  413  163 
342  327  239 
343  724  311 
344  749  633 
345  636  347 
346  310  442 
347  820  513 
348  809  373 
349  252  339 
350  342  251 
351  911  924 
352  408  870 
353  285  134 
354  167  902 
355  523  24  
356  33   17  
357  147  429 
358  576  45  
359  689  340 
360  243  900 
361  29   559 
362  278  598 
363  79   160 
364  74   54  
365  734  82  
366  434  217 
367  549  27  
368  347  496 
369  523  136 
370  75   135 
371  351  466 
372  64   772 
373  549  957 
374  72   138 
375  797  561 
376  48   922 
377  87   136 
378  164  459 
379  15   754 
380  353  264 
381  671  174 
382  571  334 
383  413  800 
384  988  375 
385  278  108 
386  950  339 
387  366  68  
388  520  880 
389  31   325 
390  956  773 
391  873  101 
392  617  324 
393  129  488 
394  69   873 
395  64   111 
396  13   313 
397  522  846 
398  523  396 
399  375  166 
400  246  362 
401  653  600 
402  644  798 
403  336  273 
404  86   427 
405  231  894 
406  169  443 
407  826  573 
408  18   619 
409  516  258 
410  936  463 
411  76   471 
412  452  75  
413  969  896 
414  246  263 
415  744  94  
416  415  193 
417  772  449 
418  597  179 
419  75   637 
420  788  393 
421  624  43  
422  62   941 
423  120  635 
424  416  130 
425  705  4   
426  625  551 
427  11   737 
428  519  789 
429  891  23  
430  537  267 
431  382  164 
432  134  435 
433  845  410 
434  556  164 
435  200  111 
436  665  43  
437  944  160 
438  540  686 
439  820  493 
440  8    197 
441  677  292 
442  616  852 
443  964  385 
444  380  752 
445  545  163 
446  66   156 
447  826  271 
448  768  577 
449  415  53  
450  483  206 
451  138  190 
452  544  36  
453  988  854 
454  482  228 
455  996  440 
456  732  519 
457  629  772 
458  854  225 
459  956  520 
460  202  448 
461  223  907 
462  769  523 
463  90   216 
464  211  762 
465  343  15  
466  408  800 
467  460  182 
468  815  629 
469  37   97  
470  414  322 
471  525  427 
472  848  681 
473  498  46  
474  377  421 
475  578  173 
476  142  146 
477  603  593 
478  510  313 
479  413  133 
480  224  206 
481  540  164 
482  530  236 
483  756  72  
484  708  651 
485  788  531 
486  82   634 
487  675  245 
488  642  68  
489  563  13  
490  18   222 
491  233  952 
492  286  540 
493  909  430 
494  169  540 
495  125  214 
496  48   488 
497  399  584 
498  711  423 
499  821  402 
500  740  477 
501  758  135 
502  193  88  
503  820  595 
504  505  202 
505  742  941 
506  580  232 
507  176  795 
508  429  81  
509  733  56  
510  787  930 
511  803  380 
512  8    155 
513  853  646 
514  463  61  
515  209  819 
516  51   107 
517  193  218 
518  611  731 
519  952  643 
520  941  368 
521  568  379 
522  771  213 
523  466  758 
524  15   77  
525  16   131 
526  569  96  
527  355  91  
528  877  981 
529  566  36  
530  916  167 
531  153  401 
532  412  225 
533  326  329 
534  967  645 
535  431  494 
536  665  5   
537  844  660 
538  495  277 
539  520  41  
540  739  741 
541  925  513 
542  411  301 
543  478  71  
544  688  48  
545  304  449 
546  469  80  
547  256  381 
548  49   168 
549  220  544 
550  723  527 
551  681  283 
552  130  498 
553  144  414 
554  258  683 
555  463  69  
556  683  301 
557  144  441 
558  427  213 
559  515  106 
560  372  143 
561  165  747 
562  844  538 
563  86   841 
564  536  403 
565  153  382 
566  447  173 
567  269  813 
568  492  751 
569  738  227 
570  550  167 
571  483  504 
572  459  821 
573  666  378 
574  854  676 
575  442  759 
576  968  707 
577  517  264 
578  814  240 
579  239  399 
580  460  166 
581  965  558 
582  1    100 
583  302  366 
584  350  361 
585  716  994 
586  118  383 
587  171  386 
588  565  38  
589  542  311 
590  29   302 
591  784  509 
592  98   154 
593  485  460 
594  940  595 
595  362  874 
596  771  804 
597  960  829 
598  748  34  
599  234  307 
600  386  166 
601  845  213 
DEMAND_SECTION
1    0   
2    3   
3    4   
4    77  
5    85  
6    7   
7    10  
8    3   
9    6   
10   56  
11   63  
12   78  
13   84  
14   2   
15   70  
16   69  
17   83  
18   82  
19   2   
20   79  
21   88  
22   89  
23   10  
24   2   
25   99  
26   7   
27   87  
28   91  
29   86  
30   71  
31   68  
32   8   
33   50  
34   3   
35   8   
36   5   
37   2   
38   78  
39   81  
40   3   
41   8   
42   91  
43   6   
44   54  
45   97  
46   4   
47   3   
48   7   
49   10  
50   3   
51   2   
52   58  
53   8   
54   7   
55   85  
56   9   
57   73  
58   84  
59   2   
60   3   
61   3   
62   83  
63   5   
64   56  
65   7   
66   1   
67   56  
68   93  
69   6   
70   78  
71   2   
72   9   
73   61  
74   4   
75   10  
76   2   
77   68  
78   7   
79   78  
80   1   
81   1   
82   77  
83   3   
84   4   
85   8   
86   3   
87   7   
88   52  
89   8   
90   1   
91   96  
92   8   
93   9   
94   8   
95   95  
96   99  
97   2   
98   73  
99   87  
100  1   
101  63  
102  52  
103  7   
104  5   
105  100 
106  83  
107  95  
108  79  
109  55  
110  3   
111  5   
112  6   
113  10  
114  71  
115  83  
116  4   
117  1   
118  87  
119  1   
120  5   
121  56  
122  70  
123  64  
124  77  
125  90  
126  57  
127  55  
128  72  
129  60  
130  10  
131  7   
132  51  
133  5   
134  4   
135  5   
136  74  
137  76  
138  9   
139  83  
140  79  
141  77  
142  6   
143  6   
144  7   
145  7   
146  5   
147  3   
148  5   
149  1   
150  97  
151  4   
152  1   
153  7   
154  67  
155  2   
156  75  
157  1   
158  92  
159  78  
160  6   
161  1   
162  57  
163  9   
164  64  
165  2   
166  3   
167  6   
168  10  
169  3   
170  2   
171  84  
172  3   
173  2   
174  51  
175  4   
176  8   
177  73  
178  90  
179  7   
180  67  
181  3   
182  10  
183  58  
184  98  
185  61  
186  1   
187  59  
188  1   
189  98  
190  83  
191  8   
192  92  
193  8   
194  95  
195  7   
196  6   
197  80  
198  8   
199  56  
200  5   
201  59  
202  4   
203  76  
204  84  
205  1   
206  8   
207  50  
208  69  
209  70  
210  5   
211  5   
212  2   
213  2   
214  51  
215  92  
216  65  
217  51  
218  80  
219  77  
220  5   
221  4   
222  5   
223  4   
224  78  
225  9   
226  84  
227  7   
228  10  
229  2   
230  95  
231  78  
232  3   
233  90  
234  2   
235  85  
236  5   
237  9   
238  3   
239  75  
240  52  
241  6   
242  10  
243  64  
244  7   
245  3   
246  5   
247  86  
248  59  
249  6   
250  87  
251  5   
252  10  
253  2   
254  4   
255  73  
256  9   
257  9   
258  83  
259  77  
260  65  
261  4   
262  1   
263  7   
264  94  
265  79  
266  1   
267  53  
268  3   
269  100 
270  10  
271  52  
272  93  
273  8   
274  77  
275  5   
276  4   
277  99  
278  8   
279  5   
280  3   
281  7   
282  1   
283  50  
284  97  
285  86  
286  4   
287  1   
288  5   
289  5   
290  10  
291  59  
292  3   
293  85  
294  51  
295  3   
296  99  
297  1   
298  65  
299  69  
300  60  
301  10  
302  88  
303  87  
304  50  
305  7   
306  4   
307  10  
308  9   
309  8   
310  1   
311  1   
312  68  
313  7   
314  3   
315  76  
316  53  
317  9   
318  5   
319  2   
320  6   
321  59  
322  5   
323  52  
324  1   
325  8   
326  75  
327  3   
328  4   
329  5   
330  77  
331  100 
332  78  
333  75  
334  67  
335  5   
336  8   
337  4   
338  8   
339  94  
340  70  
341  98  
342  9   
343  95  
344  60  
345  65  
346  76  
347  8   
348  7   
349  85  
350  71  
351  1   
352  65  
353  73  
354  2   
355  52  
356  7   
357  87  
358  10  
359  57  
360  60  
361  8   
362  50  
363  2   
364  3   
365  100 
366  58  
367  9   
368  81  
369  100 
370  9   
371  85  
372  8   
373  2   
374  8   
375  60  
376  2   
377  9   
378  83  
379  7   
380  9   
381  74  
382  90  
383  52  
384  10  
385  75  
386  1   
387  84  
388  67  
389  1   
390  86  
391  2   
392  56  
393  56  
394  54  
395  9   
396  89  
397  66  
398  6   
399  74  
400  9   
401  81  
402  85  
403  9   
404  76  
405  6   
406  10  
407  67  
408  6   
409  1   
410  7   
411  3   
412  69  
413  75  
414  80  
415  5   
416  82  
417  89  
418  59  
419  75  
420  9   
421  7   
422  84  
423  10  
424  6   
425  59  
426  2   
427  64  
428  86  
429  3   
430  2   
431  62  
432  92  
433  100 
434  53  
435  2   
436  2   
437  2   
438  59  
439  79  
440  63  
441  5   
442  7   
443  6   
444  3   
445  8   
446  66  
447  7   
448  91  
449  74  
450  71  
451  4   
452  9   
453  7   
454  6   
455  5   
456  4   
457  77  
458  2   
459  77  
460  73  
461  7   
462  85  
463  8   
464  7   
465  2   
466  7   
467  9   
468  9   
469  8   
470  6   
471  2   
472  88  
473  10  
474  65  
475  6   
476  73  
477  5   
478  98  
479  3   
480  10  
481  7   
482  71  
483  1   
484  10  
485  7   
486  7   
487  73  
488  8   
489  9   
490  4   
491  52  
492  3   
493  52  
494  53  
495  52  
496  77  
497  96  
498  73  
499  65  
500  6   
501  57  
502  88  
503  83  
504  10  
505  69  
506  2   
507  58  
508  2   
509  1   
510  7   
511  5   
512  79  
513  10  
514  83  
515  57  
516  63  
517  53  
518  75  
519  83  
520  2   
521  3   
522  90  
523  7   
524  4   
525  91  
526  100 
527  6   
528  93  
529  93  
530  8   
531  9   
532  63  
533  65  
534  7   
535  96  
536  79  
537  60  
538  8   
539  92  
540  6   
541  84  
542  1   
543  7   
544  63  
545  98  
546  4   
547  10  
548  5   
549  71  
550  3   
551  10  
552  90  
553  2   
554  7   
555  4   
556  53  
557  100 
558  65  
559  2   
560  73  
561  95  
562  5   
563  59  
564  72  
565  62  
566  64  
567  9   
568  1   
569  3   
570  4   
571  2   
572  6   
573  10  
574  7   
575  62  
576  6   
577  56  
578  8   
579  67  
580  9   
581  75  
582  1   
583  9   
584  93  
585  10  
586  6   
587  8   
588  8   
589  72  
590  7   
591  2   
592  91  
593  5   
594  6   
595  81  
596  67  
597  6   
598  10  
599  52  
600  4   
601  6   
DEPOT_SECTION
1
-1
EOF
