NAME : XML600_1215_28
COMMENT : Generated as the XML100 dataset from the CVRPLIB
TYPE : CVRP
DIMENSION : 601
EDGE_WEIGHT_TYPE : EUC_2D
CAPACITY : 17
NODE_COORD_SECTION
1    570  48  
2    904  775 
3    813  904 
4    73   865 
5    121  524 
6    480  57  
7    161  996 
8    470  183 
9    62   883 
10   125  921 
11   840  894 
12   844  766 
13   846  946 
14   204  167 
15   432  174 
16   920  913 
17   148  415 
18   91   546 
19   154  831 
20   404  219 
21   399  253 
22   960  833 
23   830  714 
24   169  968 
25   466  279 
26   38   494 
27   90   922 
28   59   971 
29   170  393 
30   42   482 
31   7    286 
32   368  405 
33   914  838 
34   572  958 
35   34   398 
36   309  337 
37   150  847 
38   884  824 
39   116  943 
40   112  991 
41   469  316 
42   49   395 
43   101  405 
44   32   482 
45   959  863 
46   73   343 
47   501  125 
48   184  705 
49   275  963 
50   169  298 
51   107  988 
52   172  303 
53   286  325 
54   942  877 
55   886  887 
56   902  841 
57   152  492 
58   43   347 
59   424  295 
60   776  872 
61   334  249 
62   471  236 
63   144  268 
64   29   934 
65   825  904 
66   211  843 
67   158  926 
68   114  901 
69   959  822 
70   96   880 
71   419  301 
72   968  907 
73   427  323 
74   410  252 
75   780  865 
76   321  180 
77   886  855 
78   55   963 
79   291  682 
80   102  904 
81   562  251 
82   402  131 
83   201  892 
84   100  333 
85   75   914 
86   980  602 
87   476  184 
88   275  441 
89   387  255 
90   851  875 
91   121  383 
92   183  843 
93   67   421 
94   213  237 
95   155  372 
96   337  281 
97   494  335 
98   98   911 
99   838  819 
100  95   357 
101  203  308 
102  101  916 
103  428  237 
104  93   167 
105  87   380 
106  145  461 
107  422  617 
108  143  927 
109  320  331 
110  169  409 
111  942  988 
112  783  824 
113  39   308 
114  199  971 
115  929  807 
116  161  926 
117  142  931 
118  912  754 
119  121  908 
120  923  849 
121  196  264 
122  162  936 
123  997  816 
124  543  237 
125  683  360 
126  873  866 
127  275  166 
128  158  911 
129  867  724 
130  488  139 
131  462  239 
132  128  897 
133  451  266 
134  79   385 
135  961  862 
136  89   923 
137  52   367 
138  91   862 
139  60   618 
140  55   512 
141  125  882 
142  72   363 
143  466  101 
144  206  928 
145  109  367 
146  343  305 
147  867  701 
148  61   290 
149  392  328 
150  83   485 
151  203  401 
152  85   427 
153  230  504 
154  330  362 
155  218  282 
156  403  166 
157  451  261 
158  383  215 
159  457  164 
160  229  395 
161  59   896 
162  424  234 
163  19   832 
164  574  578 
165  412  278 
166  425  208 
167  190  979 
168  473  117 
169  897  701 
170  448  847 
171  257  898 
172  881  842 
173  397  253 
174  174  900 
175  169  803 
176  386  243 
177  80   307 
178  462  220 
179  142  804 
180  844  987 
181  405  113 
182  76   422 
183  711  942 
184  880  909 
185  938  841 
186  464  293 
187  130  942 
188  381  258 
189  720  389 
190  351  254 
191  68   948 
192  545  146 
193  417  226 
194  257  902 
195  411  304 
196  458  236 
197  885  816 
198  458  245 
199  382  88  
200  97   373 
201  152  547 
202  53   434 
203  52   478 
204  867  956 
205  638  706 
206  377  256 
207  846  762 
208  950  810 
209  568  89  
210  140  456 
211  416  220 
212  799  677 
213  100  905 
214  868  795 
215  816  995 
216  127  364 
217  140  968 
218  254  999 
219  75   457 
220  863  792 
221  502  255 
222  293  261 
223  116  903 
224  356  210 
225  191  488 
226  348  880 
227  78   867 
228  554  329 
229  215  863 
230  80   400 
231  137  553 
232  507  226 
233  549  241 
234  112  389 
235  18   443 
236  59   490 
237  169  343 
238  522  229 
239  102  460 
240  151  563 
241  388  247 
242  850  857 
243  117  189 
244  846  716 
245  45   429 
246  89   853 
247  574  284 
248  859  771 
249  103  955 
250  120  459 
251  166  337 
252  100  401 
253  915  690 
254  82   185 
255  36   883 
256  55   469 
257  830  911 
258  66   335 
259  229  231 
260  254  315 
261  775  813 
262  82   468 
263  134  506 
264  839  825 
265  151  311 
266  707  916 
267  61   921 
268  78   574 
269  378  219 
270  425  309 
271  112  981 
272  401  199 
273  28   353 
274  557  199 
275  198  355 
276  27   375 
277  156  120 
278  113  424 
279  390  296 
280  76   914 
281  928  883 
282  448  157 
283  28   465 
284  78   722 
285  390  552 
286  426  255 
287  889  821 
288  37   541 
289  223  304 
290  478  274 
291  469  216 
292  880  839 
293  168  871 
294  520  127 
295  971  966 
296  269  554 
297  419  233 
298  355  78  
299  114  918 
300  120  849 
301  883  862 
302  348  200 
303  345  302 
304  738  880 
305  921  745 
306  73   337 
307  923  809 
308  687  672 
309  129  948 
310  924  755 
311  427  196 
312  591  475 
313  8    896 
314  851  780 
315  987  811 
316  83   670 
317  105  429 
318  928  734 
319  914  836 
320  270  258 
321  485  183 
322  427  223 
323  293  232 
324  96   389 
325  844  777 
326  892  915 
327  125  761 
328  432  176 
329  378  959 
330  36   850 
331  153  868 
332  159  292 
333  147  528 
334  480  436 
335  426  236 
336  477  183 
337  360  263 
338  542  267 
339  162  284 
340  200  814 
341  769  822 
342  926  787 
343  181  971 
344  463  141 
345  146  950 
346  125  500 
347  74   854 
348  68   356 
349  93   440 
350  52   924 
351  209  926 
352  759  795 
353  988  874 
354  861  842 
355  256  183 
356  374  166 
357  465  195 
358  199  988 
359  460  364 
360  164  365 
361  511  171 
362  395  881 
363  242  806 
364  134  971 
365  82   942 
366  507  322 
367  400  196 
368  63   956 
369  832  774 
370  406  257 
371  739  821 
372  104  966 
373  106  908 
374  189  497 
375  178  506 
376  244  213 
377  199  965 
378  36   431 
379  365  341 
380  172  453 
381  380  250 
382  111  443 
383  511  175 
384  773  837 
385  487  65  
386  868  818 
387  350  87  
388  81   429 
389  33   389 
390  947  989 
391  404  314 
392  478  263 
393  836  874 
394  229  947 
395  206  954 
396  695  764 
397  360  127 
398  50   334 
399  414  211 
400  132  385 
401  361  357 
402  617  710 
403  390  253 
404  350  217 
405  112  803 
406  745  886 
407  414  238 
408  210  313 
409  862  904 
410  111  429 
411  25   371 
412  760  740 
413  348  139 
414  135  660 
415  833  980 
416  128  383 
417  464  180 
418  403  93  
419  795  935 
420  105  912 
421  413  134 
422  788  932 
423  915  893 
424  482  251 
425  881  760 
426  338  323 
427  101  895 
428  259  197 
429  45   1000
430  428  225 
431  47   942 
432  871  822 
433  221  835 
434  535  226 
435  231  363 
436  565  239 
437  146  939 
438  896  753 
439  932  837 
440  932  846 
441  284  253 
442  873  895 
443  505  230 
444  658  817 
445  3    239 
446  115  816 
447  818  964 
448  258  218 
449  435  241 
450  988  710 
451  61   427 
452  758  931 
453  448  207 
454  843  755 
455  62   428 
456  107  808 
457  256  522 
458  511  254 
459  123  923 
460  740  891 
461  433  173 
462  261  911 
463  571  161 
464  673  846 
465  800  887 
466  918  897 
467  114  339 
468  93   365 
469  492  398 
470  119  930 
471  426  282 
472  237  922 
473  193  479 
474  30   452 
475  501  214 
476  360  327 
477  129  998 
478  453  137 
479  341  94  
480  858  869 
481  870  834 
482  225  139 
483  913  814 
484  426  147 
485  899  748 
486  707  974 
487  249  523 
488  219  482 
489  541  115 
490  113  846 
491  147  484 
492  828  544 
493  875  814 
494  87   299 
495  42   822 
496  334  167 
497  122  149 
498  604  427 
499  166  848 
500  101  889 
501  752  847 
502  67   506 
503  946  712 
504  93   387 
505  314  206 
506  458  229 
507  385  257 
508  224  816 
509  874  961 
510  199  890 
511  445  128 
512  885  836 
513  460  284 
514  673  391 
515  239  297 
516  832  820 
517  859  783 
518  60   331 
519  41   327 
520  432  221 
521  101  866 
522  453  262 
523  26   445 
524  136  982 
525  315  328 
526  196  484 
527  105  375 
528  127  375 
529  966  783 
530  958  919 
531  366  150 
532  418  197 
533  59   335 
534  98   317 
535  106  419 
536  32   390 
537  862  838 
538  974  652 
539  462  221 
540  56   198 
541  983  719 
542  812  855 
543  750  642 
544  925  881 
545  467  192 
546  387  330 
547  93   350 
548  656  46  
549  845  888 
550  61   910 
551  21   227 
552  876  741 
553  344  871 
554  513  280 
555  904  650 
556  330  155 
557  966  881 
558  59   851 
559  177  321 
560  49   401 
561  55   862 
562  432  193 
563  460  301 
564  393  211 
565  198  789 
566  132  426 
567  276  220 
568  167  969 
569  213  280 
570  901  775 
571  864  735 
572  39   383 
573  815  842 
574  168  366 
575  810  773 
576  434  275 
577  388  406 
578  809  817 
579  537  358 
580  214  909 
581  824  918 
582  864  762 
583  484  361 
584  84   409 
585  210  219 
586  118  392 
587  60   945 
588  509  143 
589  495  208 
590  140  825 
591  45   426 
592  161  857 
593  340  194 
594  376  126 
595  37   431 
596  77   378 
597  895  843 
598  149  910 
599  135  319 
600  473  305 
601  703  767 
DEMAND_SECTION
1    0   
2    1   
3    1   
4    1   
5    1   
6    1   
7    1   
8    1   
9    1   
10   1   
11   1   
12   1   
13   1   
14   1   
15   1   
16   1   
17   1   
18   1   
19   1   
20   1   
21   1   
22   1   
23   1   
24   1   
25   1   
26   1   
27   1   
28   1   
29   1   
30   1   
31   1   
32   1   
33   1   
34   1   
35   1   
36   1   
37   1   
38   1   
39   1   
40   1   
41   1   
42   1   
43   1   
44   1   
45   1   
46   1   
47   1   
48   1   
49   1   
50   1   
51   1   
52   1   
53   1   
54   1   
55   1   
56   1   
57   1   
58   1   
59   1   
60   1   
61   1   
62   1   
63   1   
64   1   
65   1   
66   1   
67   1   
68   1   
69   1   
70   1   
71   1   
72   1   
73   1   
74   1   
75   1   
76   1   
77   1   
78   1   
79   1   
80   1   
81   1   
82   1   
83   1   
84   1   
85   1   
86   1   
87   1   
88   1   
89   1   
90   1   
91   1   
92   1   
93   1   
94   1   
95   1   
96   1   
97   1   
98   1   
99   1   
100  1   
101  1   
102  1   
103  1   
104  1   
105  1   
106  1   
107  1   
108  1   
109  1   
110  1   
111  1   
112  1   
113  1   
114  1   
115  1   
116  1   
117  1   
118  1   
119  1   
120  1   
121  1   
122  1   
123  1   
124  1   
125  1   
126  1   
127  1   
128  1   
129  1   
130  1   
131  1   
132  1   
133  1   
134  1   
135  1   
136  1   
137  1   
138  1   
139  1   
140  1   
141  1   
142  1   
143  1   
144  1   
145  1   
146  1   
147  1   
148  1   
149  1   
150  1   
151  1   
152  1   
153  1   
154  1   
155  1   
156  1   
157  1   
158  1   
159  1   
160  1   
161  1   
162  1   
163  1   
164  1   
165  1   
166  1   
167  1   
168  1   
169  1   
170  1   
171  1   
172  1   
173  1   
174  1   
175  1   
176  1   
177  1   
178  1   
179  1   
180  1   
181  1   
182  1   
183  1   
184  1   
185  1   
186  1   
187  1   
188  1   
189  1   
190  1   
191  1   
192  1   
193  1   
194  1   
195  1   
196  1   
197  1   
198  1   
199  1   
200  1   
201  1   
202  1   
203  1   
204  1   
205  1   
206  1   
207  1   
208  1   
209  1   
210  1   
211  1   
212  1   
213  1   
214  1   
215  1   
216  1   
217  1   
218  1   
219  1   
220  1   
221  1   
222  1   
223  1   
224  1   
225  1   
226  1   
227  1   
228  1   
229  1   
230  1   
231  1   
232  1   
233  1   
234  1   
235  1   
236  1   
237  1   
238  1   
239  1   
240  1   
241  1   
242  1   
243  1   
244  1   
245  1   
246  1   
247  1   
248  1   
249  1   
250  1   
251  1   
252  1   
253  1   
254  1   
255  1   
256  1   
257  1   
258  1   
259  1   
260  1   
261  1   
262  1   
263  1   
264  1   
265  1   
266  1   
267  1   
268  1   
269  1   
270  1   
271  1   
272  1   
273  1   
274  1   
275  1   
276  1   
277  1   
278  1   
279  1   
280  1   
281  1   
282  1   
283  1   
284  1   
285  1   
286  1   
287  1   
288  1   
289  1   
290  1   
291  1   
292  1   
293  1   
294  1   
295  1   
296  1   
297  1   
298  1   
299  1   
300  1   
301  1   
302  1   
303  1   
304  1   
305  1   
306  1   
307  1   
308  1   
309  1   
310  1   
311  1   
312  1   
313  1   
314  1   
315  1   
316  1   
317  1   
318  1   
319  1   
320  1   
321  1   
322  1   
323  1   
324  1   
325  1   
326  1   
327  1   
328  1   
329  1   
330  1   
331  1   
332  1   
333  1   
334  1   
335  1   
336  1   
337  1   
338  1   
339  1   
340  1   
341  1   
342  1   
343  1   
344  1   
345  1   
346  1   
347  1   
348  1   
349  1   
350  1   
351  1   
352  1   
353  1   
354  1   
355  1   
356  1   
357  1   
358  1   
359  1   
360  1   
361  1   
362  1   
363  1   
364  1   
365  1   
366  1   
367  1   
368  1   
369  1   
370  1   
371  1   
372  1   
373  1   
374  1   
375  1   
376  1   
377  1   
378  1   
379  1   
380  1   
381  1   
382  1   
383  1   
384  1   
385  1   
386  1   
387  1   
388  1   
389  1   
390  1   
391  1   
392  1   
393  1   
394  1   
395  1   
396  1   
397  1   
398  1   
399  1   
400  1   
401  1   
402  1   
403  1   
404  1   
405  1   
406  1   
407  1   
408  1   
409  1   
410  1   
411  1   
412  1   
413  1   
414  1   
415  1   
416  1   
417  1   
418  1   
419  1   
420  1   
421  1   
422  1   
423  1   
424  1   
425  1   
426  1   
427  1   
428  1   
429  1   
430  1   
431  1   
432  1   
433  1   
434  1   
435  1   
436  1   
437  1   
438  1   
439  1   
440  1   
441  1   
442  1   
443  1   
444  1   
445  1   
446  1   
447  1   
448  1   
449  1   
450  1   
451  1   
452  1   
453  1   
454  1   
455  1   
456  1   
457  1   
458  1   
459  1   
460  1   
461  1   
462  1   
463  1   
464  1   
465  1   
466  1   
467  1   
468  1   
469  1   
470  1   
471  1   
472  1   
473  1   
474  1   
475  1   
476  1   
477  1   
478  1   
479  1   
480  1   
481  1   
482  1   
483  1   
484  1   
485  1   
486  1   
487  1   
488  1   
489  1   
490  1   
491  1   
492  1   
493  1   
494  1   
495  1   
496  1   
497  1   
498  1   
499  1   
500  1   
501  1   
502  1   
503  1   
504  1   
505  1   
506  1   
507  1   
508  1   
509  1   
510  1   
511  1   
512  1   
513  1   
514  1   
515  1   
516  1   
517  1   
518  1   
519  1   
520  1   
521  1   
522  1   
523  1   
524  1   
525  1   
526  1   
527  1   
528  1   
529  1   
530  1   
531  1   
532  1   
533  1   
534  1   
535  1   
536  1   
537  1   
538  1   
539  1   
540  1   
541  1   
542  1   
543  1   
544  1   
545  1   
546  1   
547  1   
548  1   
549  1   
550  1   
551  1   
552  1   
553  1   
554  1   
555  1   
556  1   
557  1   
558  1   
559  1   
560  1   
561  1   
562  1   
563  1   
564  1   
565  1   
566  1   
567  1   
568  1   
569  1   
570  1   
571  1   
572  1   
573  1   
574  1   
575  1   
576  1   
577  1   
578  1   
579  1   
580  1   
581  1   
582  1   
583  1   
584  1   
585  1   
586  1   
587  1   
588  1   
589  1   
590  1   
591  1   
592  1   
593  1   
594  1   
595  1   
596  1   
597  1   
598  1   
599  1   
600  1   
601  1   
DEPOT_SECTION
1
-1
EOF
