NAME : XML800_1362_45
COMMENT : Generated as the XML100 dataset from the CVRPLIB
TYPE : CVRP
DIMENSION : 801
EDGE_WEIGHT_TYPE : EUC_2D
CAPACITY : 367
NODE_COORD_SECTION
1    262  75  
2    317  341 
3    312  244 
4    587  848 
5    387  405 
6    695  948 
7    200  844 
8    700  883 
9    220  246 
10   416  557 
11   257  304 
12   545  878 
13   472  0   
14   742  736 
15   186  280 
16   165  822 
17   956  287 
18   659  82  
19   333  824 
20   300  894 
21   580  939 
22   408  994 
23   674  308 
24   232  112 
25   33   806 
26   445  494 
27   37   956 
28   170  137 
29   640  980 
30   70   715 
31   295  168 
32   248  712 
33   208  914 
34   623  518 
35   725  813 
36   229  70  
37   546  820 
38   601  854 
39   444  534 
40   997  198 
41   551  368 
42   842  989 
43   147  18  
44   256  828 
45   704  875 
46   276  187 
47   343  860 
48   874  639 
49   641  526 
50   677  220 
51   620  979 
52   828  352 
53   517  914 
54   854  499 
55   278  641 
56   287  52  
57   389  347 
58   173  695 
59   476  742 
60   752  637 
61   674  568 
62   801  291 
63   928  66  
64   884  545 
65   674  159 
66   245  985 
67   801  129 
68   846  42  
69   672  909 
70   692  222 
71   178  675 
72   174  543 
73   54   60  
74   371  679 
75   334  779 
76   244  220 
77   293  323 
78   859  344 
79   721  779 
80   737  894 
81   781  690 
82   773  826 
83   517  482 
84   600  260 
85   664  690 
86   163  497 
87   772  870 
88   527  10  
89   159  127 
90   834  445 
91   669  777 
92   686  955 
93   300  749 
94   364  248 
95   907  923 
96   299  277 
97   754  839 
98   177  269 
99   395  995 
100  334  747 
101  798  244 
102  733  901 
103  482  663 
104  139  13  
105  698  889 
106  320  848 
107  319  465 
108  160  310 
109  579  461 
110  31   345 
111  105  142 
112  578  981 
113  598  959 
114  628  582 
115  32   566 
116  181  280 
117  568  824 
118  182  343 
119  566  854 
120  871  178 
121  672  872 
122  699  889 
123  29   259 
124  864  804 
125  931  67  
126  424  797 
127  587  922 
128  642  858 
129  691  732 
130  525  947 
131  270  330 
132  76   626 
133  886  989 
134  650  889 
135  545  934 
136  221  712 
137  283  40  
138  315  728 
139  109  13  
140  139  920 
141  830  447 
142  597  999 
143  624  827 
144  686  244 
145  816  539 
146  397  672 
147  270  442 
148  291  663 
149  937  518 
150  791  702 
151  193  231 
152  82   242 
153  256  269 
154  662  737 
155  571  955 
156  565  893 
157  594  44  
158  589  869 
159  737  340 
160  713  886 
161  710  332 
162  43   844 
163  937  392 
164  678  946 
165  75   742 
166  583  129 
167  554  996 
168  646  841 
169  57   208 
170  72   71  
171  577  979 
172  656  891 
173  207  799 
174  264  21  
175  91   197 
176  236  713 
177  18   463 
178  245  273 
179  76   315 
180  624  449 
181  594  924 
182  517  332 
183  994  266 
184  499  534 
185  395  733 
186  204  775 
187  329  141 
188  500  508 
189  348  621 
190  712  925 
191  454  648 
192  321  295 
193  156  60  
194  80   568 
195  164  311 
196  867  548 
197  104  544 
198  71   429 
199  887  297 
200  701  543 
201  98   204 
202  141  840 
203  323  313 
204  632  910 
205  998  906 
206  738  919 
207  383  880 
208  389  533 
209  492  140 
210  232  729 
211  729  879 
212  136  990 
213  640  941 
214  269  220 
215  422  72  
216  812  239 
217  91   192 
218  550  895 
219  371  762 
220  669  995 
221  726  959 
222  404  530 
223  207  650 
224  274  838 
225  80   280 
226  363  507 
227  376  962 
228  307  862 
229  581  595 
230  254  209 
231  670  276 
232  322  362 
233  476  667 
234  961  852 
235  844  843 
236  991  349 
237  621  923 
238  622  986 
239  641  999 
240  636  813 
241  453  957 
242  109  101 
243  183  288 
244  277  731 
245  243  827 
246  610  877 
247  577  852 
248  857  897 
249  86   373 
250  87   854 
251  143  251 
252  346  449 
253  357  687 
254  703  677 
255  30   328 
256  776  118 
257  758  887 
258  203  256 
259  319  687 
260  155  594 
261  807  105 
262  290  135 
263  520  686 
264  669  311 
265  384  673 
266  371  87  
267  402  959 
268  792  647 
269  266  708 
270  221  795 
271  501  849 
272  124  624 
273  621  109 
274  844  941 
275  726  311 
276  44   195 
277  183  301 
278  727  136 
279  302  630 
280  878  259 
281  656  988 
282  973  277 
283  239  699 
284  320  553 
285  649  701 
286  640  872 
287  54   928 
288  202  161 
289  350  423 
290  640  881 
291  33   716 
292  709  761 
293  603  841 
294  630  50  
295  589  952 
296  146  364 
297  613  882 
298  49   184 
299  586  937 
300  783  408 
301  896  187 
302  580  732 
303  579  916 
304  588  983 
305  734  808 
306  774  844 
307  721  838 
308  554  194 
309  80   18  
310  406  835 
311  756  805 
312  855  271 
313  655  902 
314  141  281 
315  159  842 
316  322  302 
317  539  834 
318  32   621 
319  126  399 
320  228  29  
321  155  472 
322  368  863 
323  992  770 
324  387  449 
325  799  366 
326  76   398 
327  620  898 
328  569  825 
329  160  239 
330  198  104 
331  359  485 
332  349  175 
333  638  943 
334  748  675 
335  808  222 
336  873  288 
337  47   865 
338  962  527 
339  26   842 
340  578  254 
341  216  832 
342  599  57  
343  19   803 
344  561  857 
345  109  50  
346  532  403 
347  608  133 
348  277  442 
349  689  872 
350  232  538 
351  802  511 
352  186  162 
353  649  826 
354  186  836 
355  873  162 
356  819  618 
357  25   172 
358  214  260 
359  596  689 
360  730  918 
361  417  705 
362  130  621 
363  941  207 
364  599  843 
365  861  992 
366  601  633 
367  625  325 
368  691  270 
369  797  428 
370  637  308 
371  227  800 
372  807  719 
373  670  503 
374  238  995 
375  555  940 
376  650  921 
377  856  361 
378  204  444 
379  944  352 
380  153  231 
381  157  997 
382  785  337 
383  679  417 
384  982  473 
385  415  874 
386  724  339 
387  247  271 
388  621  988 
389  396  888 
390  772  263 
391  685  771 
392  692  392 
393  695  528 
394  631  800 
395  630  417 
396  760  783 
397  668  956 
398  606  972 
399  683  163 
400  285  809 
401  124  47  
402  286  872 
403  664  833 
404  277  158 
405  93   486 
406  425  569 
407  717  439 
408  516  925 
409  971  584 
410  357  523 
411  179  346 
412  405  856 
413  673  899 
414  590  892 
415  141  239 
416  863  260 
417  678  852 
418  316  109 
419  136  151 
420  644  957 
421  281  11  
422  59   322 
423  742  882 
424  699  911 
425  753  226 
426  853  75  
427  573  942 
428  634  809 
429  192  186 
430  126  213 
431  135  289 
432  855  368 
433  172  198 
434  984  918 
435  647  766 
436  463  429 
437  835  548 
438  713  46  
439  756  255 
440  153  850 
441  595  975 
442  676  155 
443  678  326 
444  504  955 
445  660  803 
446  354  769 
447  593  633 
448  915  28  
449  723  343 
450  212  694 
451  803  842 
452  923  368 
453  837  764 
454  444  662 
455  682  979 
456  169  732 
457  829  104 
458  649  384 
459  988  515 
460  820  284 
461  793  267 
462  176  713 
463  165  298 
464  401  822 
465  805  933 
466  519  301 
467  20   465 
468  637  949 
469  660  951 
470  359  694 
471  585  103 
472  688  753 
473  272  546 
474  466  173 
475  667  819 
476  452  903 
477  456  766 
478  312  362 
479  556  988 
480  346  86  
481  992  368 
482  274  735 
483  514  88  
484  670  982 
485  229  175 
486  399  488 
487  575  821 
488  465  860 
489  804  802 
490  90   425 
491  926  32  
492  746  74  
493  289  216 
494  896  665 
495  422  764 
496  114  382 
497  702  818 
498  713  827 
499  729  524 
500  334  916 
501  265  807 
502  615  511 
503  547  880 
504  272  541 
505  25   255 
506  751  795 
507  337  5   
508  507  843 
509  653  232 
510  489  804 
511  847  372 
512  698  896 
513  715  463 
514  710  394 
515  571  437 
516  249  148 
517  674  947 
518  546  938 
519  792  176 
520  44   789 
521  931  380 
522  767  766 
523  703  336 
524  921  168 
525  908  387 
526  83   884 
527  428  909 
528  340  796 
529  3    128 
530  626  912 
531  607  404 
532  586  848 
533  745  356 
534  239  246 
535  27   732 
536  135  27  
537  712  48  
538  752  270 
539  136  1   
540  917  566 
541  737  370 
542  965  890 
543  335  875 
544  370  842 
545  252  203 
546  614  803 
547  645  781 
548  128  671 
549  274  963 
550  2    931 
551  400  56  
552  750  416 
553  332  806 
554  673  870 
555  653  901 
556  517  870 
557  682  281 
558  545  968 
559  208  636 
560  213  324 
561  260  408 
562  473  552 
563  389  568 
564  785  806 
565  559  741 
566  615  892 
567  267  551 
568  146  14  
569  247  502 
570  216  258 
571  322  752 
572  664  125 
573  648  934 
574  825  478 
575  286  420 
576  81   289 
577  110  87  
578  919  113 
579  738  428 
580  753  291 
581  741  1000
582  291  135 
583  807  954 
584  182  237 
585  392  861 
586  989  46  
587  891  517 
588  380  725 
589  687  220 
590  48   413 
591  573  863 
592  505  756 
593  703  335 
594  647  849 
595  310  251 
596  426  719 
597  849  785 
598  998  774 
599  760  317 
600  356  794 
601  300  741 
602  720  909 
603  796  648 
604  547  856 
605  737  342 
606  350  171 
607  323  882 
608  373  712 
609  678  930 
610  828  478 
611  363  128 
612  553  270 
613  359  930 
614  231  228 
615  115  133 
616  615  181 
617  814  436 
618  150  267 
619  999  45  
620  53   981 
621  224  76  
622  107  961 
623  213  979 
624  159  114 
625  738  535 
626  708  256 
627  265  751 
628  708  930 
629  494  165 
630  260  236 
631  180  402 
632  473  389 
633  836  450 
634  323  203 
635  534  414 
636  694  366 
637  713  883 
638  344  671 
639  765  426 
640  616  285 
641  504  480 
642  274  930 
643  303  737 
644  101  364 
645  72   477 
646  673  846 
647  248  163 
648  362  661 
649  751  384 
650  164  151 
651  765  282 
652  579  915 
653  231  726 
654  619  57  
655  383  711 
656  8    178 
657  775  570 
658  728  220 
659  191  379 
660  351  944 
661  10   614 
662  148  337 
663  682  387 
664  733  847 
665  491  11  
666  235  323 
667  328  798 
668  257  91  
669  932  409 
670  673  823 
671  272  754 
672  455  875 
673  466  875 
674  115  379 
675  604  845 
676  178  328 
677  631  957 
678  371  979 
679  961  454 
680  677  268 
681  689  660 
682  262  843 
683  293  821 
684  433  554 
685  311  201 
686  739  508 
687  322  723 
688  728  907 
689  402  993 
690  355  918 
691  201  204 
692  827  230 
693  618  236 
694  596  59  
695  162  105 
696  30   712 
697  202  150 
698  543  965 
699  91   319 
700  921  102 
701  151  202 
702  558  944 
703  83   333 
704  687  838 
705  213  937 
706  190  41  
707  684  940 
708  750  647 
709  844  422 
710  750  894 
711  697  888 
712  469  377 
713  507  907 
714  701  382 
715  818  113 
716  721  360 
717  928  244 
718  228  189 
719  735  789 
720  425  38  
721  57   536 
722  420  121 
723  667  972 
724  785  857 
725  542  721 
726  287  998 
727  584  983 
728  210  894 
729  100  116 
730  576  890 
731  291  977 
732  796  466 
733  209  697 
734  459  979 
735  379  443 
736  18   562 
737  156  941 
738  437  951 
739  294  893 
740  685  891 
741  121  193 
742  239  148 
743  128  735 
744  942  394 
745  538  719 
746  714  298 
747  631  956 
748  276  719 
749  63   206 
750  692  795 
751  732  602 
752  812  958 
753  288  809 
754  560  752 
755  558  413 
756  13   381 
757  641  200 
758  503  644 
759  288  189 
760  151  830 
761  384  791 
762  720  322 
763  912  16  
764  353  794 
765  688  784 
766  149  259 
767  956  297 
768  398  298 
769  942  133 
770  420  484 
771  379  721 
772  125  149 
773  497  704 
774  62   358 
775  582  891 
776  704  261 
777  173  216 
778  24   84  
779  629  841 
780  605  404 
781  484  105 
782  281  670 
783  773  882 
784  409  685 
785  676  284 
786  355  723 
787  291  958 
788  806  515 
789  992  794 
790  127  68  
791  285  654 
792  976  32  
793  894  884 
794  201  539 
795  689  851 
796  357  777 
797  760  911 
798  532  638 
799  652  969 
800  862  940 
801  757  985 
DEMAND_SECTION
1    0   
2    75  
3    94  
4    80  
5    100 
6    79  
7    48  
8    55  
9    98  
10   43  
11   83  
12   52  
13   86  
14   90  
15   51  
16   12  
17   15  
18   40  
19   11  
20   24  
21   74  
22   37  
23   36  
24   85  
25   44  
26   56  
27   30  
28   56  
29   79  
30   31  
31   98  
32   32  
33   3   
34   81  
35   75  
36   65  
37   85  
38   94  
39   30  
40   17  
41   8   
42   55  
43   98  
44   19  
45   81  
46   100 
47   3   
48   57  
49   95  
50   41  
51   64  
52   38  
53   85  
54   4   
55   30  
56   72  
57   97  
58   35  
59   49  
60   56  
61   60  
62   37  
63   20  
64   65  
65   31  
66   44  
67   44  
68   9   
69   61  
70   25  
71   38  
72   9   
73   62  
74   24  
75   18  
76   100 
77   82  
78   18  
79   75  
80   82  
81   76  
82   77  
83   4   
84   43  
85   84  
86   79  
87   95  
88   40  
89   63  
90   48  
91   83  
92   69  
93   30  
94   83  
95   70  
96   82  
97   96  
98   77  
99   1   
100  33  
101  35  
102  99  
103  9   
104  51  
105  89  
106  26  
107  61  
108  64  
109  26  
110  64  
111  62  
112  86  
113  57  
114  67  
115  31  
116  99  
117  76  
118  84  
119  57  
120  46  
121  62  
122  96  
123  83  
124  79  
125  15  
126  14  
127  66  
128  73  
129  67  
130  79  
131  60  
132  10  
133  79  
134  93  
135  86  
136  42  
137  53  
138  42  
139  72  
140  21  
141  31  
142  76  
143  71  
144  34  
145  95  
146  49  
147  86  
148  46  
149  79  
150  76  
151  70  
152  71  
153  78  
154  86  
155  58  
156  85  
157  10  
158  62  
159  41  
160  60  
161  47  
162  29  
163  38  
164  65  
165  9   
166  39  
167  93  
168  85  
169  56  
170  69  
171  94  
172  75  
173  20  
174  97  
175  76  
176  42  
177  70  
178  85  
179  73  
180  26  
181  73  
182  18  
183  26  
184  4   
185  2   
186  22  
187  65  
188  51  
189  12  
190  52  
191  33  
192  86  
193  75  
194  35  
195  66  
196  75  
197  25  
198  79  
199  39  
200  88  
201  72  
202  16  
203  95  
204  90  
205  96  
206  65  
207  38  
208  42  
209  91  
210  26  
211  66  
212  5   
213  95  
214  88  
215  65  
216  50  
217  97  
218  62  
219  12  
220  87  
221  75  
222  8   
223  24  
224  46  
225  74  
226  22  
227  24  
228  42  
229  96  
230  87  
231  8   
232  99  
233  26  
234  93  
235  57  
236  17  
237  53  
238  92  
239  76  
240  96  
241  42  
242  63  
243  71  
244  47  
245  46  
246  98  
247  92  
248  71  
249  91  
250  1   
251  83  
252  72  
253  23  
254  71  
255  72  
256  39  
257  86  
258  68  
259  22  
260  49  
261  42  
262  58  
263  81  
264  46  
265  21  
266  96  
267  23  
268  87  
269  42  
270  45  
271  54  
272  45  
273  30  
274  99  
275  11  
276  61  
277  76  
278  20  
279  7   
280  4   
281  72  
282  29  
283  13  
284  34  
285  76  
286  68  
287  28  
288  84  
289  62  
290  68  
291  38  
292  61  
293  93  
294  20  
295  70  
296  70  
297  97  
298  89  
299  64  
300  25  
301  45  
302  54  
303  62  
304  51  
305  92  
306  99  
307  82  
308  44  
309  83  
310  11  
311  90  
312  34  
313  77  
314  73  
315  47  
316  88  
317  70  
318  22  
319  52  
320  67  
321  95  
322  11  
323  100 
324  53  
325  44  
326  83  
327  99  
328  88  
329  77  
330  97  
331  71  
332  51  
333  84  
334  71  
335  28  
336  18  
337  2   
338  52  
339  14  
340  38  
341  20  
342  46  
343  50  
344  77  
345  58  
346  48  
347  45  
348  51  
349  70  
350  11  
351  64  
352  94  
353  94  
354  49  
355  48  
356  89  
357  97  
358  65  
359  55  
360  64  
361  46  
362  30  
363  12  
364  75  
365  60  
366  68  
367  35  
368  25  
369  25  
370  26  
371  38  
372  78  
373  91  
374  29  
375  57  
376  72  
377  33  
378  99  
379  47  
380  83  
381  4   
382  32  
383  48  
384  32  
385  15  
386  45  
387  85  
388  90  
389  28  
390  47  
391  97  
392  50  
393  57  
394  64  
395  14  
396  93  
397  83  
398  55  
399  27  
400  46  
401  85  
402  30  
403  97  
404  82  
405  98  
406  32  
407  46  
408  53  
409  61  
410  19  
411  80  
412  21  
413  61  
414  89  
415  55  
416  50  
417  71  
418  93  
419  90  
420  79  
421  55  
422  65  
423  89  
424  74  
425  41  
426  49  
427  84  
428  68  
429  63  
430  69  
431  67  
432  41  
433  65  
434  63  
435  94  
436  97  
437  79  
438  48  
439  26  
440  35  
441  82  
442  9   
443  30  
444  92  
445  80  
446  6   
447  64  
448  42  
449  11  
450  22  
451  67  
452  22  
453  82  
454  24  
455  64  
456  14  
457  22  
458  42  
459  59  
460  44  
461  49  
462  27  
463  74  
464  45  
465  78  
466  1   
467  79  
468  60  
469  57  
470  45  
471  26  
472  79  
473  21  
474  51  
475  53  
476  44  
477  44  
478  92  
479  88  
480  73  
481  48  
482  38  
483  19  
484  56  
485  53  
486  64  
487  72  
488  15  
489  83  
490  84  
491  31  
492  10  
493  92  
494  96  
495  6   
496  55  
497  85  
498  54  
499  72  
500  37  
501  23  
502  63  
503  52  
504  27  
505  68  
506  54  
507  73  
508  99  
509  9   
510  11  
511  13  
512  100 
513  10  
514  10  
515  22  
516  72  
517  69  
518  72  
519  6   
520  6   
521  18  
522  75  
523  37  
524  13  
525  12  
526  22  
527  9   
528  36  
529  72  
530  77  
531  37  
532  52  
533  2   
534  87  
535  25  
536  63  
537  5   
538  17  
539  74  
540  95  
541  30  
542  85  
543  11  
544  26  
545  64  
546  52  
547  91  
548  30  
549  37  
550  26  
551  51  
552  20  
553  31  
554  73  
555  100 
556  77  
557  3   
558  76  
559  26  
560  89  
561  75  
562  21  
563  2   
564  57  
565  56  
566  96  
567  14  
568  58  
569  21  
570  60  
571  26  
572  10  
573  63  
574  33  
575  85  
576  53  
577  69  
578  47  
579  6   
580  13  
581  57  
582  75  
583  94  
584  56  
585  17  
586  16  
587  72  
588  39  
589  10  
590  53  
591  84  
592  77  
593  33  
594  81  
595  57  
596  43  
597  98  
598  54  
599  27  
600  30  
601  11  
602  91  
603  90  
604  65  
605  16  
606  65  
607  7   
608  34  
609  62  
610  18  
611  87  
612  21  
613  37  
614  92  
615  96  
616  47  
617  15  
618  68  
619  12  
620  22  
621  62  
622  3   
623  25  
624  89  
625  72  
626  32  
627  45  
628  73  
629  84  
630  60  
631  74  
632  84  
633  48  
634  65  
635  21  
636  9   
637  99  
638  43  
639  24  
640  46  
641  19  
642  17  
643  2   
644  75  
645  66  
646  56  
647  72  
648  20  
649  1   
650  87  
651  17  
652  92  
653  1   
654  28  
655  42  
656  93  
657  92  
658  42  
659  92  
660  20  
661  41  
662  97  
663  24  
664  74  
665  97  
666  71  
667  47  
668  86  
669  37  
670  72  
671  26  
672  28  
673  44  
674  86  
675  77  
676  97  
677  73  
678  8   
679  1   
680  37  
681  92  
682  4   
683  3   
684  50  
685  75  
686  88  
687  48  
688  96  
689  46  
690  10  
691  99  
692  47  
693  14  
694  22  
695  69  
696  40  
697  51  
698  81  
699  79  
700  42  
701  60  
702  86  
703  51  
704  90  
705  12  
706  55  
707  96  
708  96  
709  24  
710  97  
711  65  
712  71  
713  70  
714  15  
715  30  
716  47  
717  16  
718  69  
719  75  
720  88  
721  41  
722  76  
723  82  
724  60  
725  65  
726  9   
727  98  
728  3   
729  100 
730  71  
731  49  
732  13  
733  2   
734  31  
735  74  
736  19  
737  1   
738  16  
739  41  
740  60  
741  52  
742  53  
743  14  
744  30  
745  95  
746  20  
747  65  
748  12  
749  58  
750  100 
751  91  
752  78  
753  6   
754  79  
755  24  
756  85  
757  6   
758  97  
759  93  
760  37  
761  2   
762  7   
763  13  
764  44  
765  57  
766  87  
767  20  
768  58  
769  27  
770  59  
771  38  
772  81  
773  1   
774  63  
775  78  
776  27  
777  57  
778  56  
779  90  
780  40  
781  51  
782  6   
783  61  
784  21  
785  29  
786  15  
787  1   
788  88  
789  79  
790  78  
791  7   
792  22  
793  61  
794  37  
795  91  
796  9   
797  95  
798  59  
799  62  
800  71  
801  65  
DEPOT_SECTION
1
-1
EOF
