NAME : XML800_2155_46
COMMENT : Generated as the XML100 dataset from the CVRPLIB
TYPE : CVRP
DIMENSION : 801
EDGE_WEIGHT_TYPE : EUC_2D
CAPACITY : 1317
NODE_COORD_SECTION
1    500  500 
2    683  718 
3    660  186 
4    24   88  
5    587  592 
6    659  846 
7    85   354 
8    101  698 
9    143  197 
10   449  469 
11   926  314 
12   66   359 
13   264  981 
14   676  279 
15   416  301 
16   826  56  
17   824  275 
18   10   198 
19   427  77  
20   448  536 
21   241  988 
22   294  725 
23   764  382 
24   229  614 
25   232  94  
26   338  777 
27   438  864 
28   364  658 
29   172  735 
30   581  275 
31   575  442 
32   256  60  
33   533  207 
34   442  196 
35   980  536 
36   397  957 
37   203  826 
38   212  795 
39   644  550 
40   677  346 
41   720  716 
42   720  954 
43   484  189 
44   998  828 
45   635  111 
46   920  225 
47   342  105 
48   564  78  
49   884  824 
50   40   975 
51   733  17  
52   283  473 
53   59   427 
54   493  957 
55   982  856 
56   752  552 
57   574  765 
58   627  628 
59   28   430 
60   885  258 
61   239  366 
62   598  704 
63   865  20  
64   269  7   
65   888  412 
66   318  534 
67   347  103 
68   939  216 
69   175  247 
70   192  983 
71   356  560 
72   627  246 
73   851  103 
74   197  634 
75   526  819 
76   410  787 
77   58   67  
78   87   390 
79   356  160 
80   535  675 
81   667  556 
82   437  917 
83   901  643 
84   979  544 
85   400  221 
86   473  16  
87   938  790 
88   44   931 
89   180  47  
90   961  383 
91   968  669 
92   636  70  
93   870  246 
94   734  978 
95   526  293 
96   283  724 
97   765  727 
98   309  197 
99   465  435 
100  21   166 
101  134  461 
102  789  523 
103  281  632 
104  410  755 
105  651  818 
106  94   406 
107  668  242 
108  963  437 
109  857  428 
110  107  345 
111  963  675 
112  523  412 
113  751  932 
114  71   279 
115  608  456 
116  509  105 
117  499  976 
118  549  806 
119  727  593 
120  904  616 
121  773  300 
122  223  403 
123  607  914 
124  581  624 
125  533  309 
126  932  445 
127  958  354 
128  868  299 
129  514  323 
130  467  876 
131  395  213 
132  345  621 
133  652  531 
134  80   210 
135  660  633 
136  729  238 
137  268  419 
138  801  254 
139  243  753 
140  281  627 
141  537  562 
142  308  739 
143  279  941 
144  892  628 
145  999  763 
146  565  907 
147  397  951 
148  32   840 
149  310  766 
150  588  658 
151  655  559 
152  273  655 
153  947  200 
154  860  281 
155  587  540 
156  632  26  
157  830  20  
158  246  247 
159  590  447 
160  4    961 
161  483  986 
162  744  514 
163  499  674 
164  764  438 
165  593  220 
166  570  972 
167  525  830 
168  8    869 
169  568  154 
170  71   916 
171  207  422 
172  117  367 
173  592  749 
174  290  676 
175  963  912 
176  152  495 
177  581  767 
178  214  61  
179  333  516 
180  669  614 
181  555  211 
182  379  223 
183  227  107 
184  842  798 
185  2    919 
186  638  510 
187  620  47  
188  212  2   
189  23   313 
190  784  155 
191  81   174 
192  944  638 
193  60   209 
194  514  416 
195  555  844 
196  49   972 
197  632  789 
198  655  702 
199  207  520 
200  440  740 
201  255  286 
202  245  650 
203  792  810 
204  64   736 
205  561  886 
206  160  313 
207  91   201 
208  527  902 
209  166  631 
210  71   470 
211  176  663 
212  771  872 
213  127  621 
214  973  678 
215  352  730 
216  209  849 
217  689  272 
218  12   411 
219  832  967 
220  843  586 
221  787  834 
222  861  356 
223  805  739 
224  119  155 
225  483  697 
226  543  986 
227  819  741 
228  585  574 
229  369  28  
230  950  577 
231  275  933 
232  575  380 
233  722  161 
234  572  393 
235  395  431 
236  789  736 
237  295  591 
238  893  973 
239  706  73  
240  176  420 
241  10   369 
242  563  33  
243  848  422 
244  819  386 
245  643  291 
246  254  577 
247  208  470 
248  57   548 
249  446  765 
250  596  304 
251  635  561 
252  314  60  
253  91   317 
254  474  872 
255  565  87  
256  143  98  
257  263  518 
258  815  100 
259  417  356 
260  788  748 
261  105  99  
262  80   176 
263  932  932 
264  603  455 
265  140  38  
266  800  731 
267  307  313 
268  829  776 
269  330  702 
270  446  895 
271  257  641 
272  757  113 
273  236  518 
274  835  627 
275  627  687 
276  13   766 
277  973  12  
278  722  12  
279  814  284 
280  615  47  
281  668  715 
282  955  381 
283  344  883 
284  360  998 
285  23   657 
286  852  414 
287  278  300 
288  133  538 
289  624  519 
290  137  926 
291  150  636 
292  114  942 
293  839  700 
294  431  231 
295  30   543 
296  787  662 
297  604  577 
298  549  214 
299  933  496 
300  984  62  
301  443  71  
302  994  848 
303  3    711 
304  60   589 
305  365  807 
306  526  96  
307  86   727 
308  383  703 
309  802  278 
310  477  203 
311  47   250 
312  380  963 
313  358  548 
314  301  908 
315  128  342 
316  149  801 
317  604  936 
318  381  360 
319  582  539 
320  184  368 
321  28   767 
322  399  405 
323  913  150 
324  580  188 
325  655  758 
326  791  124 
327  630  683 
328  62   918 
329  792  754 
330  178  684 
331  777  473 
332  411  397 
333  294  248 
334  823  369 
335  307  276 
336  857  572 
337  543  571 
338  404  474 
339  651  998 
340  790  829 
341  473  317 
342  512  574 
343  536  922 
344  971  621 
345  612  432 
346  744  542 
347  957  30  
348  792  637 
349  102  428 
350  510  241 
351  270  668 
352  811  241 
353  255  396 
354  817  657 
355  528  792 
356  341  319 
357  593  531 
358  372  154 
359  157  894 
360  58   116 
361  745  399 
362  193  560 
363  419  494 
364  683  204 
365  862  8   
366  843  660 
367  568  968 
368  962  760 
369  132  675 
370  462  312 
371  318  57  
372  287  478 
373  308  937 
374  568  348 
375  228  648 
376  85   590 
377  269  42  
378  702  177 
379  557  576 
380  166  453 
381  716  322 
382  29   475 
383  954  886 
384  449  750 
385  532  101 
386  325  464 
387  707  776 
388  706  668 
389  380  9   
390  415  128 
391  189  957 
392  17   195 
393  66   487 
394  809  760 
395  479  369 
396  708  210 
397  766  718 
398  68   923 
399  766  727 
400  283  997 
401  875  643 
402  413  51  
403  653  548 
404  118  353 
405  150  95  
406  743  33  
407  541  236 
408  438  727 
409  27   500 
410  367  447 
411  554  264 
412  68   788 
413  186  673 
414  498  512 
415  831  829 
416  614  324 
417  469  58  
418  539  648 
419  332  736 
420  383  391 
421  676  128 
422  998  417 
423  191  477 
424  827  962 
425  357  271 
426  573  124 
427  453  873 
428  6    333 
429  251  784 
430  970  107 
431  66   720 
432  738  57  
433  610  564 
434  543  812 
435  215  25  
436  512  568 
437  360  681 
438  472  105 
439  724  796 
440  19   626 
441  554  812 
442  234  551 
443  305  840 
444  623  911 
445  427  847 
446  701  431 
447  134  64  
448  730  238 
449  693  198 
450  191  845 
451  58   492 
452  129  116 
453  940  304 
454  261  424 
455  655  64  
456  764  496 
457  88   362 
458  386  684 
459  153  998 
460  943  220 
461  184  168 
462  265  165 
463  379  425 
464  304  898 
465  233  191 
466  287  827 
467  304  242 
468  728  322 
469  294  457 
470  816  682 
471  83   768 
472  116  298 
473  815  308 
474  90   825 
475  448  106 
476  44   956 
477  838  310 
478  209  773 
479  802  235 
480  625  184 
481  726  892 
482  95   760 
483  858  773 
484  138  313 
485  819  800 
486  55   58  
487  321  205 
488  403  494 
489  611  761 
490  599  805 
491  796  178 
492  555  875 
493  351  996 
494  858  656 
495  386  32  
496  811  315 
497  952  965 
498  397  801 
499  273  2   
500  551  630 
501  831  913 
502  980  636 
503  725  495 
504  875  839 
505  24   48  
506  950  613 
507  203  953 
508  162  9   
509  983  143 
510  721  381 
511  532  454 
512  380  753 
513  226  39  
514  950  222 
515  594  20  
516  690  173 
517  663  821 
518  377  189 
519  986  181 
520  131  960 
521  5    555 
522  313  290 
523  554  514 
524  218  955 
525  56   228 
526  503  459 
527  874  851 
528  871  962 
529  730  596 
530  652  942 
531  979  644 
532  486  235 
533  181  682 
534  671  784 
535  351  285 
536  566  600 
537  283  568 
538  225  734 
539  132  753 
540  268  259 
541  102  901 
542  452  605 
543  238  26  
544  818  183 
545  623  87  
546  512  9   
547  702  893 
548  81   280 
549  645  511 
550  344  919 
551  816  887 
552  161  825 
553  383  609 
554  178  478 
555  392  587 
556  700  47  
557  330  612 
558  967  171 
559  892  733 
560  297  206 
561  398  499 
562  207  788 
563  433  57  
564  289  848 
565  180  313 
566  399  73  
567  510  435 
568  240  574 
569  996  310 
570  388  180 
571  799  43  
572  566  595 
573  750  941 
574  893  999 
575  598  538 
576  471  214 
577  227  253 
578  636  183 
579  22   360 
580  166  5   
581  975  641 
582  119  311 
583  694  124 
584  158  666 
585  596  65  
586  176  711 
587  61   962 
588  827  910 
589  895  132 
590  898  970 
591  259  318 
592  840  53  
593  451  668 
594  359  265 
595  365  299 
596  317  268 
597  904  702 
598  829  52  
599  294  284 
600  407  152 
601  173  412 
602  266  451 
603  112  393 
604  383  469 
605  828  343 
606  730  186 
607  22   508 
608  422  79  
609  701  397 
610  779  963 
611  173  915 
612  356  115 
613  125  448 
614  622  360 
615  73   419 
616  340  116 
617  177  912 
618  122  33  
619  993  34  
620  189  886 
621  34   622 
622  231  870 
623  95   43  
624  472  933 
625  708  148 
626  766  885 
627  918  632 
628  343  401 
629  311  103 
630  580  902 
631  713  83  
632  236  9   
633  775  970 
634  627  843 
635  0    574 
636  944  370 
637  673  931 
638  36   11  
639  344  365 
640  544  390 
641  557  747 
642  754  120 
643  939  422 
644  787  553 
645  309  700 
646  722  442 
647  474  996 
648  949  722 
649  754  147 
650  165  259 
651  540  47  
652  90   494 
653  344  648 
654  189  207 
655  198  939 
656  176  283 
657  139  633 
658  458  270 
659  282  264 
660  663  877 
661  99   179 
662  253  237 
663  11   66  
664  805  323 
665  836  301 
666  787  674 
667  989  13  
668  145  313 
669  880  255 
670  710  180 
671  761  792 
672  90   624 
673  166  354 
674  536  454 
675  195  390 
676  424  887 
677  86   254 
678  862  48  
679  861  897 
680  205  956 
681  86   501 
682  220  590 
683  592  709 
684  990  499 
685  709  876 
686  886  5   
687  856  428 
688  963  472 
689  531  726 
690  18   729 
691  779  809 
692  222  626 
693  442  1   
694  538  603 
695  703  5   
696  909  110 
697  585  553 
698  191  266 
699  673  418 
700  133  154 
701  603  857 
702  52   745 
703  485  493 
704  926  455 
705  396  137 
706  584  197 
707  723  541 
708  242  991 
709  305  135 
710  394  850 
711  549  495 
712  48   213 
713  862  308 
714  636  383 
715  526  130 
716  454  590 
717  519  472 
718  896  41  
719  219  369 
720  425  703 
721  737  969 
722  838  454 
723  17   91  
724  199  0   
725  815  470 
726  119  129 
727  217  134 
728  345  292 
729  775  16  
730  186  704 
731  15   813 
732  575  98  
733  756  695 
734  373  777 
735  572  358 
736  340  878 
737  275  916 
738  906  630 
739  228  813 
740  793  442 
741  630  564 
742  443  91  
743  210  130 
744  189  156 
745  993  396 
746  915  733 
747  491  149 
748  271  393 
749  664  68  
750  224  132 
751  1000 502 
752  238  890 
753  575  475 
754  176  488 
755  25   197 
756  692  413 
757  160  403 
758  891  622 
759  649  689 
760  290  500 
761  926  836 
762  808  435 
763  855  556 
764  771  306 
765  455  186 
766  392  404 
767  958  159 
768  509  678 
769  862  280 
770  818  759 
771  891  981 
772  63   430 
773  140  277 
774  160  106 
775  528  282 
776  549  314 
777  277  282 
778  564  223 
779  143  211 
780  472  405 
781  6    709 
782  228  17  
783  801  553 
784  543  267 
785  776  478 
786  936  616 
787  239  938 
788  451  449 
789  845  995 
790  179  506 
791  137  927 
792  368  451 
793  826  353 
794  358  486 
795  839  45  
796  566  524 
797  179  780 
798  629  571 
799  899  831 
800  852  756 
801  736  297 
DEMAND_SECTION
1    0   
2    91  
3    94  
4    70  
5    100 
6    66  
7    55  
8    52  
9    59  
10   61  
11   85  
12   100 
13   94  
14   60  
15   82  
16   91  
17   78  
18   80  
19   83  
20   95  
21   78  
22   68  
23   68  
24   62  
25   91  
26   58  
27   67  
28   90  
29   81  
30   98  
31   50  
32   53  
33   74  
34   79  
35   89  
36   78  
37   86  
38   95  
39   96  
40   78  
41   90  
42   64  
43   52  
44   90  
45   90  
46   90  
47   83  
48   81  
49   89  
50   58  
51   76  
52   70  
53   96  
54   53  
55   63  
56   78  
57   72  
58   84  
59   85  
60   61  
61   74  
62   74  
63   96  
64   58  
65   50  
66   78  
67   59  
68   56  
69   93  
70   60  
71   75  
72   55  
73   50  
74   56  
75   60  
76   51  
77   86  
78   72  
79   92  
80   72  
81   50  
82   79  
83   64  
84   79  
85   80  
86   64  
87   85  
88   68  
89   85  
90   79  
91   57  
92   56  
93   63  
94   69  
95   83  
96   66  
97   78  
98   70  
99   100 
100  67  
101  93  
102  57  
103  52  
104  68  
105  94  
106  96  
107  53  
108  81  
109  52  
110  80  
111  59  
112  82  
113  55  
114  83  
115  65  
116  57  
117  71  
118  88  
119  95  
120  92  
121  86  
122  92  
123  95  
124  80  
125  65  
126  84  
127  93  
128  70  
129  64  
130  57  
131  82  
132  52  
133  89  
134  81  
135  91  
136  90  
137  63  
138  94  
139  53  
140  96  
141  70  
142  53  
143  56  
144  65  
145  62  
146  80  
147  75  
148  80  
149  57  
150  72  
151  91  
152  56  
153  94  
154  71  
155  74  
156  67  
157  70  
158  95  
159  98  
160  51  
161  58  
162  92  
163  78  
164  58  
165  78  
166  62  
167  59  
168  62  
169  88  
170  72  
171  81  
172  65  
173  76  
174  69  
175  74  
176  64  
177  52  
178  88  
179  53  
180  69  
181  55  
182  66  
183  76  
184  99  
185  90  
186  55  
187  53  
188  94  
189  99  
190  96  
191  80  
192  63  
193  87  
194  61  
195  91  
196  80  
197  89  
198  53  
199  77  
200  56  
201  70  
202  56  
203  87  
204  75  
205  80  
206  76  
207  100 
208  62  
209  96  
210  76  
211  62  
212  53  
213  65  
214  59  
215  87  
216  65  
217  70  
218  60  
219  66  
220  58  
221  58  
222  96  
223  67  
224  75  
225  63  
226  81  
227  57  
228  98  
229  55  
230  88  
231  60  
232  81  
233  71  
234  80  
235  65  
236  95  
237  67  
238  91  
239  81  
240  96  
241  71  
242  76  
243  58  
244  67  
245  54  
246  50  
247  90  
248  66  
249  93  
250  76  
251  57  
252  81  
253  69  
254  66  
255  72  
256  94  
257  73  
258  76  
259  81  
260  59  
261  50  
262  94  
263  98  
264  99  
265  64  
266  71  
267  90  
268  94  
269  71  
270  98  
271  84  
272  97  
273  66  
274  74  
275  58  
276  64  
277  81  
278  51  
279  95  
280  60  
281  90  
282  51  
283  89  
284  66  
285  71  
286  51  
287  80  
288  93  
289  65  
290  54  
291  96  
292  62  
293  77  
294  100 
295  57  
296  72  
297  65  
298  71  
299  79  
300  64  
301  66  
302  76  
303  100 
304  90  
305  69  
306  70  
307  51  
308  62  
309  57  
310  65  
311  91  
312  61  
313  55  
314  61  
315  83  
316  65  
317  56  
318  92  
319  56  
320  55  
321  56  
322  56  
323  75  
324  96  
325  90  
326  97  
327  88  
328  85  
329  69  
330  72  
331  87  
332  84  
333  59  
334  54  
335  86  
336  91  
337  73  
338  70  
339  79  
340  58  
341  80  
342  84  
343  58  
344  50  
345  74  
346  71  
347  82  
348  65  
349  87  
350  52  
351  55  
352  78  
353  69  
354  64  
355  70  
356  75  
357  67  
358  63  
359  70  
360  92  
361  77  
362  69  
363  65  
364  63  
365  59  
366  74  
367  84  
368  71  
369  52  
370  83  
371  59  
372  62  
373  93  
374  70  
375  64  
376  89  
377  55  
378  64  
379  78  
380  71  
381  77  
382  99  
383  55  
384  67  
385  85  
386  98  
387  65  
388  69  
389  57  
390  74  
391  82  
392  100 
393  87  
394  83  
395  97  
396  75  
397  80  
398  63  
399  85  
400  62  
401  92  
402  71  
403  87  
404  96  
405  58  
406  98  
407  63  
408  68  
409  50  
410  91  
411  52  
412  59  
413  75  
414  58  
415  72  
416  85  
417  80  
418  87  
419  91  
420  75  
421  58  
422  97  
423  94  
424  55  
425  82  
426  95  
427  85  
428  94  
429  75  
430  83  
431  88  
432  84  
433  52  
434  84  
435  60  
436  94  
437  60  
438  53  
439  93  
440  78  
441  86  
442  96  
443  90  
444  70  
445  93  
446  61  
447  74  
448  58  
449  84  
450  53  
451  97  
452  94  
453  78  
454  57  
455  99  
456  71  
457  52  
458  60  
459  85  
460  70  
461  80  
462  79  
463  85  
464  99  
465  85  
466  69  
467  78  
468  53  
469  91  
470  87  
471  57  
472  81  
473  86  
474  87  
475  81  
476  71  
477  55  
478  70  
479  56  
480  50  
481  79  
482  70  
483  57  
484  87  
485  82  
486  59  
487  60  
488  64  
489  100 
490  83  
491  79  
492  83  
493  61  
494  75  
495  80  
496  77  
497  66  
498  65  
499  64  
500  68  
501  77  
502  87  
503  93  
504  64  
505  68  
506  60  
507  100 
508  90  
509  94  
510  87  
511  63  
512  52  
513  77  
514  52  
515  92  
516  60  
517  50  
518  58  
519  91  
520  85  
521  55  
522  56  
523  58  
524  79  
525  72  
526  53  
527  93  
528  99  
529  77  
530  83  
531  78  
532  62  
533  94  
534  91  
535  96  
536  59  
537  81  
538  58  
539  93  
540  98  
541  91  
542  61  
543  94  
544  96  
545  52  
546  77  
547  93  
548  99  
549  57  
550  78  
551  85  
552  50  
553  95  
554  73  
555  63  
556  86  
557  84  
558  69  
559  63  
560  62  
561  65  
562  73  
563  72  
564  81  
565  96  
566  54  
567  97  
568  88  
569  95  
570  98  
571  72  
572  64  
573  80  
574  63  
575  94  
576  52  
577  86  
578  82  
579  86  
580  86  
581  72  
582  92  
583  68  
584  88  
585  87  
586  72  
587  88  
588  100 
589  100 
590  61  
591  54  
592  69  
593  78  
594  88  
595  88  
596  51  
597  73  
598  85  
599  63  
600  70  
601  91  
602  83  
603  89  
604  90  
605  51  
606  93  
607  89  
608  51  
609  90  
610  98  
611  77  
612  92  
613  71  
614  73  
615  55  
616  65  
617  93  
618  65  
619  60  
620  80  
621  79  
622  61  
623  84  
624  65  
625  94  
626  94  
627  80  
628  72  
629  96  
630  70  
631  95  
632  74  
633  72  
634  91  
635  66  
636  91  
637  57  
638  99  
639  85  
640  80  
641  52  
642  86  
643  96  
644  51  
645  58  
646  75  
647  93  
648  84  
649  66  
650  57  
651  97  
652  82  
653  99  
654  83  
655  91  
656  87  
657  51  
658  69  
659  95  
660  90  
661  93  
662  87  
663  58  
664  81  
665  69  
666  74  
667  90  
668  64  
669  70  
670  52  
671  72  
672  54  
673  61  
674  99  
675  54  
676  55  
677  69  
678  59  
679  62  
680  71  
681  82  
682  69  
683  69  
684  72  
685  75  
686  73  
687  79  
688  82  
689  59  
690  80  
691  59  
692  100 
693  66  
694  53  
695  51  
696  96  
697  87  
698  88  
699  56  
700  90  
701  89  
702  72  
703  55  
704  56  
705  81  
706  90  
707  73  
708  63  
709  61  
710  99  
711  57  
712  83  
713  100 
714  63  
715  100 
716  63  
717  52  
718  72  
719  53  
720  73  
721  66  
722  53  
723  73  
724  69  
725  94  
726  73  
727  75  
728  56  
729  67  
730  96  
731  69  
732  88  
733  50  
734  78  
735  95  
736  81  
737  60  
738  69  
739  78  
740  92  
741  94  
742  91  
743  98  
744  59  
745  71  
746  72  
747  91  
748  85  
749  75  
750  74  
751  80  
752  60  
753  54  
754  70  
755  64  
756  75  
757  80  
758  95  
759  90  
760  93  
761  97  
762  94  
763  94  
764  86  
765  85  
766  79  
767  52  
768  77  
769  74  
770  57  
771  91  
772  95  
773  52  
774  99  
775  90  
776  77  
777  70  
778  51  
779  69  
780  83  
781  66  
782  57  
783  72  
784  73  
785  77  
786  57  
787  92  
788  98  
789  89  
790  75  
791  88  
792  89  
793  82  
794  87  
795  58  
796  63  
797  81  
798  85  
799  99  
800  98  
801  69  
DEPOT_SECTION
1
-1
EOF
