NAME : XML800_3213_41
COMMENT : Generated as the XML100 dataset from the CVRPLIB
TYPE : CVRP
DIMENSION : 801
EDGE_WEIGHT_TYPE : EUC_2D
CAPACITY : 9
NODE_COORD_SECTION
1    0    0   
2    980  29  
3    340  980 
4    999  527 
5    977  765 
6    125  912 
7    714  800 
8    219  839 
9    771  916 
10   669  630 
11   500  718 
12   871  216 
13   971  730 
14   630  666 
15   131  982 
16   876  578 
17   886  97  
18   930  787 
19   887  727 
20   894  623 
21   987  18  
22   934  668 
23   199  735 
24   606  821 
25   107  899 
26   55   870 
27   88   913 
28   796  563 
29   737  675 
30   821  745 
31   826  195 
32   658  858 
33   192  970 
34   836  617 
35   875  874 
36   677  728 
37   996  99  
38   564  451 
39   259  898 
40   773  881 
41   952  456 
42   198  900 
43   7    942 
44   595  676 
45   563  742 
46   336  861 
47   77   988 
48   664  803 
49   901  639 
50   728  958 
51   625  555 
52   774  934 
53   924  613 
54   892  679 
55   864  837 
56   909  94  
57   702  933 
58   158  958 
59   975  48  
60   734  736 
61   755  786 
62   624  604 
63   484  719 
64   914  959 
65   974  79  
66   142  708 
67   688  643 
68   656  947 
69   867  456 
70   583  459 
71   851  112 
72   545  594 
73   716  732 
74   800  564 
75   877  30  
76   95   879 
77   992  743 
78   368  647 
79   502  888 
80   69   988 
81   966  852 
82   860  700 
83   730  770 
84   147  925 
85   973  595 
86   812  659 
87   681  752 
88   766  939 
89   772  870 
90   621  948 
91   846  819 
92   927  893 
93   772  879 
94   100  706 
95   853  696 
96   727  984 
97   656  951 
98   833  974 
99   735  817 
100  227  926 
101  153  977 
102  886  711 
103  965  623 
104  126  852 
105  848  712 
106  104  721 
107  608  492 
108  161  846 
109  711  715 
110  857  531 
111  715  865 
112  597  739 
113  628  717 
114  240  977 
115  875  176 
116  194  879 
117  215  911 
118  519  648 
119  172  940 
120  656  681 
121  435  685 
122  750  697 
123  936  70  
124  834  678 
125  986  812 
126  700  607 
127  683  774 
128  835  661 
129  715  568 
130  714  789 
131  222  815 
132  833  978 
133  512  654 
134  890  704 
135  804  673 
136  924  589 
137  803  52  
138  869  928 
139  648  932 
140  304  881 
141  806  710 
142  712  953 
143  971  777 
144  889  735 
145  81   970 
146  736  654 
147  961  611 
148  655  815 
149  691  759 
150  691  997 
151  971  813 
152  917  842 
153  583  826 
154  885  719 
155  631  723 
156  818  729 
157  675  671 
158  786  996 
159  787  970 
160  614  670 
161  940  682 
162  959  942 
163  892  614 
164  648  662 
165  146  928 
166  727  812 
167  783  972 
168  975  1   
169  785  902 
170  33   898 
171  159  885 
172  910  933 
173  615  750 
174  958  79  
175  600  856 
176  137  955 
177  194  833 
178  717  874 
179  592  623 
180  140  871 
181  899  783 
182  763  105 
183  961  853 
184  676  613 
185  557  674 
186  120  911 
187  784  573 
188  822  676 
189  823  641 
190  641  753 
191  573  618 
192  968  757 
193  110  884 
194  647  671 
195  985  837 
196  874  731 
197  873  623 
198  659  663 
199  921  672 
200  972  894 
201  902  668 
202  778  772 
203  785  906 
204  571  806 
205  822  815 
206  979  771 
207  704  841 
208  521  558 
209  951  44  
210  234  901 
211  915  634 
212  887  526 
213  620  707 
214  141  840 
215  34   714 
216  710  857 
217  967  6   
218  968  69  
219  653  722 
220  913  709 
221  850  769 
222  706  981 
223  29   882 
224  989  784 
225  700  821 
226  685  967 
227  793  729 
228  998  780 
229  111  960 
230  660  730 
231  482  854 
232  81   937 
233  680  735 
234  957  180 
235  156  967 
236  883  658 
237  663  902 
238  621  676 
239  948  653 
240  917  647 
241  657  580 
242  710  870 
243  677  922 
244  896  871 
245  673  704 
246  916  44  
247  890  657 
248  424  503 
249  221  818 
250  709  901 
251  932  564 
252  133  943 
253  759  740 
254  622  613 
255  993  678 
256  148  824 
257  811  759 
258  818  655 
259  915  606 
260  976  863 
261  925  790 
262  494  674 
263  382  780 
264  812  602 
265  686  853 
266  640  886 
267  889  962 
268  995  40  
269  241  759 
270  607  718 
271  892  729 
272  870  692 
273  692  704 
274  975  745 
275  784  778 
276  110  824 
277  786  729 
278  576  996 
279  928  642 
280  25   982 
281  90   873 
282  643  686 
283  119  918 
284  852  113 
285  735  769 
286  988  949 
287  123  888 
288  792  656 
289  155  868 
290  975  610 
291  946  58  
292  564  658 
293  909  18  
294  784  908 
295  93   883 
296  174  966 
297  854  823 
298  847  973 
299  987  858 
300  875  537 
301  735  652 
302  774  732 
303  859  776 
304  936  898 
305  876  618 
306  927  175 
307  702  969 
308  550  615 
309  894  672 
310  9    889 
311  909  660 
312  755  849 
313  994  466 
314  230  875 
315  910  643 
316  983  865 
317  125  929 
318  812  983 
319  982  766 
320  620  642 
321  139  854 
322  23   670 
323  85   892 
324  114  937 
325  97   866 
326  833  386 
327  697  611 
328  845  598 
329  437  971 
330  912  32  
331  725  453 
332  996  678 
333  897  654 
334  826  612 
335  897  663 
336  277  680 
337  825  814 
338  789  968 
339  922  576 
340  972  833 
341  883  90  
342  879  605 
343  876  51  
344  985  632 
345  749  922 
346  108  615 
347  908  12  
348  665  770 
349  960  724 
350  618  704 
351  110  953 
352  743  964 
353  929  62  
354  946  807 
355  760  388 
356  740  949 
357  184  857 
358  137  925 
359  701  747 
360  981  792 
361  665  635 
362  35   904 
363  853  862 
364  708  633 
365  182  932 
366  939  157 
367  566  549 
368  139  970 
369  748  962 
370  978  713 
371  123  864 
372  201  811 
373  713  815 
374  950  651 
375  731  711 
376  780  914 
377  910  615 
378  141  918 
379  958  8   
380  57   937 
381  927  686 
382  777  598 
383  970  638 
384  135  856 
385  931  0   
386  823  714 
387  93   850 
388  80   911 
389  602  746 
390  1000 746 
391  845  67  
392  877  941 
393  940  750 
394  757  857 
395  910  709 
396  975  42  
397  990  845 
398  718  813 
399  98   821 
400  964  60  
401  893  674 
402  838  976 
403  653  674 
404  800  693 
405  806  535 
406  609  744 
407  119  889 
408  992  643 
409  854  35  
410  865  688 
411  844  665 
412  938  681 
413  606  693 
414  868  851 
415  136  816 
416  551  528 
417  703  616 
418  832  928 
419  797  809 
420  802  784 
421  645  702 
422  18   949 
423  936  595 
424  168  866 
425  125  932 
426  535  916 
427  863  107 
428  949  775 
429  738  610 
430  720  952 
431  952  719 
432  714  649 
433  167  916 
434  705  680 
435  647  986 
436  919  124 
437  571  600 
438  886  755 
439  948  596 
440  885  647 
441  965  11  
442  662  638 
443  769  472 
444  834  592 
445  721  962 
446  599  927 
447  573  798 
448  874  875 
449  946  653 
450  789  935 
451  692  755 
452  612  646 
453  63   831 
454  789  953 
455  118  757 
456  968  775 
457  971  17  
458  824  672 
459  836  637 
460  758  974 
461  617  846 
462  952  687 
463  852  609 
464  125  918 
465  892  645 
466  817  880 
467  943  638 
468  67   824 
469  834  987 
470  775  910 
471  517  624 
472  748  893 
473  907  791 
474  592  389 
475  702  935 
476  98   820 
477  265  906 
478  756  924 
479  683  912 
480  99   901 
481  765  963 
482  1000 628 
483  703  759 
484  152  885 
485  910  591 
486  676  662 
487  919  2   
488  706  523 
489  858  135 
490  643  723 
491  899  661 
492  994  688 
493  952  682 
494  656  958 
495  731  970 
496  718  762 
497  927  756 
498  972  22  
499  673  592 
500  615  758 
501  595  700 
502  972  269 
503  973  750 
504  754  684 
505  915  638 
506  860  702 
507  118  873 
508  816  915 
509  773  990 
510  963  803 
511  757  954 
512  972  790 
513  140  906 
514  939  613 
515  692  754 
516  796  564 
517  733  764 
518  695  908 
519  971  7   
520  757  990 
521  870  769 
522  901  595 
523  665  736 
524  77   724 
525  114  862 
526  869  5   
527  246  780 
528  867  700 
529  963  686 
530  532  490 
531  892  653 
532  954  875 
533  534  667 
534  819  678 
535  138  865 
536  910  707 
537  241  948 
538  81   968 
539  674  668 
540  788  928 
541  933  690 
542  222  916 
543  938  607 
544  700  717 
545  979  806 
546  601  464 
547  601  702 
548  791  844 
549  620  724 
550  992  843 
551  662  699 
552  949  881 
553  884  672 
554  821  970 
555  271  823 
556  823  6   
557  269  902 
558  173  916 
559  617  575 
560  915  754 
561  511  664 
562  682  802 
563  229  933 
564  910  666 
565  731  960 
566  978  791 
567  780  556 
568  922  658 
569  617  678 
570  720  950 
571  942  69  
572  968  881 
573  971  550 
574  807  936 
575  891  679 
576  935  57  
577  763  768 
578  787  698 
579  957  633 
580  163  889 
581  809  744 
582  783  844 
583  58   845 
584  966  44  
585  896  623 
586  938  638 
587  985  570 
588  958  189 
589  746  953 
590  793  656 
591  667  907 
592  11   849 
593  725  997 
594  643  717 
595  881  607 
596  986  800 
597  996  90  
598  745  984 
599  929  665 
600  852  827 
601  540  722 
602  158  904 
603  885  604 
604  182  843 
605  96   858 
606  997  912 
607  795  966 
608  765  925 
609  754  925 
610  759  613 
611  130  936 
612  647  579 
613  671  509 
614  630  746 
615  663  932 
616  101  872 
617  976  736 
618  695  457 
619  669  993 
620  952  644 
621  528  725 
622  464  570 
623  904  994 
624  131  909 
625  689  688 
626  928  695 
627  486  728 
628  771  888 
629  503  767 
630  897  546 
631  970  14  
632  142  784 
633  941  652 
634  819  663 
635  648  497 
636  771  726 
637  923  711 
638  937  618 
639  997  13  
640  110  998 
641  526  675 
642  912  54  
643  987  484 
644  969  863 
645  814  651 
646  149  944 
647  51   948 
648  653  715 
649  779  949 
650  967  920 
651  691  598 
652  684  550 
653  852  552 
654  990  495 
655  751  887 
656  48   888 
657  663  756 
658  752  843 
659  175  938 
660  997  799 
661  969  728 
662  806  841 
663  990  760 
664  950  696 
665  667  753 
666  804  889 
667  617  654 
668  179  935 
669  601  655 
670  808  639 
671  938  587 
672  828  715 
673  869  762 
674  195  799 
675  564  782 
676  830  654 
677  970  786 
678  628  537 
679  702  761 
680  994  860 
681  748  966 
682  946  694 
683  112  886 
684  610  614 
685  719  920 
686  950  26  
687  113  967 
688  803  910 
689  810  815 
690  665  549 
691  56   832 
692  919  731 
693  912  844 
694  573  722 
695  760  832 
696  525  938 
697  638  955 
698  640  659 
699  992  144 
700  692  935 
701  909  802 
702  919  169 
703  116  748 
704  61   812 
705  914  728 
706  221  950 
707  648  590 
708  978  892 
709  118  937 
710  870  712 
711  897  19  
712  985  806 
713  824  681 
714  984  819 
715  42   920 
716  997  618 
717  759  737 
718  667  990 
719  776  906 
720  171  823 
721  562  717 
722  113  989 
723  669  663 
724  69   775 
725  11   941 
726  722  953 
727  734  927 
728  956  55  
729  933  718 
730  673  651 
731  615  579 
732  830  891 
733  899  594 
734  110  830 
735  924  916 
736  246  947 
737  719  654 
738  921  609 
739  100  911 
740  993  625 
741  493  595 
742  822  743 
743  944  867 
744  913  772 
745  613  767 
746  539  827 
747  731  759 
748  251  927 
749  710  309 
750  669  658 
751  102  956 
752  648  962 
753  802  630 
754  792  994 
755  740  956 
756  384  800 
757  995  32  
758  933  713 
759  598  643 
760  551  419 
761  731  624 
762  891  716 
763  533  779 
764  946  670 
765  909  630 
766  603  685 
767  674  736 
768  108  990 
769  989  748 
770  664  710 
771  629  603 
772  632  748 
773  665  934 
774  913  758 
775  941  838 
776  468  762 
777  907  714 
778  139  842 
779  149  874 
780  980  137 
781  601  635 
782  558  664 
783  595  722 
784  716  603 
785  864  200 
786  72   928 
787  732  965 
788  618  562 
789  996  10  
790  950  797 
791  652  713 
792  716  630 
793  788  973 
794  191  745 
795  640  720 
796  911  833 
797  679  837 
798  726  680 
799  923  807 
800  75   817 
801  404  727 
DEMAND_SECTION
1    0   
2    1   
3    1   
4    1   
5    1   
6    1   
7    1   
8    1   
9    1   
10   1   
11   1   
12   1   
13   1   
14   1   
15   1   
16   1   
17   1   
18   1   
19   1   
20   1   
21   1   
22   1   
23   1   
24   1   
25   1   
26   1   
27   1   
28   1   
29   1   
30   1   
31   1   
32   1   
33   1   
34   1   
35   1   
36   1   
37   1   
38   1   
39   1   
40   1   
41   1   
42   1   
43   1   
44   1   
45   1   
46   1   
47   1   
48   1   
49   1   
50   1   
51   1   
52   1   
53   1   
54   1   
55   1   
56   1   
57   1   
58   1   
59   1   
60   1   
61   1   
62   1   
63   1   
64   1   
65   1   
66   1   
67   1   
68   1   
69   1   
70   1   
71   1   
72   1   
73   1   
74   1   
75   1   
76   1   
77   1   
78   1   
79   1   
80   1   
81   1   
82   1   
83   1   
84   1   
85   1   
86   1   
87   1   
88   1   
89   1   
90   1   
91   1   
92   1   
93   1   
94   1   
95   1   
96   1   
97   1   
98   1   
99   1   
100  1   
101  1   
102  1   
103  1   
104  1   
105  1   
106  1   
107  1   
108  1   
109  1   
110  1   
111  1   
112  1   
113  1   
114  1   
115  1   
116  1   
117  1   
118  1   
119  1   
120  1   
121  1   
122  1   
123  1   
124  1   
125  1   
126  1   
127  1   
128  1   
129  1   
130  1   
131  1   
132  1   
133  1   
134  1   
135  1   
136  1   
137  1   
138  1   
139  1   
140  1   
141  1   
142  1   
143  1   
144  1   
145  1   
146  1   
147  1   
148  1   
149  1   
150  1   
151  1   
152  1   
153  1   
154  1   
155  1   
156  1   
157  1   
158  1   
159  1   
160  1   
161  1   
162  1   
163  1   
164  1   
165  1   
166  1   
167  1   
168  1   
169  1   
170  1   
171  1   
172  1   
173  1   
174  1   
175  1   
176  1   
177  1   
178  1   
179  1   
180  1   
181  1   
182  1   
183  1   
184  1   
185  1   
186  1   
187  1   
188  1   
189  1   
190  1   
191  1   
192  1   
193  1   
194  1   
195  1   
196  1   
197  1   
198  1   
199  1   
200  1   
201  1   
202  1   
203  1   
204  1   
205  1   
206  1   
207  1   
208  1   
209  1   
210  1   
211  1   
212  1   
213  1   
214  1   
215  1   
216  1   
217  1   
218  1   
219  1   
220  1   
221  1   
222  1   
223  1   
224  1   
225  1   
226  1   
227  1   
228  1   
229  1   
230  1   
231  1   
232  1   
233  1   
234  1   
235  1   
236  1   
237  1   
238  1   
239  1   
240  1   
241  1   
242  1   
243  1   
244  1   
245  1   
246  1   
247  1   
248  1   
249  1   
250  1   
251  1   
252  1   
253  1   
254  1   
255  1   
256  1   
257  1   
258  1   
259  1   
260  1   
261  1   
262  1   
263  1   
264  1   
265  1   
266  1   
267  1   
268  1   
269  1   
270  1   
271  1   
272  1   
273  1   
274  1   
275  1   
276  1   
277  1   
278  1   
279  1   
280  1   
281  1   
282  1   
283  1   
284  1   
285  1   
286  1   
287  1   
288  1   
289  1   
290  1   
291  1   
292  1   
293  1   
294  1   
295  1   
296  1   
297  1   
298  1   
299  1   
300  1   
301  1   
302  1   
303  1   
304  1   
305  1   
306  1   
307  1   
308  1   
309  1   
310  1   
311  1   
312  1   
313  1   
314  1   
315  1   
316  1   
317  1   
318  1   
319  1   
320  1   
321  1   
322  1   
323  1   
324  1   
325  1   
326  1   
327  1   
328  1   
329  1   
330  1   
331  1   
332  1   
333  1   
334  1   
335  1   
336  1   
337  1   
338  1   
339  1   
340  1   
341  1   
342  1   
343  1   
344  1   
345  1   
346  1   
347  1   
348  1   
349  1   
350  1   
351  1   
352  1   
353  1   
354  1   
355  1   
356  1   
357  1   
358  1   
359  1   
360  1   
361  1   
362  1   
363  1   
364  1   
365  1   
366  1   
367  1   
368  1   
369  1   
370  1   
371  1   
372  1   
373  1   
374  1   
375  1   
376  1   
377  1   
378  1   
379  1   
380  1   
381  1   
382  1   
383  1   
384  1   
385  1   
386  1   
387  1   
388  1   
389  1   
390  1   
391  1   
392  1   
393  1   
394  1   
395  1   
396  1   
397  1   
398  1   
399  1   
400  1   
401  1   
402  1   
403  1   
404  1   
405  1   
406  1   
407  1   
408  1   
409  1   
410  1   
411  1   
412  1   
413  1   
414  1   
415  1   
416  1   
417  1   
418  1   
419  1   
420  1   
421  1   
422  1   
423  1   
424  1   
425  1   
426  1   
427  1   
428  1   
429  1   
430  1   
431  1   
432  1   
433  1   
434  1   
435  1   
436  1   
437  1   
438  1   
439  1   
440  1   
441  1   
442  1   
443  1   
444  1   
445  1   
446  1   
447  1   
448  1   
449  1   
450  1   
451  1   
452  1   
453  1   
454  1   
455  1   
456  1   
457  1   
458  1   
459  1   
460  1   
461  1   
462  1   
463  1   
464  1   
465  1   
466  1   
467  1   
468  1   
469  1   
470  1   
471  1   
472  1   
473  1   
474  1   
475  1   
476  1   
477  1   
478  1   
479  1   
480  1   
481  1   
482  1   
483  1   
484  1   
485  1   
486  1   
487  1   
488  1   
489  1   
490  1   
491  1   
492  1   
493  1   
494  1   
495  1   
496  1   
497  1   
498  1   
499  1   
500  1   
501  1   
502  1   
503  1   
504  1   
505  1   
506  1   
507  1   
508  1   
509  1   
510  1   
511  1   
512  1   
513  1   
514  1   
515  1   
516  1   
517  1   
518  1   
519  1   
520  1   
521  1   
522  1   
523  1   
524  1   
525  1   
526  1   
527  1   
528  1   
529  1   
530  1   
531  1   
532  1   
533  1   
534  1   
535  1   
536  1   
537  1   
538  1   
539  1   
540  1   
541  1   
542  1   
543  1   
544  1   
545  1   
546  1   
547  1   
548  1   
549  1   
550  1   
551  1   
552  1   
553  1   
554  1   
555  1   
556  1   
557  1   
558  1   
559  1   
560  1   
561  1   
562  1   
563  1   
564  1   
565  1   
566  1   
567  1   
568  1   
569  1   
570  1   
571  1   
572  1   
573  1   
574  1   
575  1   
576  1   
577  1   
578  1   
579  1   
580  1   
581  1   
582  1   
583  1   
584  1   
585  1   
586  1   
587  1   
588  1   
589  1   
590  1   
591  1   
592  1   
593  1   
594  1   
595  1   
596  1   
597  1   
598  1   
599  1   
600  1   
601  1   
602  1   
603  1   
604  1   
605  1   
606  1   
607  1   
608  1   
609  1   
610  1   
611  1   
612  1   
613  1   
614  1   
615  1   
616  1   
617  1   
618  1   
619  1   
620  1   
621  1   
622  1   
623  1   
624  1   
625  1   
626  1   
627  1   
628  1   
629  1   
630  1   
631  1   
632  1   
633  1   
634  1   
635  1   
636  1   
637  1   
638  1   
639  1   
640  1   
641  1   
642  1   
643  1   
644  1   
645  1   
646  1   
647  1   
648  1   
649  1   
650  1   
651  1   
652  1   
653  1   
654  1   
655  1   
656  1   
657  1   
658  1   
659  1   
660  1   
661  1   
662  1   
663  1   
664  1   
665  1   
666  1   
667  1   
668  1   
669  1   
670  1   
671  1   
672  1   
673  1   
674  1   
675  1   
676  1   
677  1   
678  1   
679  1   
680  1   
681  1   
682  1   
683  1   
684  1   
685  1   
686  1   
687  1   
688  1   
689  1   
690  1   
691  1   
692  1   
693  1   
694  1   
695  1   
696  1   
697  1   
698  1   
699  1   
700  1   
701  1   
702  1   
703  1   
704  1   
705  1   
706  1   
707  1   
708  1   
709  1   
710  1   
711  1   
712  1   
713  1   
714  1   
715  1   
716  1   
717  1   
718  1   
719  1   
720  1   
721  1   
722  1   
723  1   
724  1   
725  1   
726  1   
727  1   
728  1   
729  1   
730  1   
731  1   
732  1   
733  1   
734  1   
735  1   
736  1   
737  1   
738  1   
739  1   
740  1   
741  1   
742  1   
743  1   
744  1   
745  1   
746  1   
747  1   
748  1   
749  1   
750  1   
751  1   
752  1   
753  1   
754  1   
755  1   
756  1   
757  1   
758  1   
759  1   
760  1   
761  1   
762  1   
763  1   
764  1   
765  1   
766  1   
767  1   
768  1   
769  1   
770  1   
771  1   
772  1   
773  1   
774  1   
775  1   
776  1   
777  1   
778  1   
779  1   
780  1   
781  1   
782  1   
783  1   
784  1   
785  1   
786  1   
787  1   
788  1   
789  1   
790  1   
791  1   
792  1   
793  1   
794  1   
795  1   
796  1   
797  1   
798  1   
799  1   
800  1   
801  1   
DEPOT_SECTION
1
-1
EOF
