NAME : XML800_2255_39
COMMENT : Generated as the XML100 dataset from the CVRPLIB
TYPE : CVRP
DIMENSION : 801
EDGE_WEIGHT_TYPE : EUC_2D
CAPACITY : 1249
NODE_COORD_SECTION
1    500  500 
2    381  734 
3    210  605 
4    350  527 
5    799  731 
6    412  996 
7    521  912 
8    138  604 
9    444  701 
10   751  700 
11   317  615 
12   292  680 
13   409  698 
14   284  923 
15   223  827 
16   195  765 
17   271  504 
18   433  664 
19   284  959 
20   981  618 
21   906  853 
22   265  927 
23   178  541 
24   329  701 
25   176  608 
26   795  598 
27   838  807 
28   148  936 
29   537  748 
30   289  646 
31   246  532 
32   386  673 
33   553  850 
34   137  881 
35   814  980 
36   286  604 
37   389  864 
38   928  745 
39   108  436 
40   360  809 
41   988  625 
42   724  695 
43   201  929 
44   355  560 
45   307  672 
46   868  965 
47   379  926 
48   443  700 
49   58   611 
50   269  636 
51   419  742 
52   241  565 
53   409  796 
54   981  622 
55   403  883 
56   169  716 
57   282  584 
58   221  992 
59   186  796 
60   369  988 
61   344  815 
62   924  734 
63   140  509 
64   291  669 
65   556  851 
66   237  460 
67   301  890 
68   468  738 
69   928  475 
70   112  456 
71   352  944 
72   388  876 
73   447  535 
74   463  790 
75   892  647 
76   386  686 
77   461  689 
78   102  500 
79   424  807 
80   528  617 
81   189  922 
82   249  546 
83   328  848 
84   141  375 
85   257  568 
86   266  635 
87   232  493 
88   555  747 
89   603  656 
90   283  724 
91   349  898 
92   287  685 
93   191  986 
94   341  665 
95   188  572 
96   376  641 
97   326  622 
98   247  914 
99   220  622 
100  344  828 
101  453  744 
102  959  714 
103  360  516 
104  425  911 
105  321  683 
106  181  532 
107  538  788 
108  466  543 
109  938  749 
110  523  659 
111  129  778 
112  520  761 
113  431  823 
114  439  684 
115  344  675 
116  304  639 
117  970  710 
118  977  606 
119  116  686 
120  320  583 
121  237  585 
122  941  939 
123  265  665 
124  219  936 
125  700  733 
126  912  723 
127  883  696 
128  348  928 
129  307  738 
130  801  654 
131  902  557 
132  341  651 
133  511  824 
134  250  640 
135  164  838 
136  881  781 
137  896  644 
138  441  329 
139  454  546 
140  708  691 
141  361  467 
142  635  478 
143  155  646 
144  383  751 
145  245  948 
146  445  744 
147  306  558 
148  247  747 
149  901  615 
150  515  799 
151  458  692 
152  278  972 
153  309  987 
154  359  915 
155  308  613 
156  265  642 
157  253  915 
158  380  867 
159  373  742 
160  209  738 
161  955  680 
162  990  647 
163  380  885 
164  472  730 
165  195  821 
166  178  521 
167  500  810 
168  455  915 
169  152  877 
170  92   683 
171  838  643 
172  403  724 
173  286  575 
174  897  738 
175  872  803 
176  67   784 
177  178  633 
178  420  813 
179  407  950 
180  940  794 
181  271  946 
182  161  683 
183  936  698 
184  299  635 
185  258  881 
186  462  769 
187  335  728 
188  962  817 
189  207  817 
190  343  925 
191  197  605 
192  127  806 
193  96   977 
194  494  828 
195  268  903 
196  291  914 
197  484  811 
198  19   702 
199  958  721 
200  404  800 
201  321  933 
202  248  534 
203  229  948 
204  370  807 
205  348  877 
206  73   956 
207  915  634 
208  828  727 
209  283  686 
210  371  897 
211  294  924 
212  772  823 
213  250  845 
214  269  620 
215  138  942 
216  426  689 
217  144  863 
218  870  738 
219  540  674 
220  248  673 
221  353  875 
222  852  568 
223  34   579 
224  529  710 
225  333  506 
226  515  784 
227  527  749 
228  925  777 
229  600  599 
230  364  740 
231  318  621 
232  356  885 
233  632  649 
234  993  539 
235  643  844 
236  204  635 
237  399  694 
238  396  796 
239  466  839 
240  192  499 
241  399  712 
242  200  759 
243  220  588 
244  230  620 
245  422  979 
246  243  580 
247  356  597 
248  403  956 
249  919  720 
250  321  932 
251  381  797 
252  344  897 
253  338  674 
254  596  722 
255  222  633 
256  252  405 
257  522  922 
258  390  864 
259  302  900 
260  857  735 
261  820  835 
262  268  996 
263  537  901 
264  212  625 
265  347  917 
266  109  887 
267  252  908 
268  834  626 
269  297  687 
270  454  750 
271  181  902 
272  533  634 
273  895  730 
274  492  880 
275  296  578 
276  356  592 
277  422  574 
278  919  715 
279  396  683 
280  387  863 
281  447  576 
282  991  712 
283  908  714 
284  356  875 
285  230  507 
286  205  661 
287  261  714 
288  201  947 
289  81   765 
290  484  661 
291  224  683 
292  873  711 
293  281  561 
294  344  739 
295  255  927 
296  978  638 
297  379  715 
298  768  667 
299  429  972 
300  922  734 
301  896  605 
302  240  538 
303  242  984 
304  404  906 
305  255  536 
306  529  650 
307  172  263 
308  741  658 
309  207  617 
310  585  667 
311  867  654 
312  355  888 
313  449  666 
314  197  841 
315  351  747 
316  306  986 
317  267  784 
318  390  845 
319  892  683 
320  275  891 
321  287  627 
322  470  721 
323  426  642 
324  295  976 
325  334  806 
326  397  844 
327  308  915 
328  388  804 
329  255  540 
330  310  866 
331  238  609 
332  383  936 
333  329  727 
334  313  621 
335  460  820 
336  980  697 
337  378  601 
338  250  681 
339  898  655 
340  552  628 
341  361  679 
342  941  827 
343  259  659 
344  64   810 
345  470  842 
346  526  603 
347  439  873 
348  344  864 
349  527  967 
350  283  634 
351  220  923 
352  274  665 
353  248  765 
354  487  620 
355  335  644 
356  384  784 
357  168  238 
358  227  562 
359  160  899 
360  410  665 
361  518  891 
362  150  873 
363  913  648 
364  716  628 
365  276  878 
366  291  601 
367  328  650 
368  372  684 
369  216  418 
370  393  725 
371  267  509 
372  237  895 
373  456  646 
374  898  888 
375  990  724 
376  435  712 
377  404  981 
378  490  666 
379  319  775 
380  227  701 
381  385  720 
382  131  724 
383  265  575 
384  265  813 
385  192  600 
386  423  603 
387  130  625 
388  233  610 
389  268  967 
390  733  429 
391  903  831 
392  450  724 
393  279  595 
394  216  557 
395  288  662 
396  347  888 
397  205  655 
398  284  948 
399  398  695 
400  122  513 
401  862  659 
402  118  659 
403  840  519 
404  331  614 
405  219  949 
406  490  787 
407  525  754 
408  436  578 
409  284  966 
410  996  668 
411  832  636 
412  362  885 
413  425  834 
414  386  815 
415  375  586 
416  469  831 
417  241  833 
418  339  901 
419  395  662 
420  463  955 
421  466  713 
422  207  611 
423  224  780 
424  914  571 
425  357  626 
426  47   729 
427  427  861 
428  631  795 
429  355  473 
430  372  782 
431  185  699 
432  389  624 
433  972  688 
434  329  829 
435  271  479 
436  241  716 
437  786  906 
438  217  606 
439  328  613 
440  327  886 
441  207  979 
442  431  467 
443  374  827 
444  500  585 
445  371  700 
446  883  713 
447  463  694 
448  168  987 
449  383  912 
450  58   636 
451  357  783 
452  356  967 
453  672  804 
454  919  672 
455  57   509 
456  424  711 
457  441  611 
458  385  710 
459  363  948 
460  898  716 
461  212  559 
462  273  636 
463  241  702 
464  323  893 
465  274  888 
466  920  892 
467  867  737 
468  240  895 
469  249  962 
470  208  772 
471  206  991 
472  149  884 
473  184  851 
474  451  679 
475  389  704 
476  267  867 
477  324  736 
478  231  657 
479  337  675 
480  212  653 
481  328  855 
482  202  639 
483  197  771 
484  363  849 
485  375  396 
486  453  724 
487  893  758 
488  529  890 
489  184  963 
490  385  678 
491  978  716 
492  868  603 
493  303  645 
494  904  605 
495  314  672 
496  204  788 
497  238  939 
498  433  620 
499  222  418 
500  936  603 
501  943  889 
502  941  681 
503  415  742 
504  238  957 
505  194  594 
506  513  747 
507  185  536 
508  468  843 
509  323  915 
510  476  856 
511  332  982 
512  316  876 
513  822  846 
514  134  845 
515  116  958 
516  521  607 
517  821  719 
518  496  681 
519  379  761 
520  252  958 
521  21   824 
522  158  820 
523  787  744 
524  326  642 
525  316  997 
526  446  707 
527  387  630 
528  238  687 
529  195  716 
530  460  898 
531  301  734 
532  272  936 
533  255  865 
534  62   699 
535  435  795 
536  436  760 
537  405  791 
538  379  891 
539  482  647 
540  391  865 
541  233  428 
542  239  511 
543  891  675 
544  293  958 
545  487  860 
546  258  610 
547  285  874 
548  139  918 
549  355  808 
550  249  561 
551  724  543 
552  356  525 
553  505  752 
554  679  639 
555  131  663 
556  556  834 
557  132  915 
558  264  707 
559  251  863 
560  250  898 
561  854  747 
562  379  792 
563  393  965 
564  220  628 
565  946  741 
566  201  624 
567  84   615 
568  324  676 
569  216  505 
570  405  768 
571  358  854 
572  367  921 
573  979  783 
574  160  451 
575  265  644 
576  468  842 
577  357  718 
578  265  653 
579  218  532 
580  250  601 
581  315  721 
582  328  849 
583  190  726 
584  924  703 
585  191  551 
586  237  676 
587  281  862 
588  323  599 
589  291  665 
590  449  675 
591  248  694 
592  437  630 
593  205  998 
594  242  620 
595  866  725 
596  184  557 
597  483  844 
598  357  857 
599  283  819 
600  170  631 
601  352  998 
602  949  750 
603  401  811 
604  849  821 
605  402  608 
606  109  630 
607  442  690 
608  914  658 
609  356  888 
610  889  723 
611  456  746 
612  338  709 
613  202  848 
614  255  720 
615  145  570 
616  414  475 
617  382  644 
618  414  713 
619  334  604 
620  145  579 
621  322  877 
622  480  658 
623  528  707 
624  316  955 
625  843  719 
626  157  562 
627  390  773 
628  301  683 
629  914  788 
630  312  692 
631  801  731 
632  267  550 
633  163  749 
634  241  650 
635  463  763 
636  273  593 
637  373  680 
638  301  948 
639  935  838 
640  303  890 
641  344  900 
642  263  674 
643  834  764 
644  324  940 
645  210  927 
646  307  878 
647  944  752 
648  278  564 
649  251  974 
650  726  602 
651  448  737 
652  357  955 
653  292  746 
654  872  665 
655  640  669 
656  360  871 
657  984  726 
658  315  729 
659  876  635 
660  275  513 
661  235  867 
662  303  593 
663  320  682 
664  356  766 
665  432  734 
666  95   582 
667  307  999 
668  629  632 
669  946  726 
670  632  786 
671  264  768 
672  432  999 
673  199  648 
674  484  808 
675  338  852 
676  222  622 
677  221  416 
678  258  981 
679  863  548 
680  324  926 
681  193  991 
682  303  723 
683  42   539 
684  337  883 
685  314  741 
686  452  693 
687  326  990 
688  278  815 
689  183  663 
690  374  877 
691  370  925 
692  407  825 
693  318  735 
694  184  753 
695  963  643 
696  929  879 
697  355  662 
698  268  895 
699  496  750 
700  213  578 
701  470  859 
702  419  646 
703  93   881 
704  416  995 
705  588  860 
706  417  731 
707  363  760 
708  448  718 
709  480  787 
710  941  718 
711  857  746 
712  264  628 
713  70   870 
714  919  596 
715  750  876 
716  287  886 
717  982  643 
718  397  856 
719  605  805 
720  312  650 
721  685  923 
722  231  963 
723  238  621 
724  261  595 
725  318  977 
726  182  549 
727  913  768 
728  218  633 
729  843  969 
730  198  673 
731  259  689 
732  387  856 
733  286  624 
734  329  604 
735  144  967 
736  409  960 
737  530  603 
738  986  901 
739  293  937 
740  422  670 
741  166  744 
742  835  750 
743  267  894 
744  202  648 
745  319  666 
746  985  774 
747  254  951 
748  928  877 
749  377  765 
750  608  814 
751  454  994 
752  255  794 
753  309  914 
754  855  691 
755  127  846 
756  458  875 
757  930  703 
758  336  629 
759  277  790 
760  196  573 
761  194  801 
762  266  817 
763  458  740 
764  669  685 
765  470  961 
766  506  905 
767  190  934 
768  459  839 
769  357  782 
770  296  961 
771  918  697 
772  529  656 
773  933  569 
774  966  755 
775  486  932 
776  865  709 
777  176  654 
778  353  677 
779  330  950 
780  364  677 
781  433  786 
782  498  915 
783  208  933 
784  341  550 
785  521  755 
786  386  710 
787  323  910 
788  161  610 
789  361  546 
790  53   668 
791  522  738 
792  361  811 
793  529  615 
794  359  738 
795  553  743 
796  460  799 
797  360  684 
798  386  822 
799  479  632 
800  500  853 
801  367  589 
DEMAND_SECTION
1    0   
2    58  
3    83  
4    55  
5    65  
6    64  
7    79  
8    96  
9    89  
10   79  
11   100 
12   73  
13   50  
14   50  
15   91  
16   96  
17   85  
18   84  
19   54  
20   57  
21   98  
22   66  
23   99  
24   56  
25   100 
26   58  
27   89  
28   82  
29   64  
30   84  
31   79  
32   80  
33   86  
34   51  
35   100 
36   86  
37   86  
38   89  
39   83  
40   73  
41   84  
42   62  
43   62  
44   78  
45   95  
46   66  
47   64  
48   82  
49   72  
50   91  
51   78  
52   92  
53   57  
54   78  
55   54  
56   89  
57   64  
58   64  
59   90  
60   92  
61   87  
62   64  
63   63  
64   96  
65   88  
66   77  
67   53  
68   98  
69   91  
70   59  
71   82  
72   96  
73   69  
74   85  
75   94  
76   89  
77   61  
78   87  
79   95  
80   93  
81   74  
82   61  
83   55  
84   100 
85   76  
86   65  
87   84  
88   58  
89   70  
90   75  
91   74  
92   95  
93   100 
94   65  
95   69  
96   69  
97   98  
98   89  
99   97  
100  52  
101  97  
102  80  
103  95  
104  85  
105  50  
106  67  
107  95  
108  66  
109  50  
110  51  
111  68  
112  71  
113  95  
114  65  
115  80  
116  63  
117  73  
118  94  
119  53  
120  75  
121  78  
122  99  
123  83  
124  81  
125  76  
126  93  
127  80  
128  89  
129  51  
130  99  
131  55  
132  76  
133  74  
134  60  
135  66  
136  95  
137  76  
138  92  
139  54  
140  71  
141  99  
142  79  
143  93  
144  65  
145  95  
146  73  
147  66  
148  64  
149  76  
150  57  
151  61  
152  76  
153  94  
154  84  
155  68  
156  67  
157  79  
158  66  
159  88  
160  70  
161  74  
162  63  
163  84  
164  69  
165  62  
166  99  
167  89  
168  100 
169  96  
170  80  
171  87  
172  61  
173  97  
174  59  
175  79  
176  69  
177  97  
178  84  
179  58  
180  95  
181  96  
182  63  
183  57  
184  61  
185  66  
186  54  
187  64  
188  51  
189  81  
190  58  
191  54  
192  95  
193  50  
194  85  
195  84  
196  60  
197  59  
198  62  
199  85  
200  68  
201  90  
202  68  
203  89  
204  84  
205  88  
206  82  
207  74  
208  79  
209  79  
210  95  
211  96  
212  68  
213  75  
214  74  
215  57  
216  73  
217  84  
218  63  
219  72  
220  98  
221  57  
222  93  
223  76  
224  90  
225  71  
226  69  
227  72  
228  57  
229  82  
230  59  
231  80  
232  83  
233  92  
234  70  
235  72  
236  72  
237  100 
238  51  
239  95  
240  83  
241  57  
242  69  
243  75  
244  69  
245  80  
246  51  
247  50  
248  98  
249  96  
250  93  
251  100 
252  96  
253  68  
254  71  
255  85  
256  82  
257  77  
258  50  
259  50  
260  51  
261  99  
262  99  
263  75  
264  53  
265  70  
266  73  
267  90  
268  64  
269  92  
270  82  
271  78  
272  55  
273  77  
274  58  
275  91  
276  74  
277  94  
278  72  
279  91  
280  83  
281  68  
282  53  
283  61  
284  80  
285  59  
286  100 
287  54  
288  68  
289  89  
290  84  
291  78  
292  63  
293  57  
294  81  
295  55  
296  77  
297  70  
298  54  
299  53  
300  72  
301  62  
302  74  
303  94  
304  70  
305  71  
306  89  
307  80  
308  85  
309  77  
310  71  
311  75  
312  100 
313  54  
314  69  
315  74  
316  61  
317  61  
318  64  
319  70  
320  95  
321  72  
322  54  
323  66  
324  97  
325  74  
326  84  
327  92  
328  98  
329  56  
330  94  
331  53  
332  85  
333  100 
334  53  
335  77  
336  62  
337  83  
338  82  
339  67  
340  95  
341  87  
342  89  
343  52  
344  77  
345  94  
346  63  
347  84  
348  75  
349  88  
350  99  
351  79  
352  57  
353  96  
354  84  
355  64  
356  71  
357  78  
358  79  
359  94  
360  53  
361  92  
362  66  
363  76  
364  68  
365  70  
366  100 
367  77  
368  89  
369  85  
370  80  
371  61  
372  78  
373  69  
374  66  
375  63  
376  51  
377  85  
378  57  
379  57  
380  91  
381  72  
382  74  
383  91  
384  63  
385  90  
386  89  
387  67  
388  75  
389  64  
390  64  
391  70  
392  96  
393  55  
394  82  
395  61  
396  84  
397  83  
398  100 
399  93  
400  99  
401  81  
402  83  
403  76  
404  89  
405  80  
406  79  
407  63  
408  78  
409  86  
410  100 
411  91  
412  51  
413  69  
414  92  
415  75  
416  99  
417  57  
418  73  
419  64  
420  87  
421  100 
422  100 
423  52  
424  100 
425  89  
426  77  
427  89  
428  75  
429  67  
430  96  
431  63  
432  88  
433  100 
434  57  
435  87  
436  94  
437  52  
438  69  
439  100 
440  79  
441  89  
442  82  
443  50  
444  80  
445  70  
446  89  
447  84  
448  89  
449  65  
450  61  
451  64  
452  56  
453  96  
454  69  
455  88  
456  91  
457  81  
458  80  
459  89  
460  59  
461  78  
462  56  
463  83  
464  78  
465  63  
466  95  
467  78  
468  56  
469  59  
470  67  
471  62  
472  65  
473  56  
474  61  
475  54  
476  91  
477  55  
478  92  
479  67  
480  77  
481  82  
482  98  
483  56  
484  51  
485  90  
486  96  
487  51  
488  88  
489  52  
490  94  
491  72  
492  79  
493  96  
494  69  
495  68  
496  65  
497  81  
498  60  
499  97  
500  54  
501  52  
502  73  
503  57  
504  79  
505  82  
506  69  
507  78  
508  85  
509  71  
510  80  
511  77  
512  79  
513  92  
514  96  
515  88  
516  94  
517  74  
518  55  
519  95  
520  54  
521  59  
522  91  
523  56  
524  80  
525  51  
526  57  
527  78  
528  66  
529  70  
530  94  
531  76  
532  66  
533  62  
534  57  
535  98  
536  51  
537  64  
538  50  
539  71  
540  96  
541  82  
542  71  
543  85  
544  82  
545  57  
546  85  
547  89  
548  95  
549  82  
550  52  
551  85  
552  67  
553  81  
554  89  
555  61  
556  70  
557  59  
558  57  
559  100 
560  72  
561  74  
562  56  
563  77  
564  73  
565  94  
566  86  
567  82  
568  67  
569  76  
570  93  
571  61  
572  66  
573  98  
574  83  
575  76  
576  91  
577  74  
578  90  
579  72  
580  100 
581  95  
582  83  
583  57  
584  61  
585  86  
586  99  
587  53  
588  98  
589  72  
590  61  
591  95  
592  93  
593  91  
594  96  
595  88  
596  82  
597  73  
598  60  
599  90  
600  59  
601  94  
602  60  
603  72  
604  79  
605  94  
606  98  
607  84  
608  70  
609  75  
610  81  
611  88  
612  51  
613  89  
614  69  
615  52  
616  97  
617  84  
618  64  
619  58  
620  97  
621  92  
622  86  
623  86  
624  67  
625  52  
626  96  
627  76  
628  93  
629  80  
630  91  
631  74  
632  86  
633  72  
634  55  
635  86  
636  100 
637  62  
638  55  
639  80  
640  85  
641  77  
642  96  
643  95  
644  58  
645  93  
646  89  
647  60  
648  93  
649  88  
650  71  
651  58  
652  85  
653  92  
654  73  
655  99  
656  87  
657  59  
658  66  
659  55  
660  58  
661  92  
662  61  
663  99  
664  66  
665  86  
666  97  
667  72  
668  89  
669  93  
670  68  
671  51  
672  69  
673  85  
674  51  
675  62  
676  95  
677  90  
678  87  
679  93  
680  86  
681  59  
682  69  
683  55  
684  76  
685  86  
686  77  
687  56  
688  53  
689  91  
690  73  
691  80  
692  97  
693  97  
694  71  
695  75  
696  91  
697  70  
698  81  
699  91  
700  77  
701  60  
702  72  
703  95  
704  93  
705  58  
706  75  
707  76  
708  98  
709  65  
710  71  
711  56  
712  87  
713  55  
714  99  
715  73  
716  80  
717  85  
718  57  
719  67  
720  71  
721  91  
722  84  
723  59  
724  60  
725  62  
726  94  
727  78  
728  76  
729  79  
730  95  
731  94  
732  96  
733  77  
734  53  
735  61  
736  62  
737  79  
738  90  
739  89  
740  99  
741  90  
742  79  
743  83  
744  56  
745  63  
746  98  
747  55  
748  80  
749  69  
750  58  
751  71  
752  97  
753  79  
754  75  
755  63  
756  76  
757  84  
758  81  
759  95  
760  78  
761  80  
762  78  
763  61  
764  81  
765  80  
766  62  
767  53  
768  57  
769  68  
770  93  
771  51  
772  85  
773  55  
774  61  
775  66  
776  98  
777  79  
778  69  
779  74  
780  83  
781  100 
782  79  
783  93  
784  55  
785  77  
786  92  
787  100 
788  92  
789  79  
790  76  
791  94  
792  69  
793  60  
794  93  
795  67  
796  91  
797  91  
798  52  
799  81  
800  77  
801  72  
DEPOT_SECTION
1
-1
EOF
