NAME : XML800_1221_37
COMMENT : Generated as the XML100 dataset from the CVRPLIB
TYPE : CVRP
DIMENSION : 801
EDGE_WEIGHT_TYPE : EUC_2D
CAPACITY : 27
NODE_COORD_SECTION
1    808  552 
2    634  524 
3    215  949 
4    635  489 
5    101  936 
6    617  373 
7    569  534 
8    219  839 
9    42   258 
10   228  924 
11   122  915 
12   630  437 
13   204  823 
14   682  447 
15   534  460 
16   176  990 
17   406  930 
18   535  523 
19   159  919 
20   252  881 
21   89   189 
22   27   116 
23   189  950 
24   163  898 
25   39   99  
26   561  413 
27   756  509 
28   475  508 
29   110  159 
30   26   7   
31   75   147 
32   643  479 
33   57   916 
34   197  801 
35   63   191 
36   200  983 
37   77   238 
38   133  893 
39   536  514 
40   43   87  
41   8    880 
42   634  528 
43   233  989 
44   86   979 
45   169  995 
46   147  818 
47   113  286 
48   615  496 
49   681  389 
50   639  481 
51   8    260 
52   596  519 
53   112  79  
54   533  490 
55   215  827 
56   603  396 
57   79   149 
58   2    36  
59   110  792 
60   36   187 
61   62   990 
62   793  404 
63   521  372 
64   180  735 
65   570  475 
66   608  349 
67   618  570 
68   132  905 
69   118  732 
70   29   175 
71   169  963 
72   194  907 
73   49   251 
74   683  528 
75   614  456 
76   235  23  
77   708  472 
78   153  964 
79   193  17  
80   165  938 
81   8    237 
82   172  995 
83   298  982 
84   9    62  
85   54   213 
86   134  987 
87   203  165 
88   644  554 
89   704  605 
90   169  837 
91   661  396 
92   700  464 
93   539  645 
94   682  437 
95   10   920 
96   47   164 
97   8    93  
98   143  299 
99   174  125 
100  208  127 
101  125  120 
102  22   256 
103  614  415 
104  94   132 
105  667  430 
106  822  453 
107  166  148 
108  124  142 
109  160  980 
110  151  922 
111  73   832 
112  594  436 
113  647  439 
114  150  963 
115  552  439 
116  359  170 
117  8    223 
118  64   136 
119  605  451 
120  630  386 
121  154  942 
122  179  877 
123  173  955 
124  738  337 
125  535  234 
126  658  475 
127  670  440 
128  202  1000
129  75   240 
130  750  558 
131  628  205 
132  75   249 
133  97   160 
134  694  388 
135  651  454 
136  107  857 
137  489  541 
138  586  455 
139  230  964 
140  279  829 
141  598  429 
142  692  482 
143  63   140 
144  561  398 
145  590  434 
146  828  333 
147  94   127 
148  647  596 
149  157  979 
150  594  431 
151  647  434 
152  161  958 
153  689  458 
154  627  474 
155  595  414 
156  592  516 
157  161  558 
158  281  474 
159  590  555 
160  160  840 
161  570  357 
162  7    109 
163  15   122 
164  652  423 
165  512  501 
166  740  508 
167  199  279 
168  611  623 
169  446  583 
170  684  473 
171  5    413 
172  201  334 
173  112  167 
174  740  791 
175  252  61  
176  730  445 
177  209  850 
178  194  959 
179  709  669 
180  172  315 
181  277  984 
182  51   165 
183  616  459 
184  174  919 
185  95   208 
186  61   960 
187  653  368 
188  1    164 
189  247  998 
190  656  361 
191  591  542 
192  24   175 
193  64   220 
194  83   81  
195  101  129 
196  801  608 
197  145  995 
198  591  398 
199  192  927 
200  16   27  
201  195  169 
202  36   5   
203  676  640 
204  19   190 
205  663  539 
206  110  219 
207  145  186 
208  749  453 
209  76   971 
210  12   160 
211  680  448 
212  568  414 
213  19   46  
214  207  911 
215  249  926 
216  512  473 
217  637  495 
218  533  267 
219  709  511 
220  376  311 
221  503  424 
222  253  2   
223  715  414 
224  48   109 
225  34   211 
226  323  704 
227  99   182 
228  168  928 
229  92   152 
230  65   198 
231  240  50  
232  592  627 
233  58   159 
234  658  572 
235  634  453 
236  61   164 
237  677  442 
238  800  494 
239  215  896 
240  53   80  
241  254  70  
242  583  407 
243  227  870 
244  584  461 
245  48   230 
246  82   232 
247  656  495 
248  752  203 
249  190  997 
250  117  119 
251  83   224 
252  338  859 
253  70   123 
254  565  492 
255  659  505 
256  133  993 
257  450  511 
258  108  253 
259  715  427 
260  157  267 
261  29   127 
262  574  317 
263  123  152 
264  546  493 
265  750  241 
266  717  738 
267  57   54  
268  151  964 
269  515  514 
270  604  690 
271  624  439 
272  160  155 
273  75   880 
274  736  598 
275  680  465 
276  79   999 
277  631  429 
278  94   75  
279  662  416 
280  50   801 
281  277  843 
282  57   184 
283  137  967 
284  133  161 
285  620  517 
286  167  977 
287  124  112 
288  578  282 
289  174  845 
290  684  300 
291  598  498 
292  63   200 
293  64   982 
294  604  438 
295  597  399 
296  621  527 
297  152  942 
298  819  628 
299  635  529 
300  37   174 
301  71   87  
302  686  592 
303  63   977 
304  88   167 
305  596  308 
306  133  974 
307  653  415 
308  755  481 
309  622  446 
310  501  476 
311  570  417 
312  80   135 
313  89   211 
314  97   889 
315  671  487 
316  517  667 
317  780  641 
318  184  247 
319  107  274 
320  706  472 
321  190  955 
322  592  468 
323  54   146 
324  670  378 
325  183  269 
326  643  510 
327  633  487 
328  11   184 
329  565  432 
330  80   921 
331  197  185 
332  945  573 
333  38   961 
334  118  139 
335  5    91  
336  658  498 
337  111  109 
338  22   171 
339  53   842 
340  300  143 
341  216  976 
342  136  867 
343  168  899 
344  71   994 
345  103  937 
346  628  493 
347  21   328 
348  60   975 
349  617  502 
350  824  575 
351  798  285 
352  64   945 
353  374  851 
354  647  381 
355  28   223 
356  716  471 
357  584  688 
358  95   798 
359  585  433 
360  852  359 
361  150  990 
362  13   109 
363  127  192 
364  70   85  
365  125  924 
366  97   349 
367  34   159 
368  711  410 
369  88   139 
370  156  911 
371  102  940 
372  46   133 
373  222  191 
374  45   833 
375  568  447 
376  607  438 
377  603  575 
378  425  547 
379  166  76  
380  250  811 
381  18   159 
382  161  882 
383  197  966 
384  587  316 
385  230  1000
386  650  512 
387  60   161 
388  667  461 
389  653  288 
390  419  359 
391  43   99  
392  367  178 
393  492  438 
394  705  582 
395  246  971 
396  57   290 
397  746  354 
398  125  254 
399  153  990 
400  142  990 
401  198  903 
402  215  318 
403  632  597 
404  73   243 
405  162  995 
406  729  557 
407  5    337 
408  67   834 
409  617  465 
410  678  493 
411  561  573 
412  332  750 
413  761  509 
414  656  591 
415  81   988 
416  436  142 
417  617  492 
418  620  488 
419  170  944 
420  550  411 
421  81   112 
422  621  462 
423  148  916 
424  122  122 
425  543  390 
426  52   143 
427  122  140 
428  633  454 
429  599  312 
430  129  939 
431  349  942 
432  129  948 
433  618  429 
434  150  989 
435  505  381 
436  699  246 
437  65   127 
438  85   194 
439  644  557 
440  9    321 
441  545  444 
442  580  411 
443  615  530 
444  37   163 
445  203  851 
446  6    68  
447  700  476 
448  112  980 
449  177  951 
450  130  876 
451  143  958 
452  261  941 
453  104  994 
454  695  397 
455  72   934 
456  127  968 
457  103  104 
458  238  158 
459  748  507 
460  103  113 
461  439  593 
462  622  547 
463  602  718 
464  59   708 
465  488  467 
466  791  477 
467  597  383 
468  134  55  
469  673  503 
470  127  168 
471  773  438 
472  760  508 
473  504  402 
474  172  984 
475  259  235 
476  78   977 
477  50   906 
478  556  449 
479  131  58  
480  155  25  
481  85   854 
482  482  392 
483  565  259 
484  560  995 
485  103  234 
486  85   207 
487  96   204 
488  272  964 
489  87   235 
490  112  984 
491  79   142 
492  601  456 
493  171  943 
494  506  456 
495  565  542 
496  101  169 
497  538  445 
498  76   234 
499  139  937 
500  109  933 
501  23   991 
502  605  373 
503  115  180 
504  167  794 
505  649  370 
506  158  160 
507  40   186 
508  642  520 
509  116  163 
510  45   121 
511  647  464 
512  703  377 
513  134  971 
514  587  422 
515  603  528 
516  721  422 
517  628  450 
518  81   955 
519  51   209 
520  518  435 
521  666  580 
522  100  178 
523  649  509 
524  30   998 
525  784  563 
526  144  373 
527  976  495 
528  138  61  
529  651  555 
530  270  872 
531  44   151 
532  161  974 
533  139  132 
534  512  643 
535  82   263 
536  56   125 
537  60   235 
538  194  989 
539  94   911 
540  135  912 
541  562  500 
542  146  293 
543  49   113 
544  564  308 
545  101  132 
546  210  942 
547  656  382 
548  108  266 
549  225  851 
550  2    257 
551  602  420 
552  185  113 
553  96   221 
554  603  397 
555  255  56  
556  748  492 
557  637  386 
558  574  586 
559  612  460 
560  566  353 
561  163  732 
562  136  122 
563  205  985 
564  563  464 
565  620  571 
566  16   75  
567  557  542 
568  681  596 
569  14   114 
570  109  132 
571  762  502 
572  682  402 
573  465  306 
574  436  508 
575  701  263 
576  112  951 
577  636  453 
578  61   82  
579  179  959 
580  491  471 
581  108  261 
582  10   265 
583  139  904 
584  262  993 
585  531  382 
586  191  960 
587  113  641 
588  150  272 
589  289  857 
590  760  470 
591  482  516 
592  683  515 
593  50   212 
594  635  475 
595  212  94  
596  651  401 
597  128  131 
598  113  79  
599  195  935 
600  717  355 
601  657  480 
602  47   142 
603  463  624 
604  105  22  
605  598  403 
606  666  556 
607  62   954 
608  115  304 
609  8    89  
610  17   156 
611  85   928 
612  184  898 
613  220  982 
614  85   946 
615  75   115 
616  6    393 
617  648  385 
618  62   154 
619  585  460 
620  642  576 
621  121  981 
622  652  370 
623  151  994 
624  746  386 
625  382  527 
626  44   221 
627  101  99  
628  290  929 
629  144  982 
630  787  423 
631  701  518 
632  57   178 
633  630  476 
634  558  469 
635  685  421 
636  523  511 
637  95   955 
638  51   265 
639  314  993 
640  557  491 
641  105  111 
642  682  513 
643  44   104 
644  62   140 
645  36   249 
646  276  258 
647  181  905 
648  56   78  
649  19   178 
650  30   187 
651  160  135 
652  819  393 
653  699  449 
654  466  763 
655  679  480 
656  13   140 
657  700  423 
658  36   114 
659  45   181 
660  926  604 
661  35   167 
662  658  524 
663  122  940 
664  545  665 
665  262  66  
666  68   173 
667  69   138 
668  469  535 
669  653  454 
670  123  136 
671  472  528 
672  545  512 
673  64   77  
674  109  979 
675  544  403 
676  140  975 
677  21   228 
678  182  810 
679  522  250 
680  90   89  
681  115  927 
682  107  169 
683  193  977 
684  351  130 
685  528  580 
686  766  381 
687  261  236 
688  344  472 
689  462  464 
690  658  537 
691  465  798 
692  50   129 
693  221  932 
694  691  552 
695  672  548 
696  184  901 
697  89   227 
698  17   873 
699  854  457 
700  612  426 
701  746  515 
702  265  956 
703  661  538 
704  529  666 
705  614  463 
706  764  658 
707  526  350 
708  114  167 
709  197  183 
710  608  419 
711  22   169 
712  101  978 
713  675  585 
714  747  601 
715  564  516 
716  68   172 
717  659  506 
718  185  995 
719  680  538 
720  611  429 
721  213  258 
722  160  920 
723  620  496 
724  663  476 
725  691  556 
726  105  999 
727  565  587 
728  35   269 
729  378  352 
730  701  606 
731  83   166 
732  476  506 
733  77   244 
734  630  573 
735  613  502 
736  5    246 
737  637  441 
738  106  158 
739  600  541 
740  70   977 
741  599  594 
742  692  404 
743  576  458 
744  108  213 
745  684  647 
746  564  502 
747  25   206 
748  74   885 
749  194  136 
750  83   952 
751  419  910 
752  615  556 
753  730  543 
754  571  388 
755  15   170 
756  976  275 
757  515  456 
758  692  287 
759  19   149 
760  431  731 
761  0    145 
762  65   930 
763  85   997 
764  74   997 
765  132  35  
766  45   305 
767  644  466 
768  602  497 
769  128  986 
770  598  508 
771  159  147 
772  148  964 
773  566  394 
774  50   249 
775  582  509 
776  62   223 
777  607  422 
778  31   226 
779  272  954 
780  117  851 
781  177  954 
782  169  196 
783  49   140 
784  643  381 
785  707  536 
786  596  547 
787  184  203 
788  42   110 
789  13   879 
790  225  878 
791  98   181 
792  90   177 
793  538  453 
794  136  949 
795  397  176 
796  54   102 
797  76   251 
798  566  542 
799  30   809 
800  60   154 
801  66   323 
DEMAND_SECTION
1    0   
2    3   
3    1   
4    3   
5    3   
6    8   
7    7   
8    2   
9    6   
10   7   
11   6   
12   2   
13   9   
14   6   
15   2   
16   9   
17   1   
18   6   
19   2   
20   9   
21   1   
22   9   
23   8   
24   7   
25   3   
26   7   
27   1   
28   5   
29   10  
30   5   
31   6   
32   4   
33   7   
34   3   
35   5   
36   7   
37   6   
38   7   
39   5   
40   2   
41   7   
42   3   
43   5   
44   6   
45   6   
46   5   
47   6   
48   9   
49   9   
50   4   
51   6   
52   8   
53   10  
54   1   
55   5   
56   8   
57   6   
58   5   
59   1   
60   2   
61   4   
62   2   
63   6   
64   3   
65   2   
66   6   
67   3   
68   9   
69   5   
70   4   
71   4   
72   6   
73   10  
74   5   
75   1   
76   5   
77   2   
78   2   
79   2   
80   3   
81   8   
82   10  
83   7   
84   2   
85   4   
86   9   
87   10  
88   10  
89   3   
90   10  
91   5   
92   6   
93   2   
94   10  
95   6   
96   6   
97   7   
98   5   
99   5   
100  6   
101  2   
102  6   
103  1   
104  7   
105  2   
106  2   
107  2   
108  9   
109  1   
110  3   
111  1   
112  3   
113  10  
114  3   
115  7   
116  8   
117  8   
118  8   
119  6   
120  6   
121  2   
122  9   
123  7   
124  10  
125  2   
126  1   
127  1   
128  3   
129  5   
130  6   
131  9   
132  8   
133  10  
134  3   
135  8   
136  2   
137  5   
138  1   
139  4   
140  8   
141  4   
142  3   
143  9   
144  8   
145  9   
146  10  
147  2   
148  7   
149  1   
150  8   
151  4   
152  7   
153  10  
154  1   
155  2   
156  9   
157  9   
158  9   
159  5   
160  1   
161  10  
162  7   
163  8   
164  5   
165  10  
166  5   
167  4   
168  5   
169  5   
170  2   
171  3   
172  5   
173  7   
174  1   
175  7   
176  2   
177  9   
178  7   
179  5   
180  4   
181  3   
182  7   
183  8   
184  2   
185  2   
186  10  
187  9   
188  2   
189  2   
190  3   
191  3   
192  3   
193  8   
194  6   
195  10  
196  2   
197  5   
198  4   
199  5   
200  5   
201  8   
202  1   
203  2   
204  8   
205  3   
206  3   
207  3   
208  7   
209  3   
210  5   
211  2   
212  6   
213  10  
214  1   
215  5   
216  10  
217  2   
218  7   
219  7   
220  3   
221  1   
222  10  
223  5   
224  8   
225  3   
226  10  
227  2   
228  6   
229  2   
230  5   
231  5   
232  2   
233  9   
234  9   
235  6   
236  3   
237  3   
238  4   
239  3   
240  2   
241  10  
242  7   
243  5   
244  8   
245  2   
246  4   
247  6   
248  1   
249  8   
250  10  
251  7   
252  2   
253  5   
254  8   
255  2   
256  2   
257  4   
258  9   
259  10  
260  7   
261  7   
262  5   
263  2   
264  8   
265  3   
266  5   
267  5   
268  7   
269  4   
270  9   
271  7   
272  8   
273  3   
274  9   
275  3   
276  8   
277  2   
278  2   
279  8   
280  9   
281  9   
282  5   
283  9   
284  9   
285  7   
286  6   
287  1   
288  6   
289  7   
290  6   
291  6   
292  8   
293  4   
294  4   
295  9   
296  6   
297  8   
298  9   
299  4   
300  8   
301  10  
302  7   
303  6   
304  3   
305  9   
306  10  
307  3   
308  3   
309  6   
310  7   
311  2   
312  7   
313  10  
314  3   
315  9   
316  1   
317  1   
318  3   
319  3   
320  10  
321  8   
322  4   
323  3   
324  6   
325  3   
326  5   
327  6   
328  4   
329  2   
330  3   
331  3   
332  3   
333  5   
334  4   
335  7   
336  8   
337  7   
338  2   
339  10  
340  9   
341  4   
342  8   
343  2   
344  1   
345  1   
346  8   
347  9   
348  1   
349  6   
350  9   
351  10  
352  4   
353  8   
354  9   
355  6   
356  9   
357  9   
358  5   
359  3   
360  4   
361  4   
362  1   
363  10  
364  8   
365  3   
366  8   
367  4   
368  9   
369  6   
370  6   
371  10  
372  1   
373  8   
374  5   
375  10  
376  6   
377  10  
378  4   
379  5   
380  1   
381  8   
382  2   
383  2   
384  6   
385  3   
386  4   
387  10  
388  8   
389  2   
390  5   
391  8   
392  9   
393  5   
394  3   
395  5   
396  5   
397  4   
398  3   
399  7   
400  6   
401  2   
402  5   
403  5   
404  1   
405  7   
406  5   
407  2   
408  10  
409  2   
410  6   
411  6   
412  2   
413  1   
414  4   
415  4   
416  10  
417  1   
418  10  
419  1   
420  4   
421  10  
422  2   
423  7   
424  3   
425  2   
426  5   
427  6   
428  2   
429  5   
430  2   
431  5   
432  7   
433  3   
434  1   
435  8   
436  6   
437  6   
438  2   
439  2   
440  1   
441  1   
442  7   
443  5   
444  4   
445  3   
446  9   
447  10  
448  8   
449  7   
450  6   
451  7   
452  9   
453  1   
454  5   
455  6   
456  3   
457  1   
458  5   
459  3   
460  8   
461  9   
462  10  
463  3   
464  7   
465  8   
466  5   
467  4   
468  9   
469  2   
470  8   
471  8   
472  1   
473  3   
474  10  
475  5   
476  4   
477  5   
478  1   
479  7   
480  3   
481  3   
482  7   
483  3   
484  2   
485  3   
486  7   
487  10  
488  7   
489  6   
490  2   
491  8   
492  1   
493  7   
494  9   
495  3   
496  8   
497  3   
498  9   
499  2   
500  4   
501  3   
502  9   
503  4   
504  9   
505  5   
506  1   
507  3   
508  8   
509  6   
510  10  
511  7   
512  7   
513  5   
514  7   
515  4   
516  4   
517  9   
518  4   
519  6   
520  7   
521  9   
522  3   
523  6   
524  9   
525  7   
526  7   
527  10  
528  4   
529  3   
530  10  
531  6   
532  2   
533  10  
534  5   
535  5   
536  3   
537  7   
538  6   
539  2   
540  8   
541  4   
542  9   
543  10  
544  9   
545  6   
546  2   
547  5   
548  3   
549  5   
550  9   
551  1   
552  10  
553  3   
554  2   
555  1   
556  2   
557  2   
558  7   
559  8   
560  6   
561  9   
562  1   
563  1   
564  10  
565  8   
566  10  
567  4   
568  5   
569  10  
570  9   
571  9   
572  8   
573  1   
574  5   
575  9   
576  7   
577  3   
578  6   
579  2   
580  6   
581  8   
582  4   
583  3   
584  2   
585  1   
586  1   
587  9   
588  3   
589  10  
590  3   
591  2   
592  1   
593  4   
594  2   
595  8   
596  3   
597  2   
598  7   
599  4   
600  10  
601  8   
602  5   
603  2   
604  7   
605  10  
606  1   
607  4   
608  4   
609  5   
610  8   
611  2   
612  7   
613  8   
614  8   
615  6   
616  3   
617  3   
618  9   
619  5   
620  7   
621  9   
622  2   
623  7   
624  5   
625  6   
626  4   
627  5   
628  4   
629  2   
630  4   
631  3   
632  7   
633  7   
634  2   
635  1   
636  4   
637  7   
638  1   
639  7   
640  1   
641  10  
642  3   
643  3   
644  3   
645  4   
646  4   
647  7   
648  1   
649  5   
650  9   
651  9   
652  10  
653  5   
654  5   
655  10  
656  6   
657  1   
658  2   
659  6   
660  10  
661  8   
662  5   
663  2   
664  4   
665  5   
666  6   
667  8   
668  5   
669  7   
670  8   
671  9   
672  10  
673  8   
674  7   
675  6   
676  9   
677  9   
678  9   
679  5   
680  8   
681  9   
682  10  
683  1   
684  2   
685  4   
686  8   
687  4   
688  10  
689  4   
690  1   
691  5   
692  3   
693  7   
694  10  
695  7   
696  6   
697  5   
698  10  
699  2   
700  8   
701  7   
702  3   
703  9   
704  1   
705  3   
706  5   
707  10  
708  9   
709  9   
710  2   
711  1   
712  5   
713  8   
714  9   
715  7   
716  7   
717  4   
718  4   
719  6   
720  3   
721  8   
722  10  
723  2   
724  10  
725  2   
726  2   
727  2   
728  7   
729  3   
730  1   
731  8   
732  4   
733  4   
734  3   
735  7   
736  2   
737  1   
738  10  
739  4   
740  7   
741  8   
742  8   
743  3   
744  7   
745  8   
746  6   
747  6   
748  6   
749  4   
750  2   
751  9   
752  1   
753  5   
754  10  
755  7   
756  8   
757  4   
758  8   
759  7   
760  4   
761  10  
762  9   
763  6   
764  1   
765  9   
766  1   
767  3   
768  4   
769  1   
770  10  
771  7   
772  5   
773  7   
774  7   
775  5   
776  9   
777  9   
778  5   
779  7   
780  2   
781  10  
782  7   
783  10  
784  9   
785  10  
786  3   
787  3   
788  1   
789  6   
790  3   
791  10  
792  8   
793  7   
794  2   
795  7   
796  9   
797  6   
798  10  
799  3   
800  7   
801  6   
DEPOT_SECTION
1
-1
EOF
