NAME : XML800_2141_43
COMMENT : Generated as the XML100 dataset from the CVRPLIB
TYPE : CVRP
DIMENSION : 801
EDGE_WEIGHT_TYPE : EUC_2D
CAPACITY : 157
NODE_COORD_SECTION
1    500  500 
2    338  791 
3    69   1   
4    882  927 
5    618  427 
6    489  35  
7    128  819 
8    316  372 
9    410  150 
10   945  821 
11   9    746 
12   554  271 
13   680  923 
14   607  435 
15   652  196 
16   910  967 
17   900  944 
18   329  198 
19   729  815 
20   579  620 
21   270  121 
22   805  127 
23   503  481 
24   214  854 
25   943  97  
26   222  309 
27   476  729 
28   564  851 
29   844  231 
30   440  806 
31   868  359 
32   851  526 
33   386  179 
34   619  768 
35   77   494 
36   913  101 
37   39   629 
38   580  566 
39   522  216 
40   184  337 
41   262  238 
42   223  557 
43   293  216 
44   5    981 
45   735  854 
46   948  998 
47   470  443 
48   321  967 
49   792  76  
50   914  438 
51   617  709 
52   787  644 
53   518  874 
54   709  325 
55   399  1   
56   344  959 
57   968  9   
58   115  349 
59   47   205 
60   97   947 
61   787  82  
62   530  942 
63   559  511 
64   154  444 
65   309  476 
66   192  574 
67   333  940 
68   465  961 
69   654  748 
70   619  125 
71   509  528 
72   907  510 
73   898  965 
74   200  416 
75   533  476 
76   786  656 
77   374  977 
78   157  225 
79   387  22  
80   880  678 
81   473  699 
82   212  426 
83   306  671 
84   69   606 
85   191  303 
86   808  24  
87   488  428 
88   404  456 
89   346  1000
90   140  10  
91   566  765 
92   971  832 
93   953  280 
94   752  376 
95   982  451 
96   227  652 
97   80   215 
98   987  767 
99   322  243 
100  847  891 
101  571  62  
102  603  521 
103  924  994 
104  341  530 
105  542  947 
106  502  447 
107  689  301 
108  308  591 
109  735  835 
110  749  742 
111  96   839 
112  101  292 
113  935  869 
114  599  645 
115  991  931 
116  972  262 
117  247  779 
118  867  743 
119  590  178 
120  108  929 
121  245  162 
122  646  604 
123  305  967 
124  978  839 
125  79   386 
126  971  800 
127  871  960 
128  375  555 
129  414  245 
130  70   8   
131  851  484 
132  434  470 
133  780  451 
134  755  138 
135  119  467 
136  667  254 
137  503  322 
138  898  443 
139  787  328 
140  890  686 
141  146  686 
142  936  335 
143  644  953 
144  454  155 
145  374  46  
146  52   889 
147  856  473 
148  93   432 
149  381  152 
150  752  254 
151  299  537 
152  711  701 
153  386  514 
154  750  818 
155  208  108 
156  159  908 
157  517  854 
158  720  557 
159  847  607 
160  794  363 
161  457  412 
162  233  942 
163  912  318 
164  964  783 
165  476  718 
166  771  626 
167  763  887 
168  653  350 
169  730  45  
170  506  807 
171  431  386 
172  55   800 
173  1    829 
174  962  458 
175  214  973 
176  630  888 
177  195  542 
178  724  239 
179  205  861 
180  27   747 
181  125  334 
182  868  289 
183  255  718 
184  130  40  
185  852  52  
186  409  358 
187  486  205 
188  198  583 
189  975  778 
190  187  174 
191  205  964 
192  309  20  
193  781  504 
194  396  195 
195  971  902 
196  492  657 
197  311  218 
198  652  786 
199  174  240 
200  185  478 
201  751  261 
202  897  553 
203  851  595 
204  541  271 
205  587  247 
206  862  842 
207  862  613 
208  203  410 
209  40   523 
210  917  131 
211  366  675 
212  651  695 
213  931  978 
214  885  871 
215  940  380 
216  969  187 
217  65   436 
218  122  979 
219  620  945 
220  447  645 
221  535  340 
222  238  364 
223  695  868 
224  222  279 
225  959  905 
226  763  621 
227  798  588 
228  372  736 
229  586  143 
230  634  318 
231  466  96  
232  174  244 
233  395  728 
234  944  489 
235  936  823 
236  114  458 
237  737  586 
238  167  470 
239  440  479 
240  752  733 
241  602  407 
242  185  109 
243  847  583 
244  802  441 
245  991  996 
246  998  227 
247  737  204 
248  67   904 
249  439  129 
250  571  10  
251  394  615 
252  863  29  
253  748  982 
254  219  610 
255  38   306 
256  359  868 
257  864  128 
258  21   482 
259  328  782 
260  973  291 
261  228  951 
262  205  419 
263  372  605 
264  349  841 
265  678  760 
266  647  553 
267  950  801 
268  151  209 
269  766  244 
270  118  41  
271  975  336 
272  221  966 
273  507  905 
274  355  875 
275  780  682 
276  128  994 
277  618  202 
278  236  527 
279  8    669 
280  294  797 
281  658  247 
282  5    932 
283  647  912 
284  903  761 
285  515  356 
286  929  490 
287  839  862 
288  340  611 
289  546  618 
290  253  881 
291  747  608 
292  180  906 
293  160  662 
294  0    948 
295  511  111 
296  75   75  
297  149  24  
298  103  542 
299  344  757 
300  667  871 
301  128  724 
302  631  42  
303  236  913 
304  300  22  
305  222  84  
306  865  456 
307  548  672 
308  807  365 
309  421  159 
310  954  146 
311  822  750 
312  866  271 
313  633  496 
314  592  306 
315  332  1   
316  648  457 
317  135  210 
318  57   309 
319  704  794 
320  884  96  
321  681  411 
322  302  872 
323  291  732 
324  782  48  
325  380  819 
326  791  542 
327  374  986 
328  865  577 
329  655  102 
330  151  590 
331  873  23  
332  510  785 
333  965  17  
334  442  501 
335  739  199 
336  493  305 
337  538  883 
338  534  504 
339  39   116 
340  168  99  
341  373  150 
342  908  165 
343  903  59  
344  60   184 
345  584  706 
346  221  138 
347  9    902 
348  395  928 
349  140  311 
350  438  908 
351  117  822 
352  79   63  
353  791  757 
354  814  777 
355  327  393 
356  790  303 
357  599  434 
358  551  632 
359  921  741 
360  427  745 
361  726  413 
362  867  779 
363  495  480 
364  341  849 
365  129  441 
366  11   556 
367  235  184 
368  608  784 
369  254  36  
370  573  826 
371  258  433 
372  924  495 
373  435  456 
374  284  162 
375  755  830 
376  223  960 
377  918  955 
378  429  400 
379  307  792 
380  118  120 
381  135  856 
382  678  210 
383  173  303 
384  816  171 
385  914  603 
386  374  64  
387  736  578 
388  326  918 
389  20   219 
390  587  217 
391  748  171 
392  998  840 
393  880  439 
394  191  235 
395  458  966 
396  677  614 
397  21   974 
398  918  838 
399  52   952 
400  337  694 
401  880  475 
402  159  288 
403  719  857 
404  458  584 
405  348  712 
406  788  90  
407  445  910 
408  420  975 
409  520  19  
410  258  19  
411  257  203 
412  214  232 
413  470  158 
414  352  947 
415  91   683 
416  289  500 
417  663  171 
418  855  759 
419  330  547 
420  246  157 
421  465  335 
422  922  678 
423  713  28  
424  739  166 
425  883  201 
426  401  198 
427  965  905 
428  321  992 
429  886  355 
430  632  448 
431  486  641 
432  283  727 
433  286  485 
434  48   842 
435  308  918 
436  764  213 
437  801  24  
438  775  133 
439  291  685 
440  599  801 
441  91   4   
442  954  382 
443  610  420 
444  845  951 
445  647  478 
446  811  720 
447  678  465 
448  231  163 
449  700  898 
450  644  570 
451  922  691 
452  983  521 
453  596  777 
454  422  234 
455  800  436 
456  864  201 
457  982  422 
458  382  417 
459  751  171 
460  828  345 
461  88   483 
462  75   373 
463  730  862 
464  910  591 
465  782  396 
466  793  671 
467  167  367 
468  385  431 
469  689  214 
470  876  925 
471  276  948 
472  91   646 
473  804  829 
474  198  861 
475  978  51  
476  125  248 
477  34   642 
478  616  494 
479  569  144 
480  242  24  
481  283  461 
482  888  126 
483  419  959 
484  921  977 
485  969  636 
486  297  881 
487  448  775 
488  432  916 
489  53   758 
490  561  243 
491  488  695 
492  124  162 
493  561  679 
494  432  516 
495  548  480 
496  319  984 
497  706  109 
498  812  279 
499  837  830 
500  761  215 
501  162  301 
502  38   998 
503  705  409 
504  102  497 
505  781  148 
506  527  542 
507  459  762 
508  98   792 
509  3    393 
510  88   617 
511  519  120 
512  885  870 
513  616  974 
514  217  191 
515  590  427 
516  942  766 
517  801  638 
518  897  453 
519  901  325 
520  663  533 
521  835  398 
522  751  664 
523  488  272 
524  300  737 
525  269  493 
526  996  342 
527  414  350 
528  175  77  
529  432  785 
530  594  289 
531  721  668 
532  67   144 
533  998  388 
534  128  639 
535  966  844 
536  63   519 
537  35   182 
538  777  914 
539  179  730 
540  815  275 
541  241  525 
542  474  647 
543  187  563 
544  246  222 
545  785  518 
546  681  308 
547  133  192 
548  519  636 
549  765  310 
550  567  313 
551  913  65  
552  487  302 
553  222  129 
554  97   107 
555  857  649 
556  167  617 
557  505  365 
558  635  731 
559  335  591 
560  816  388 
561  838  236 
562  898  49  
563  616  34  
564  686  120 
565  668  508 
566  890  292 
567  750  797 
568  534  428 
569  810  192 
570  315  887 
571  609  678 
572  979  778 
573  382  788 
574  32   437 
575  830  655 
576  343  168 
577  517  860 
578  520  191 
579  620  278 
580  427  301 
581  186  751 
582  73   316 
583  891  265 
584  654  200 
585  464  723 
586  802  35  
587  935  964 
588  421  325 
589  34   65  
590  916  38  
591  279  677 
592  637  623 
593  260  398 
594  63   644 
595  108  130 
596  840  165 
597  10   363 
598  728  652 
599  322  904 
600  293  822 
601  630  364 
602  125  219 
603  791  281 
604  48   255 
605  24   563 
606  743  497 
607  423  150 
608  5    787 
609  244  831 
610  50   319 
611  831  228 
612  55   397 
613  375  88  
614  777  504 
615  295  989 
616  250  609 
617  464  956 
618  710  194 
619  683  240 
620  879  780 
621  17   663 
622  518  289 
623  716  911 
624  842  898 
625  990  495 
626  17   245 
627  145  412 
628  2    354 
629  573  871 
630  645  878 
631  875  675 
632  954  163 
633  530  757 
634  139  368 
635  83   226 
636  943  428 
637  390  197 
638  448  467 
639  351  135 
640  95   29  
641  380  854 
642  589  708 
643  192  892 
644  529  815 
645  536  436 
646  734  290 
647  942  557 
648  924  5   
649  983  747 
650  589  61  
651  151  872 
652  931  319 
653  523  97  
654  298  226 
655  728  377 
656  143  352 
657  823  889 
658  534  359 
659  655  667 
660  352  53  
661  630  354 
662  682  364 
663  53   827 
664  793  70  
665  828  436 
666  371  844 
667  848  689 
668  9    101 
669  319  815 
670  275  638 
671  336  239 
672  814  138 
673  101  583 
674  213  7   
675  111  386 
676  590  640 
677  404  221 
678  152  841 
679  807  763 
680  334  836 
681  426  263 
682  709  633 
683  868  141 
684  231  316 
685  352  48  
686  786  151 
687  929  874 
688  601  798 
689  396  667 
690  395  940 
691  274  641 
692  11   438 
693  483  406 
694  234  852 
695  590  779 
696  437  39  
697  122  692 
698  424  347 
699  955  639 
700  321  758 
701  138  8   
702  474  860 
703  863  156 
704  111  143 
705  552  105 
706  756  695 
707  844  826 
708  56   36  
709  163  675 
710  799  647 
711  738  250 
712  73   534 
713  617  756 
714  644  206 
715  338  536 
716  153  908 
717  835  835 
718  231  720 
719  753  140 
720  706  56  
721  37   724 
722  67   487 
723  456  402 
724  413  715 
725  650  551 
726  435  486 
727  375  859 
728  848  414 
729  176  232 
730  395  32  
731  703  148 
732  776  874 
733  333  951 
734  838  867 
735  336  574 
736  581  308 
737  274  636 
738  778  736 
739  852  622 
740  441  166 
741  196  88  
742  964  445 
743  441  404 
744  751  72  
745  73   246 
746  399  834 
747  431  628 
748  267  624 
749  305  260 
750  81   524 
751  517  417 
752  358  253 
753  958  806 
754  297  670 
755  837  516 
756  344  336 
757  621  245 
758  836  807 
759  168  110 
760  245  470 
761  277  264 
762  77   904 
763  49   693 
764  707  424 
765  677  271 
766  906  252 
767  899  454 
768  234  168 
769  514  878 
770  822  100 
771  205  806 
772  381  775 
773  301  752 
774  708  990 
775  983  691 
776  60   698 
777  104  494 
778  323  681 
779  272  972 
780  177  963 
781  475  666 
782  409  65  
783  326  296 
784  151  407 
785  747  191 
786  560  621 
787  193  818 
788  857  569 
789  844  398 
790  544  347 
791  776  343 
792  417  819 
793  25   969 
794  713  552 
795  196  442 
796  307  529 
797  986  985 
798  49   14  
799  593  654 
800  886  870 
801  538  956 
DEMAND_SECTION
1    0   
2    16  
3    73  
4    32  
5    86  
6    42  
7    59  
8    83  
9    32  
10   59  
11   72  
12   78  
13   19  
14   58  
15   59  
16   35  
17   63  
18   65  
19   91  
20   99  
21   96  
22   72  
23   88  
24   48  
25   71  
26   41  
27   22  
28   72  
29   13  
30   50  
31   22  
32   73  
33   29  
34   25  
35   67  
36   69  
37   30  
38   84  
39   65  
40   41  
41   97  
42   20  
43   78  
44   71  
45   37  
46   74  
47   27  
48   2   
49   43  
50   75  
51   60  
52   25  
53   55  
54   50  
55   91  
56   46  
57   97  
58   73  
59   15  
60   30  
61   89  
62   35  
63   46  
64   16  
65   81  
66   3   
67   10  
68   33  
69   6   
70   28  
71   27  
72   80  
73   14  
74   97  
75   56  
76   5   
77   94  
78   65  
79   39  
80   51  
81   56  
82   51  
83   74  
84   48  
85   82  
86   100 
87   85  
88   34  
89   19  
90   4   
91   31  
92   41  
93   16  
94   89  
95   35  
96   60  
97   9   
98   98  
99   88  
100  22  
101  71  
102  27  
103  46  
104  97  
105  72  
106  11  
107  5   
108  48  
109  16  
110  28  
111  61  
112  1   
113  92  
114  18  
115  100 
116  10  
117  10  
118  26  
119  87  
120  27  
121  8   
122  66  
123  99  
124  5   
125  62  
126  15  
127  82  
128  91  
129  35  
130  48  
131  87  
132  35  
133  34  
134  95  
135  75  
136  100 
137  21  
138  49  
139  96  
140  69  
141  53  
142  76  
143  83  
144  59  
145  83  
146  40  
147  76  
148  84  
149  12  
150  75  
151  17  
152  39  
153  16  
154  10  
155  85  
156  37  
157  21  
158  52  
159  38  
160  23  
161  74  
162  6   
163  52  
164  57  
165  57  
166  63  
167  82  
168  65  
169  36  
170  56  
171  66  
172  31  
173  27  
174  35  
175  68  
176  1   
177  36  
178  62  
179  46  
180  60  
181  72  
182  19  
183  32  
184  90  
185  49  
186  92  
187  11  
188  44  
189  77  
190  48  
191  80  
192  56  
193  63  
194  18  
195  86  
196  48  
197  14  
198  11  
199  34  
200  34  
201  97  
202  9   
203  83  
204  85  
205  36  
206  63  
207  95  
208  41  
209  68  
210  38  
211  19  
212  75  
213  27  
214  21  
215  15  
216  31  
217  55  
218  38  
219  33  
220  79  
221  11  
222  74  
223  99  
224  12  
225  19  
226  63  
227  29  
228  34  
229  57  
230  85  
231  17  
232  85  
233  97  
234  24  
235  31  
236  68  
237  100 
238  78  
239  60  
240  14  
241  69  
242  80  
243  52  
244  41  
245  10  
246  2   
247  49  
248  96  
249  14  
250  73  
251  49  
252  36  
253  9   
254  1   
255  43  
256  94  
257  69  
258  27  
259  35  
260  40  
261  8   
262  37  
263  81  
264  5   
265  67  
266  11  
267  51  
268  60  
269  8   
270  77  
271  89  
272  46  
273  25  
274  10  
275  20  
276  76  
277  6   
278  56  
279  46  
280  51  
281  16  
282  33  
283  73  
284  60  
285  45  
286  66  
287  79  
288  86  
289  73  
290  65  
291  52  
292  51  
293  43  
294  33  
295  9   
296  16  
297  19  
298  85  
299  2   
300  82  
301  3   
302  22  
303  68  
304  76  
305  97  
306  1   
307  52  
308  79  
309  39  
310  62  
311  87  
312  47  
313  36  
314  71  
315  75  
316  23  
317  25  
318  8   
319  39  
320  24  
321  51  
322  99  
323  34  
324  47  
325  45  
326  60  
327  9   
328  66  
329  9   
330  27  
331  25  
332  8   
333  24  
334  97  
335  24  
336  85  
337  92  
338  89  
339  76  
340  76  
341  88  
342  82  
343  14  
344  22  
345  89  
346  29  
347  79  
348  69  
349  58  
350  76  
351  25  
352  54  
353  91  
354  70  
355  71  
356  39  
357  62  
358  4   
359  30  
360  1   
361  15  
362  100 
363  79  
364  83  
365  95  
366  92  
367  19  
368  48  
369  32  
370  3   
371  5   
372  88  
373  91  
374  86  
375  19  
376  86  
377  22  
378  32  
379  19  
380  1   
381  6   
382  74  
383  47  
384  24  
385  35  
386  74  
387  63  
388  76  
389  82  
390  31  
391  95  
392  9   
393  98  
394  2   
395  86  
396  38  
397  12  
398  27  
399  94  
400  45  
401  91  
402  98  
403  3   
404  53  
405  16  
406  36  
407  32  
408  53  
409  8   
410  87  
411  43  
412  44  
413  96  
414  42  
415  20  
416  84  
417  22  
418  27  
419  14  
420  52  
421  11  
422  57  
423  66  
424  28  
425  41  
426  67  
427  53  
428  19  
429  68  
430  29  
431  57  
432  64  
433  48  
434  95  
435  92  
436  94  
437  35  
438  42  
439  59  
440  96  
441  27  
442  54  
443  21  
444  72  
445  74  
446  71  
447  32  
448  26  
449  93  
450  23  
451  95  
452  44  
453  79  
454  81  
455  56  
456  96  
457  35  
458  96  
459  99  
460  83  
461  66  
462  72  
463  13  
464  31  
465  68  
466  88  
467  38  
468  7   
469  67  
470  84  
471  19  
472  10  
473  56  
474  2   
475  94  
476  7   
477  41  
478  96  
479  38  
480  18  
481  61  
482  72  
483  68  
484  84  
485  77  
486  25  
487  20  
488  32  
489  20  
490  99  
491  6   
492  4   
493  84  
494  31  
495  98  
496  2   
497  55  
498  5   
499  87  
500  68  
501  27  
502  95  
503  49  
504  41  
505  66  
506  26  
507  90  
508  14  
509  73  
510  80  
511  27  
512  88  
513  43  
514  1   
515  25  
516  89  
517  57  
518  93  
519  63  
520  7   
521  20  
522  6   
523  56  
524  52  
525  76  
526  3   
527  40  
528  81  
529  57  
530  58  
531  33  
532  86  
533  50  
534  38  
535  9   
536  30  
537  51  
538  82  
539  58  
540  42  
541  44  
542  38  
543  31  
544  25  
545  37  
546  83  
547  84  
548  34  
549  58  
550  3   
551  9   
552  97  
553  30  
554  30  
555  23  
556  60  
557  53  
558  23  
559  85  
560  29  
561  14  
562  96  
563  39  
564  63  
565  65  
566  5   
567  47  
568  53  
569  6   
570  29  
571  64  
572  93  
573  75  
574  63  
575  92  
576  12  
577  19  
578  25  
579  50  
580  28  
581  62  
582  97  
583  30  
584  16  
585  46  
586  85  
587  42  
588  61  
589  86  
590  23  
591  60  
592  33  
593  51  
594  75  
595  6   
596  87  
597  89  
598  63  
599  98  
600  32  
601  31  
602  71  
603  26  
604  18  
605  56  
606  72  
607  6   
608  71  
609  2   
610  72  
611  42  
612  44  
613  99  
614  35  
615  57  
616  58  
617  95  
618  1   
619  10  
620  80  
621  65  
622  48  
623  30  
624  76  
625  58  
626  27  
627  100 
628  55  
629  65  
630  32  
631  81  
632  3   
633  88  
634  15  
635  48  
636  86  
637  34  
638  45  
639  77  
640  76  
641  92  
642  34  
643  52  
644  14  
645  46  
646  35  
647  91  
648  20  
649  35  
650  3   
651  70  
652  41  
653  69  
654  52  
655  20  
656  26  
657  13  
658  92  
659  13  
660  89  
661  65  
662  62  
663  90  
664  7   
665  15  
666  64  
667  60  
668  20  
669  21  
670  50  
671  85  
672  82  
673  16  
674  63  
675  39  
676  70  
677  61  
678  76  
679  52  
680  25  
681  70  
682  56  
683  18  
684  100 
685  88  
686  35  
687  23  
688  7   
689  32  
690  93  
691  81  
692  76  
693  41  
694  80  
695  91  
696  25  
697  49  
698  14  
699  76  
700  38  
701  84  
702  100 
703  94  
704  1   
705  30  
706  30  
707  94  
708  67  
709  72  
710  74  
711  8   
712  8   
713  85  
714  9   
715  16  
716  39  
717  52  
718  53  
719  78  
720  72  
721  12  
722  75  
723  13  
724  69  
725  52  
726  77  
727  90  
728  62  
729  76  
730  59  
731  65  
732  41  
733  98  
734  61  
735  17  
736  38  
737  65  
738  72  
739  42  
740  90  
741  34  
742  57  
743  55  
744  85  
745  91  
746  37  
747  94  
748  43  
749  76  
750  41  
751  55  
752  39  
753  60  
754  65  
755  1   
756  80  
757  36  
758  59  
759  87  
760  19  
761  47  
762  44  
763  90  
764  62  
765  14  
766  44  
767  45  
768  94  
769  59  
770  70  
771  37  
772  81  
773  46  
774  20  
775  33  
776  93  
777  15  
778  28  
779  71  
780  54  
781  87  
782  12  
783  55  
784  29  
785  49  
786  100 
787  59  
788  32  
789  60  
790  20  
791  55  
792  37  
793  5   
794  68  
795  54  
796  18  
797  27  
798  67  
799  67  
800  84  
801  59  
DEPOT_SECTION
1
-1
EOF
