NAME : XML800_3341_38
COMMENT : Generated as the XML100 dataset from the CVRPLIB
TYPE : CVRP
DIMENSION : 801
EDGE_WEIGHT_TYPE : EUC_2D
CAPACITY : 197
NODE_COORD_SECTION
1    0    0   
2    835  178 
3    32   330 
4    875  214 
5    882  262 
6    125  0   
7    37   790 
8    787  784 
9    172  102 
10   382  61  
11   1    351 
12   839  175 
13   913  124 
14   815  217 
15   493  14  
16   28   332 
17   278  98  
18   894  605 
19   217  128 
20   893  411 
21   132  151 
22   97   422 
23   883  446 
24   811  350 
25   975  300 
26   859  107 
27   589  521 
28   995  278 
29   168  738 
30   474  265 
31   64   519 
32   57   669 
33   119  226 
34   440  132 
35   640  68  
36   923  375 
37   86   296 
38   124  161 
39   284  159 
40   951  375 
41   382  38  
42   168  365 
43   38   274 
44   957  278 
45   77   76  
46   584  954 
47   932  370 
48   9    76  
49   879  453 
50   819  30  
51   41   28  
52   184  184 
53   908  278 
54   875  330 
55   145  85  
56   25   29  
57   659  68  
58   938  386 
59   236  868 
60   994  147 
61   45   16  
62   902  976 
63   45   25  
64   43   55  
65   717  256 
66   586  501 
67   566  105 
68   552  597 
69   946  237 
70   84   358 
71   1    76  
72   298  946 
73   955  322 
74   113  254 
75   330  270 
76   538  537 
77   353  6   
78   373  640 
79   162  286 
80   821  349 
81   498  244 
82   198  230 
83   82   37  
84   921  445 
85   959  310 
86   181  973 
87   69   94  
88   799  586 
89   733  650 
90   859  726 
91   1000 338 
92   25   15  
93   663  433 
94   586  222 
95   839  21  
96   102  774 
97   505  670 
98   888  798 
99   95   744 
100  50   364 
101  108  305 
102  309  444 
103  100  236 
104  495  732 
105  797  298 
106  235  665 
107  593  886 
108  4    104 
109  664  937 
110  925  38  
111  401  972 
112  81   36  
113  837  199 
114  705  416 
115  656  789 
116  472  452 
117  115  56  
118  511  959 
119  946  362 
120  955  209 
121  104  321 
122  896  370 
123  157  723 
124  356  267 
125  994  384 
126  533  565 
127  951  324 
128  816  279 
129  139  278 
130  4    737 
131  112  172 
132  81   166 
133  726  242 
134  927  232 
135  849  294 
136  79   251 
137  71   247 
138  16   311 
139  828  616 
140  919  484 
141  454  802 
142  65   96  
143  282  201 
144  832  497 
145  135  11  
146  58   313 
147  983  248 
148  104  280 
149  113  356 
150  11   726 
151  901  224 
152  50   336 
153  61   574 
154  823  143 
155  413  397 
156  793  618 
157  246  238 
158  243  730 
159  725  254 
160  44   103 
161  32   714 
162  99   48  
163  609  308 
164  821  60  
165  888  626 
166  717  497 
167  121  252 
168  848  181 
169  756  592 
170  33   386 
171  377  586 
172  782  226 
173  737  740 
174  195  30  
175  480  41  
176  780  64  
177  476  565 
178  428  497 
179  851  600 
180  640  169 
181  296  207 
182  485  659 
183  27   738 
184  612  336 
185  294  664 
186  957  361 
187  247  360 
188  119  165 
189  944  288 
190  83   90  
191  74   32  
192  794  349 
193  402  718 
194  686  257 
195  36   23  
196  893  318 
197  857  404 
198  839  365 
199  914  368 
200  43   138 
201  192  792 
202  43   147 
203  129  107 
204  798  183 
205  35   161 
206  112  283 
207  162  113 
208  824  321 
209  110  322 
210  792  298 
211  636  935 
212  131  552 
213  798  58  
214  85   265 
215  121  197 
216  426  842 
217  220  90  
218  985  549 
219  315  71  
220  86   248 
221  640  258 
222  935  301 
223  53   80  
224  1    707 
225  891  523 
226  264  254 
227  293  577 
228  887  153 
229  42   187 
230  68   50  
231  153  36  
232  975  373 
233  154  10  
234  68   68  
235  570  980 
236  810  562 
237  463  338 
238  865  745 
239  229  269 
240  840  194 
241  110  52  
242  322  982 
243  583  937 
244  541  266 
245  744  189 
246  406  221 
247  407  702 
248  348  387 
249  953  201 
250  564  286 
251  409  501 
252  720  97  
253  543  312 
254  689  555 
255  727  420 
256  760  179 
257  2    235 
258  111  160 
259  917  382 
260  454  252 
261  242  738 
262  159  66  
263  961  434 
264  819  112 
265  995  328 
266  970  393 
267  101  231 
268  742  157 
269  981  12  
270  549  745 
271  868  144 
272  609  796 
273  73   407 
274  969  721 
275  909  908 
276  946  310 
277  74   390 
278  625  740 
279  606  498 
280  276  772 
281  126  162 
282  847  286 
283  663  614 
284  915  341 
285  164  27  
286  855  308 
287  61   280 
288  826  510 
289  42   950 
290  82   92  
291  147  221 
292  82   348 
293  797  223 
294  75   71  
295  735  904 
296  81   114 
297  791  161 
298  106  58  
299  563  401 
300  33   83  
301  278  408 
302  121  452 
303  918  229 
304  53   79  
305  127  117 
306  855  438 
307  274  136 
308  746  531 
309  920  805 
310  627  687 
311  860  144 
312  685  530 
313  912  145 
314  477  900 
315  61   693 
316  417  706 
317  37   345 
318  35   384 
319  851  162 
320  938  328 
321  323  24  
322  515  612 
323  187  289 
324  567  677 
325  888  345 
326  568  75  
327  33   69  
328  839  62  
329  989  266 
330  714  714 
331  849  255 
332  248  231 
333  53   321 
334  635  21  
335  765  777 
336  811  228 
337  969  949 
338  414  547 
339  827  200 
340  928  493 
341  752  206 
342  849  120 
343  372  321 
344  876  748 
345  747  347 
346  340  359 
347  84   3   
348  957  803 
349  782  66  
350  186  706 
351  142  380 
352  94   303 
353  103  290 
354  99   0   
355  671  720 
356  607  61  
357  225  661 
358  18   173 
359  523  327 
360  6    595 
361  425  835 
362  916  2   
363  995  304 
364  161  249 
365  127  336 
366  788  329 
367  902  360 
368  74   339 
369  129  275 
370  573  422 
371  57   277 
372  628  367 
373  86   93  
374  934  986 
375  799  752 
376  489  47  
377  502  645 
378  630  193 
379  772  524 
380  210  891 
381  143  47  
382  100  113 
383  856  267 
384  870  174 
385  90   328 
386  54   491 
387  281  780 
388  583  346 
389  893  23  
390  902  90  
391  109  36  
392  966  483 
393  61   148 
394  227  171 
395  225  238 
396  209  132 
397  74   96  
398  76   267 
399  797  73  
400  830  726 
401  841  735 
402  84   811 
403  153  505 
404  912  139 
405  900  412 
406  538  563 
407  839  164 
408  471  927 
409  251  506 
410  369  641 
411  899  541 
412  301  363 
413  864  220 
414  894  221 
415  861  205 
416  805  152 
417  131  189 
418  972  805 
419  108  987 
420  803  191 
421  954  778 
422  222  78  
423  35   81  
424  138  103 
425  765  344 
426  340  308 
427  111  247 
428  968  551 
429  106  388 
430  17   60  
431  80   259 
432  807  188 
433  860  191 
434  209  657 
435  785  188 
436  10   420 
437  779  135 
438  49   119 
439  208  292 
440  46   141 
441  772  114 
442  216  134 
443  394  320 
444  22   12  
445  226  602 
446  919  389 
447  745  663 
448  342  148 
449  973  378 
450  195  614 
451  826  179 
452  234  313 
453  538  50  
454  57   262 
455  98   263 
456  88   88  
457  720  197 
458  344  831 
459  52   174 
460  249  679 
461  244  335 
462  74   836 
463  110  264 
464  183  96  
465  933  417 
466  962  224 
467  23   214 
468  141  99  
469  20   227 
470  537  444 
471  210  49  
472  307  0   
473  827  948 
474  61   353 
475  6    328 
476  293  101 
477  942  367 
478  821  68  
479  220  364 
480  916  723 
481  238  845 
482  102  408 
483  172  296 
484  757  330 
485  282  842 
486  380  758 
487  247  921 
488  220  391 
489  217  978 
490  64   143 
491  545  178 
492  238  27  
493  800  139 
494  763  10  
495  158  16  
496  413  553 
497  160  196 
498  793  118 
499  895  147 
500  823  564 
501  290  73  
502  439  300 
503  94   125 
504  59   442 
505  694  925 
506  914  538 
507  781  274 
508  708  442 
509  962  349 
510  915  274 
511  327  741 
512  86   297 
513  606  440 
514  791  49  
515  947  324 
516  61   231 
517  8    225 
518  264  541 
519  128  141 
520  308  108 
521  851  356 
522  841  333 
523  118  356 
524  201  647 
525  14   137 
526  119  568 
527  248  551 
528  124  921 
529  750  142 
530  143  269 
531  105  32  
532  259  328 
533  342  106 
534  8    90  
535  121  385 
536  785  276 
537  27   103 
538  71   137 
539  97   665 
540  877  130 
541  776  981 
542  993  323 
543  361  375 
544  985  319 
545  816  263 
546  662  214 
547  119  204 
548  951  326 
549  96   50  
550  167  92  
551  206  181 
552  469  820 
553  837  322 
554  898  427 
555  690  123 
556  87   99  
557  33   128 
558  964  372 
559  227  231 
560  805  873 
561  414  750 
562  83   214 
563  587  165 
564  831  126 
565  856  210 
566  896  255 
567  155  666 
568  997  167 
569  252  818 
570  209  228 
571  172  807 
572  562  495 
573  818  192 
574  293  697 
575  837  443 
576  202  826 
577  379  886 
578  293  41  
579  263  37  
580  382  793 
581  493  917 
582  414  862 
583  42   307 
584  136  243 
585  16   187 
586  273  895 
587  801  386 
588  505  235 
589  142  183 
590  776  311 
591  788  276 
592  491  71  
593  985  314 
594  168  293 
595  55   254 
596  50   185 
597  251  184 
598  256  918 
599  905  946 
600  78   274 
601  476  958 
602  770  7   
603  567  560 
604  823  257 
605  869  224 
606  83   218 
607  29   247 
608  370  549 
609  132  92  
610  85   407 
611  476  149 
612  590  799 
613  658  296 
614  245  792 
615  810  183 
616  701  276 
617  273  872 
618  624  303 
619  915  385 
620  554  989 
621  433  223 
622  501  89  
623  82   136 
624  0    85  
625  989  261 
626  649  85  
627  69   184 
628  144  187 
629  462  97  
630  890  166 
631  99   45  
632  142  16  
633  928  421 
634  70   912 
635  137  584 
636  244  54  
637  60   382 
638  51   562 
639  825  185 
640  128  117 
641  991  873 
642  146  907 
643  151  82  
644  584  733 
645  769  141 
646  923  199 
647  86   120 
648  894  321 
649  88   157 
650  748  194 
651  826  769 
652  344  927 
653  862  215 
654  788  275 
655  14   890 
656  619  228 
657  737  211 
658  893  297 
659  109  508 
660  414  726 
661  788  122 
662  120  90  
663  25   118 
664  483  151 
665  45   334 
666  962  167 
667  149  144 
668  858  195 
669  890  264 
670  915  348 
671  612  72  
672  371  611 
673  106  209 
674  595  913 
675  823  103 
676  999  188 
677  692  940 
678  798  293 
679  106  294 
680  985  537 
681  56   46  
682  118  30  
683  556  796 
684  366  955 
685  969  705 
686  102  198 
687  372  297 
688  129  63  
689  47   271 
690  836  184 
691  767  817 
692  59   349 
693  145  263 
694  44   885 
695  491  689 
696  483  20  
697  841  631 
698  234  237 
699  951  283 
700  793  182 
701  555  957 
702  50   147 
703  518  917 
704  410  462 
705  777  94  
706  350  277 
707  815  120 
708  54   144 
709  794  430 
710  448  183 
711  412  764 
712  694  324 
713  139  349 
714  83   207 
715  32   134 
716  869  222 
717  986  380 
718  280  721 
719  368  187 
720  608  684 
721  435  585 
722  940  111 
723  519  755 
724  813  546 
725  84   19  
726  943  256 
727  445  388 
728  652  220 
729  166  744 
730  4    255 
731  954  512 
732  580  460 
733  73   763 
734  936  491 
735  989  506 
736  583  861 
737  171  953 
738  548  674 
739  455  721 
740  975  171 
741  210  386 
742  707  11  
743  613  93  
744  134  742 
745  785  196 
746  8    19  
747  75   445 
748  215  339 
749  750  345 
750  980  798 
751  881  20  
752  950  519 
753  885  170 
754  971  978 
755  47   602 
756  377  913 
757  355  346 
758  121  417 
759  49   172 
760  699  128 
761  187  133 
762  930  177 
763  37   36  
764  877  171 
765  463  55  
766  77   904 
767  823  218 
768  89   64  
769  412  983 
770  453  517 
771  601  352 
772  169  340 
773  70   78  
774  143  211 
775  11   1   
776  213  383 
777  83   17  
778  759  62  
779  53   165 
780  925  85  
781  887  229 
782  916  363 
783  271  482 
784  31   244 
785  144  121 
786  659  496 
787  249  323 
788  315  268 
789  132  183 
790  96   248 
791  753  103 
792  39   104 
793  988  900 
794  893  928 
795  496  874 
796  782  148 
797  797  722 
798  769  84  
799  859  377 
800  283  757 
801  309  895 
DEMAND_SECTION
1    0   
2    68  
3    36  
4    32  
5    1   
6    94  
7    9   
8    60  
9    27  
10   10  
11   61  
12   88  
13   30  
14   48  
15   47  
16   16  
17   26  
18   72  
19   32  
20   8   
21   15  
22   68  
23   28  
24   60  
25   36  
26   91  
27   62  
28   57  
29   40  
30   23  
31   3   
32   64  
33   72  
34   45  
35   52  
36   97  
37   43  
38   51  
39   5   
40   48  
41   88  
42   25  
43   66  
44   45  
45   31  
46   69  
47   77  
48   60  
49   50  
50   35  
51   38  
52   38  
53   85  
54   3   
55   98  
56   1   
57   87  
58   14  
59   14  
60   32  
61   28  
62   25  
63   32  
64   99  
65   38  
66   14  
67   17  
68   5   
69   49  
70   94  
71   5   
72   15  
73   66  
74   84  
75   73  
76   100 
77   55  
78   21  
79   66  
80   62  
81   26  
82   39  
83   49  
84   20  
85   77  
86   24  
87   73  
88   73  
89   4   
90   54  
91   5   
92   53  
93   11  
94   87  
95   85  
96   74  
97   77  
98   78  
99   22  
100  34  
101  22  
102  32  
103  95  
104  51  
105  76  
106  85  
107  3   
108  45  
109  41  
110  31  
111  77  
112  46  
113  88  
114  81  
115  22  
116  11  
117  83  
118  25  
119  15  
120  29  
121  75  
122  35  
123  78  
124  90  
125  2   
126  52  
127  58  
128  22  
129  77  
130  66  
131  86  
132  9   
133  28  
134  25  
135  47  
136  78  
137  84  
138  85  
139  53  
140  16  
141  15  
142  50  
143  27  
144  27  
145  33  
146  23  
147  44  
148  54  
149  77  
150  39  
151  52  
152  70  
153  35  
154  30  
155  56  
156  15  
157  38  
158  75  
159  52  
160  8   
161  12  
162  35  
163  69  
164  33  
165  38  
166  7   
167  81  
168  98  
169  42  
170  65  
171  51  
172  26  
173  35  
174  84  
175  36  
176  51  
177  80  
178  65  
179  9   
180  99  
181  37  
182  82  
183  60  
184  27  
185  12  
186  59  
187  33  
188  86  
189  7   
190  37  
191  26  
192  44  
193  25  
194  11  
195  25  
196  96  
197  57  
198  51  
199  84  
200  33  
201  88  
202  5   
203  86  
204  99  
205  90  
206  68  
207  28  
208  9   
209  7   
210  2   
211  82  
212  24  
213  38  
214  79  
215  11  
216  10  
217  86  
218  31  
219  9   
220  1   
221  90  
222  86  
223  57  
224  95  
225  54  
226  52  
227  95  
228  83  
229  4   
230  33  
231  70  
232  82  
233  82  
234  45  
235  6   
236  52  
237  37  
238  35  
239  82  
240  44  
241  93  
242  69  
243  3   
244  57  
245  3   
246  91  
247  68  
248  65  
249  59  
250  68  
251  92  
252  38  
253  87  
254  44  
255  32  
256  34  
257  55  
258  10  
259  78  
260  62  
261  35  
262  73  
263  34  
264  95  
265  24  
266  56  
267  5   
268  63  
269  51  
270  20  
271  98  
272  28  
273  41  
274  46  
275  47  
276  67  
277  41  
278  91  
279  47  
280  82  
281  5   
282  56  
283  55  
284  79  
285  46  
286  73  
287  98  
288  39  
289  57  
290  97  
291  96  
292  15  
293  51  
294  30  
295  68  
296  39  
297  98  
298  46  
299  31  
300  95  
301  56  
302  37  
303  4   
304  70  
305  5   
306  79  
307  63  
308  58  
309  61  
310  53  
311  76  
312  54  
313  6   
314  86  
315  90  
316  90  
317  19  
318  2   
319  79  
320  66  
321  89  
322  84  
323  31  
324  78  
325  43  
326  60  
327  59  
328  27  
329  13  
330  50  
331  2   
332  54  
333  18  
334  13  
335  84  
336  68  
337  88  
338  6   
339  39  
340  93  
341  22  
342  6   
343  18  
344  93  
345  44  
346  83  
347  4   
348  13  
349  51  
350  26  
351  81  
352  20  
353  6   
354  49  
355  47  
356  26  
357  81  
358  47  
359  82  
360  3   
361  8   
362  11  
363  65  
364  97  
365  32  
366  47  
367  54  
368  41  
369  38  
370  72  
371  57  
372  15  
373  93  
374  18  
375  19  
376  64  
377  10  
378  29  
379  70  
380  1   
381  51  
382  17  
383  41  
384  76  
385  56  
386  68  
387  75  
388  84  
389  50  
390  80  
391  53  
392  94  
393  73  
394  2   
395  54  
396  28  
397  30  
398  75  
399  14  
400  78  
401  17  
402  43  
403  67  
404  74  
405  36  
406  73  
407  52  
408  80  
409  77  
410  15  
411  36  
412  68  
413  61  
414  77  
415  19  
416  90  
417  82  
418  67  
419  77  
420  69  
421  24  
422  68  
423  19  
424  56  
425  94  
426  48  
427  84  
428  6   
429  57  
430  24  
431  75  
432  32  
433  23  
434  4   
435  41  
436  48  
437  81  
438  54  
439  86  
440  40  
441  35  
442  44  
443  79  
444  89  
445  99  
446  43  
447  46  
448  76  
449  58  
450  99  
451  64  
452  48  
453  17  
454  95  
455  78  
456  49  
457  28  
458  62  
459  54  
460  12  
461  36  
462  88  
463  54  
464  85  
465  79  
466  95  
467  6   
468  18  
469  52  
470  69  
471  38  
472  33  
473  28  
474  51  
475  32  
476  67  
477  82  
478  97  
479  11  
480  83  
481  90  
482  74  
483  60  
484  34  
485  82  
486  42  
487  18  
488  93  
489  93  
490  28  
491  88  
492  46  
493  59  
494  58  
495  23  
496  77  
497  66  
498  33  
499  57  
500  70  
501  36  
502  47  
503  22  
504  22  
505  90  
506  17  
507  83  
508  37  
509  26  
510  52  
511  66  
512  37  
513  49  
514  77  
515  10  
516  38  
517  22  
518  23  
519  86  
520  27  
521  47  
522  98  
523  50  
524  39  
525  80  
526  18  
527  52  
528  35  
529  43  
530  44  
531  46  
532  89  
533  50  
534  40  
535  37  
536  37  
537  20  
538  69  
539  8   
540  36  
541  77  
542  97  
543  54  
544  64  
545  100 
546  15  
547  54  
548  83  
549  97  
550  9   
551  78  
552  35  
553  12  
554  11  
555  18  
556  75  
557  60  
558  58  
559  37  
560  25  
561  45  
562  84  
563  67  
564  95  
565  41  
566  2   
567  4   
568  84  
569  87  
570  36  
571  31  
572  96  
573  50  
574  37  
575  8   
576  67  
577  81  
578  37  
579  48  
580  86  
581  8   
582  73  
583  48  
584  92  
585  15  
586  28  
587  82  
588  26  
589  7   
590  24  
591  41  
592  76  
593  64  
594  69  
595  79  
596  26  
597  82  
598  83  
599  76  
600  47  
601  93  
602  89  
603  30  
604  69  
605  21  
606  11  
607  47  
608  96  
609  75  
610  62  
611  11  
612  13  
613  57  
614  87  
615  10  
616  100 
617  58  
618  41  
619  32  
620  52  
621  10  
622  52  
623  98  
624  6   
625  39  
626  27  
627  38  
628  4   
629  72  
630  26  
631  52  
632  23  
633  82  
634  17  
635  78  
636  54  
637  39  
638  62  
639  29  
640  21  
641  20  
642  93  
643  63  
644  40  
645  97  
646  96  
647  35  
648  42  
649  67  
650  79  
651  53  
652  38  
653  62  
654  37  
655  37  
656  79  
657  80  
658  31  
659  91  
660  58  
661  73  
662  82  
663  3   
664  62  
665  43  
666  39  
667  94  
668  45  
669  95  
670  85  
671  11  
672  92  
673  38  
674  12  
675  22  
676  91  
677  42  
678  47  
679  12  
680  62  
681  41  
682  17  
683  23  
684  89  
685  65  
686  67  
687  56  
688  26  
689  3   
690  51  
691  94  
692  65  
693  92  
694  79  
695  57  
696  23  
697  89  
698  27  
699  28  
700  25  
701  98  
702  29  
703  46  
704  40  
705  31  
706  87  
707  33  
708  71  
709  16  
710  82  
711  30  
712  16  
713  64  
714  91  
715  61  
716  30  
717  19  
718  55  
719  82  
720  36  
721  97  
722  74  
723  93  
724  22  
725  19  
726  67  
727  30  
728  53  
729  79  
730  47  
731  38  
732  90  
733  53  
734  6   
735  5   
736  86  
737  44  
738  96  
739  58  
740  29  
741  42  
742  87  
743  58  
744  65  
745  66  
746  25  
747  36  
748  33  
749  95  
750  100 
751  32  
752  96  
753  52  
754  82  
755  73  
756  63  
757  99  
758  71  
759  98  
760  53  
761  14  
762  1   
763  96  
764  49  
765  50  
766  44  
767  90  
768  7   
769  20  
770  52  
771  99  
772  47  
773  97  
774  12  
775  53  
776  41  
777  27  
778  13  
779  67  
780  29  
781  65  
782  22  
783  14  
784  67  
785  42  
786  79  
787  22  
788  31  
789  55  
790  50  
791  27  
792  28  
793  48  
794  29  
795  39  
796  17  
797  55  
798  6   
799  67  
800  3   
801  8   
DEPOT_SECTION
1
-1
EOF
