NAME : XML800_2274_40
COMMENT : Generated as the XML100 dataset from the CVRPLIB
TYPE : CVRP
DIMENSION : 801
EDGE_WEIGHT_TYPE : EUC_2D
CAPACITY : 176
NODE_COORD_SECTION
1    500  500 
2    572  869 
3    768  515 
4    702  579 
5    725  544 
6    505  788 
7    568  835 
8    559  777 
9    995  157 
10   420  829 
11   551  782 
12   565  698 
13   946  130 
14   701  717 
15   790  529 
16   756  424 
17   592  810 
18   529  772 
19   663  861 
20   785  42  
21   770  569 
22   1000 128 
23   711  501 
24   791  619 
25   908  121 
26   793  836 
27   817  101 
28   746  486 
29   936  238 
30   736  930 
31   573  814 
32   728  837 
33   555  775 
34   917  206 
35   756  527 
36   623  891 
37   912  109 
38   726  495 
39   657  813 
40   956  143 
41   485  805 
42   1000 240 
43   841  481 
44   565  419 
45   976  130 
46   536  761 
47   629  422 
48   777  595 
49   597  875 
50   764  247 
51   759  52  
52   545  855 
53   915  156 
54   676  786 
55   734  480 
56   990  177 
57   842  589 
58   895  177 
59   829  241 
60   989  50  
61   542  831 
62   972  128 
63   983  128 
64   652  712 
65   916  236 
66   538  699 
67   458  828 
68   900  139 
69   607  789 
70   651  585 
71   571  476 
72   816  554 
73   448  634 
74   953  123 
75   496  720 
76   714  781 
77   624  878 
78   772  475 
79   863  257 
80   743  924 
81   758  558 
82   954  204 
83   972  249 
84   762  528 
85   825  477 
86   389  868 
87   903  149 
88   932  194 
89   651  715 
90   978  417 
91   645  555 
92   913  208 
93   560  844 
94   779  882 
95   600  651 
96   709  576 
97   574  778 
98   512  803 
99   893  95  
100  637  407 
101  876  33  
102  593  895 
103  656  39  
104  662  73  
105  933  149 
106  741  464 
107  979  265 
108  701  675 
109  694  550 
110  666  479 
111  741  482 
112  480  298 
113  794  494 
114  579  996 
115  567  842 
116  833  583 
117  889  255 
118  593  769 
119  970  63  
120  412  846 
121  619  632 
122  744  901 
123  687  794 
124  610  520 
125  607  923 
126  624  576 
127  565  786 
128  767  503 
129  568  541 
130  624  603 
131  658  843 
132  832  888 
133  696  726 
134  995  119 
135  517  733 
136  656  928 
137  408  826 
138  786  601 
139  965  124 
140  962  189 
141  697  947 
142  778  517 
143  942  238 
144  669  628 
145  608  725 
146  560  825 
147  563  821 
148  936  200 
149  897  181 
150  796  40  
151  930  129 
152  564  795 
153  977  210 
154  464  717 
155  888  141 
156  676  627 
157  767  507 
158  768  472 
159  902  134 
160  737  466 
161  566  337 
162  796  561 
163  865  14  
164  590  941 
165  671  786 
166  997  133 
167  694  522 
168  776  439 
169  866  76  
170  698  358 
171  588  644 
172  578  859 
173  645  760 
174  995  226 
175  698  623 
176  633  804 
177  567  688 
178  729  619 
179  894  198 
180  952  139 
181  819  540 
182  808  503 
183  771  365 
184  504  766 
185  980  219 
186  763  608 
187  755  604 
188  556  831 
189  471  863 
190  927  487 
191  999  88  
192  823  268 
193  656  518 
194  585  705 
195  957  91  
196  936  145 
197  942  48  
198  731  548 
199  867  63  
200  801  603 
201  959  146 
202  852  20  
203  689  560 
204  687  590 
205  742  535 
206  773  550 
207  894  193 
208  605  557 
209  899  122 
210  710  610 
211  611  878 
212  825  569 
213  735  514 
214  654  678 
215  700  556 
216  726  474 
217  746  541 
218  997  123 
219  855  466 
220  681  817 
221  820  81  
222  637  890 
223  757  806 
224  758  771 
225  768  565 
226  761  669 
227  701  493 
228  936  158 
229  888  72  
230  745  590 
231  689  537 
232  773  518 
233  686  611 
234  959  141 
235  646  813 
236  881  51  
237  588  890 
238  563  815 
239  494  279 
240  529  813 
241  701  529 
242  857  111 
243  691  335 
244  667  881 
245  608  804 
246  962  142 
247  809  565 
248  933  115 
249  806  587 
250  870  562 
251  471  853 
252  669  590 
253  644  753 
254  768  569 
255  782  467 
256  932  146 
257  722  700 
258  798  430 
259  683  592 
260  782  485 
261  730  533 
262  712  497 
263  554  725 
264  797  870 
265  608  705 
266  709  757 
267  400  923 
268  557  888 
269  893  456 
270  900  77  
271  555  717 
272  902  105 
273  948  648 
274  656  876 
275  790  174 
276  870  54  
277  897  673 
278  869  602 
279  677  679 
280  544  805 
281  955  278 
282  550  458 
283  611  715 
284  665  933 
285  597  826 
286  586  789 
287  937  89  
288  636  637 
289  998  105 
290  717  333 
291  952  236 
292  553  868 
293  689  509 
294  557  371 
295  663  618 
296  610  890 
297  758  599 
298  643  798 
299  743  736 
300  962  258 
301  741  537 
302  827  70  
303  834  118 
304  880  225 
305  438  860 
306  958  144 
307  926  210 
308  561  853 
309  951  123 
310  660  832 
311  752  817 
312  460  816 
313  926  475 
314  634  941 
315  571  912 
316  959  243 
317  392  919 
318  961  42  
319  799  510 
320  911  32  
321  964  187 
322  671  599 
323  842  499 
324  588  830 
325  698  562 
326  864  356 
327  570  803 
328  861  94  
329  459  972 
330  720  500 
331  769  640 
332  751  744 
333  946  156 
334  535  967 
335  585  797 
336  692  932 
337  593  819 
338  868  520 
339  877  587 
340  997  94  
341  569  690 
342  455  714 
343  654  258 
344  458  850 
345  945  74  
346  719  476 
347  543  845 
348  830  84  
349  558  815 
350  677  763 
351  726  539 
352  576  860 
353  482  816 
354  477  472 
355  635  528 
356  526  621 
357  643  779 
358  815  458 
359  454  852 
360  505  836 
361  934  168 
362  620  884 
363  749  540 
364  682  877 
365  921  67  
366  771  537 
367  642  414 
368  602  854 
369  901  256 
370  793  592 
371  611  664 
372  956  61  
373  714  695 
374  545  737 
375  818  267 
376  948  206 
377  535  809 
378  758  472 
379  861  219 
380  960  189 
381  954  365 
382  469  854 
383  572  876 
384  590  735 
385  967  66  
386  622  804 
387  972  181 
388  779  531 
389  910  206 
390  884  315 
391  910  224 
392  832  286 
393  889  12  
394  526  854 
395  932  611 
396  828  670 
397  987  178 
398  721  455 
399  627  775 
400  454  865 
401  729  804 
402  753  496 
403  880  448 
404  478  804 
405  556  751 
406  584  831 
407  685  645 
408  528  414 
409  819  307 
410  759  832 
411  887  87  
412  625  832 
413  543  799 
414  654  886 
415  810  258 
416  642  930 
417  744  523 
418  805  390 
419  914  315 
420  559  743 
421  995  550 
422  745  277 
423  463  964 
424  615  903 
425  577  809 
426  568  828 
427  593  912 
428  687  690 
429  738  336 
430  706  560 
431  794  682 
432  682  602 
433  956  186 
434  686  801 
435  977  138 
436  610  708 
437  761  504 
438  696  860 
439  633  822 
440  752  532 
441  927  155 
442  814  861 
443  865  189 
444  994  181 
445  678  829 
446  661  758 
447  910  169 
448  528  503 
449  799  490 
450  748  781 
451  737  506 
452  781  540 
453  979  30  
454  545  830 
455  631  781 
456  710  516 
457  577  880 
458  444  536 
459  911  533 
460  540  769 
461  613  601 
462  938  141 
463  663  696 
464  971  156 
465  775  519 
466  659  582 
467  321  852 
468  927  244 
469  632  726 
470  619  756 
471  623  915 
472  752  648 
473  766  555 
474  519  934 
475  825  223 
476  795  469 
477  950  492 
478  687  527 
479  538  813 
480  447  802 
481  830  167 
482  770  781 
483  861  145 
484  753  481 
485  562  770 
486  531  801 
487  754  464 
488  774  531 
489  668  797 
490  894  206 
491  471  768 
492  500  813 
493  546  929 
494  497  924 
495  623  636 
496  742  575 
497  882  231 
498  965  113 
499  772  701 
500  490  875 
501  992  228 
502  798  610 
503  764  468 
504  948  954 
505  403  498 
506  676  495 
507  608  867 
508  734  198 
509  900  221 
510  870  607 
511  684  615 
512  527  533 
513  918  135 
514  967  149 
515  327  853 
516  598  840 
517  976  225 
518  785  932 
519  666  566 
520  688  752 
521  707  765 
522  928  157 
523  624  569 
524  633  825 
525  826  573 
526  508  812 
527  519  812 
528  781  669 
529  575  811 
530  630  756 
531  675  242 
532  611  486 
533  652  524 
534  522  823 
535  568  790 
536  564  838 
537  717  504 
538  873  123 
539  592  500 
540  802  81  
541  939  217 
542  727  563 
543  853  949 
544  932  168 
545  884  137 
546  811  543 
547  789  632 
548  590  822 
549  536  851 
550  626  754 
551  669  886 
552  726  603 
553  940  145 
554  743  534 
555  647  566 
556  943  61  
557  741  582 
558  942  334 
559  963  128 
560  936  22  
561  654  852 
562  773  571 
563  669  733 
564  685  458 
565  741  609 
566  857  146 
567  505  747 
568  886  191 
569  985  161 
570  543  859 
571  562  872 
572  680  855 
573  726  733 
574  493  620 
575  328  952 
576  500  668 
577  700  186 
578  830  561 
579  836  455 
580  941  230 
581  515  805 
582  837  676 
583  766  396 
584  844  572 
585  629  507 
586  517  842 
587  804  508 
588  465  813 
589  543  760 
590  820  632 
591  887  533 
592  779  204 
593  884  644 
594  952  132 
595  892  984 
596  944  128 
597  894  447 
598  614  640 
599  708  418 
600  958  849 
601  913  42  
602  922  109 
603  992  195 
604  987  98  
605  562  867 
606  625  905 
607  978  516 
608  500  663 
609  871  161 
610  705  394 
611  630  867 
612  956  214 
613  499  783 
614  814  566 
615  753  699 
616  702  901 
617  710  576 
618  715  416 
619  666  789 
620  954  42  
621  861  619 
622  536  859 
623  946  178 
624  706  871 
625  588  897 
626  618  767 
627  563  404 
628  779  446 
629  651  526 
630  744  488 
631  881  94  
632  616  815 
633  762  631 
634  734  560 
635  962  149 
636  686  510 
637  928  937 
638  998  117 
639  767  602 
640  564  917 
641  734  425 
642  803  506 
643  754  412 
644  900  466 
645  838  482 
646  560  803 
647  630  462 
648  922  234 
649  557  868 
650  713  478 
651  892  480 
652  451  905 
653  792  542 
654  742  523 
655  559  447 
656  685  672 
657  793  623 
658  981  167 
659  585  823 
660  668  848 
661  677  915 
662  606  635 
663  765  533 
664  727  516 
665  812  465 
666  487  934 
667  544  812 
668  836  157 
669  617  793 
670  465  906 
671  582  915 
672  901  143 
673  919  48  
674  472  829 
675  696  546 
676  707  457 
677  499  755 
678  741  706 
679  776  673 
680  809  194 
681  689  516 
682  777  638 
683  813  66  
684  584  997 
685  812  577 
686  968  187 
687  870  191 
688  580  865 
689  734  932 
690  895  611 
691  852  250 
692  873  44  
693  754  254 
694  555  948 
695  710  593 
696  541  784 
697  922  732 
698  639  789 
699  662  665 
700  602  889 
701  649  991 
702  597  801 
703  760  688 
704  841  258 
705  765  528 
706  924  274 
707  580  739 
708  605  823 
709  728  637 
710  551  950 
711  769  117 
712  814  497 
713  748  570 
714  616  661 
715  568  877 
716  881  443 
717  697  762 
718  900  694 
719  656  590 
720  880  218 
721  749  552 
722  686  841 
723  557  629 
724  681  912 
725  615  799 
726  745  411 
727  594  776 
728  794  542 
729  418  956 
730  552  761 
731  783  145 
732  757  483 
733  605  782 
734  753  540 
735  970  120 
736  719  636 
737  704  922 
738  738  497 
739  841  500 
740  464  550 
741  578  773 
742  638  824 
743  671  583 
744  582  505 
745  851  550 
746  738  780 
747  825  659 
748  930  56  
749  835  462 
750  820  562 
751  740  453 
752  789  593 
753  618  464 
754  809  660 
755  741  516 
756  902  232 
757  642  830 
758  473  881 
759  349  824 
760  914  215 
761  911  326 
762  878  112 
763  598  881 
764  703  934 
765  687  837 
766  606  849 
767  953  53  
768  691  798 
769  870  46  
770  649  563 
771  748  533 
772  953  309 
773  620  774 
774  862  527 
775  899  198 
776  711  803 
777  841  513 
778  524  806 
779  586  790 
780  610  855 
781  978  91  
782  672  659 
783  939  258 
784  766  586 
785  624  920 
786  773  482 
787  994  63  
788  943  228 
789  991  48  
790  513  760 
791  785  474 
792  730  538 
793  768  641 
794  622  685 
795  884  178 
796  708  599 
797  542  823 
798  590  881 
799  792  598 
800  1000 398 
801  928  211 
DEMAND_SECTION
1    0   
2    2   
3    6   
4    10  
5    8   
6    63  
7    2   
8    57  
9    80  
10   8   
11   4   
12   9   
13   8   
14   7   
15   10  
16   8   
17   7   
18   9   
19   2   
20   1   
21   5   
22   6   
23   89  
24   7   
25   6   
26   5   
27   9   
28   9   
29   6   
30   5   
31   9   
32   8   
33   4   
34   10  
35   7   
36   7   
37   5   
38   1   
39   1   
40   8   
41   6   
42   82  
43   2   
44   2   
45   6   
46   4   
47   3   
48   4   
49   7   
50   3   
51   2   
52   3   
53   3   
54   70  
55   10  
56   2   
57   10  
58   7   
59   3   
60   6   
61   2   
62   1   
63   10  
64   7   
65   9   
66   10  
67   8   
68   9   
69   10  
70   8   
71   2   
72   7   
73   10  
74   8   
75   4   
76   8   
77   10  
78   5   
79   1   
80   50  
81   4   
82   7   
83   10  
84   4   
85   4   
86   4   
87   6   
88   8   
89   10  
90   7   
91   2   
92   3   
93   6   
94   2   
95   1   
96   76  
97   9   
98   5   
99   6   
100  1   
101  6   
102  9   
103  9   
104  8   
105  8   
106  9   
107  6   
108  8   
109  9   
110  4   
111  5   
112  6   
113  1   
114  5   
115  9   
116  6   
117  5   
118  4   
119  10  
120  4   
121  8   
122  54  
123  2   
124  9   
125  8   
126  2   
127  3   
128  6   
129  2   
130  10  
131  8   
132  5   
133  9   
134  10  
135  8   
136  71  
137  8   
138  3   
139  1   
140  8   
141  75  
142  10  
143  4   
144  5   
145  1   
146  2   
147  6   
148  7   
149  5   
150  53  
151  1   
152  5   
153  6   
154  5   
155  10  
156  3   
157  3   
158  60  
159  3   
160  7   
161  91  
162  2   
163  6   
164  10  
165  64  
166  7   
167  3   
168  3   
169  3   
170  1   
171  5   
172  1   
173  10  
174  6   
175  55  
176  6   
177  1   
178  2   
179  58  
180  2   
181  5   
182  4   
183  4   
184  7   
185  6   
186  4   
187  6   
188  2   
189  4   
190  1   
191  4   
192  4   
193  7   
194  6   
195  1   
196  10  
197  9   
198  4   
199  5   
200  4   
201  6   
202  8   
203  2   
204  67  
205  2   
206  6   
207  1   
208  8   
209  10  
210  76  
211  8   
212  4   
213  4   
214  10  
215  9   
216  10  
217  8   
218  5   
219  7   
220  3   
221  3   
222  3   
223  1   
224  4   
225  57  
226  9   
227  1   
228  8   
229  6   
230  8   
231  7   
232  6   
233  6   
234  3   
235  9   
236  7   
237  8   
238  60  
239  6   
240  5   
241  1   
242  4   
243  7   
244  3   
245  7   
246  7   
247  10  
248  5   
249  7   
250  7   
251  9   
252  2   
253  7   
254  1   
255  8   
256  1   
257  2   
258  6   
259  7   
260  10  
261  10  
262  1   
263  8   
264  2   
265  10  
266  9   
267  99  
268  1   
269  95  
270  10  
271  9   
272  10  
273  9   
274  1   
275  9   
276  7   
277  7   
278  3   
279  9   
280  5   
281  5   
282  2   
283  3   
284  3   
285  1   
286  1   
287  8   
288  2   
289  5   
290  10  
291  75  
292  3   
293  6   
294  2   
295  4   
296  3   
297  2   
298  1   
299  2   
300  1   
301  9   
302  6   
303  3   
304  4   
305  9   
306  1   
307  6   
308  3   
309  8   
310  1   
311  1   
312  1   
313  9   
314  4   
315  10  
316  9   
317  2   
318  2   
319  10  
320  69  
321  8   
322  8   
323  2   
324  65  
325  2   
326  3   
327  5   
328  98  
329  8   
330  2   
331  10  
332  3   
333  6   
334  4   
335  2   
336  4   
337  3   
338  52  
339  2   
340  96  
341  10  
342  7   
343  4   
344  2   
345  1   
346  6   
347  4   
348  7   
349  8   
350  4   
351  6   
352  7   
353  2   
354  9   
355  2   
356  9   
357  7   
358  7   
359  72  
360  5   
361  8   
362  1   
363  3   
364  1   
365  2   
366  4   
367  2   
368  7   
369  2   
370  6   
371  69  
372  66  
373  2   
374  4   
375  10  
376  8   
377  2   
378  6   
379  8   
380  9   
381  86  
382  3   
383  8   
384  6   
385  8   
386  2   
387  84  
388  10  
389  8   
390  10  
391  3   
392  7   
393  4   
394  8   
395  1   
396  2   
397  10  
398  6   
399  1   
400  4   
401  10  
402  2   
403  8   
404  57  
405  6   
406  10  
407  9   
408  6   
409  7   
410  3   
411  8   
412  6   
413  8   
414  8   
415  3   
416  2   
417  5   
418  10  
419  6   
420  3   
421  7   
422  5   
423  4   
424  7   
425  1   
426  3   
427  1   
428  1   
429  7   
430  4   
431  1   
432  4   
433  6   
434  8   
435  1   
436  10  
437  3   
438  9   
439  10  
440  1   
441  4   
442  8   
443  6   
444  3   
445  10  
446  1   
447  6   
448  2   
449  3   
450  87  
451  3   
452  8   
453  3   
454  1   
455  9   
456  1   
457  4   
458  4   
459  73  
460  1   
461  10  
462  4   
463  7   
464  2   
465  7   
466  4   
467  1   
468  9   
469  6   
470  5   
471  10  
472  9   
473  61  
474  10  
475  4   
476  4   
477  7   
478  9   
479  10  
480  73  
481  10  
482  6   
483  2   
484  5   
485  9   
486  6   
487  9   
488  79  
489  53  
490  6   
491  4   
492  83  
493  6   
494  66  
495  9   
496  65  
497  6   
498  5   
499  10  
500  4   
501  4   
502  9   
503  64  
504  70  
505  73  
506  4   
507  3   
508  10  
509  6   
510  60  
511  5   
512  2   
513  1   
514  2   
515  5   
516  2   
517  9   
518  2   
519  7   
520  10  
521  9   
522  5   
523  6   
524  97  
525  1   
526  6   
527  89  
528  1   
529  6   
530  5   
531  2   
532  3   
533  3   
534  9   
535  6   
536  8   
537  5   
538  6   
539  7   
540  1   
541  3   
542  8   
543  8   
544  10  
545  4   
546  10  
547  10  
548  2   
549  9   
550  7   
551  76  
552  92  
553  9   
554  3   
555  5   
556  8   
557  2   
558  6   
559  8   
560  1   
561  9   
562  10  
563  10  
564  55  
565  3   
566  9   
567  62  
568  9   
569  6   
570  81  
571  1   
572  100 
573  6   
574  3   
575  7   
576  10  
577  7   
578  6   
579  5   
580  2   
581  9   
582  1   
583  50  
584  5   
585  10  
586  8   
587  7   
588  8   
589  1   
590  7   
591  1   
592  7   
593  4   
594  9   
595  2   
596  63  
597  7   
598  50  
599  8   
600  4   
601  3   
602  2   
603  10  
604  51  
605  1   
606  4   
607  3   
608  91  
609  4   
610  2   
611  3   
612  9   
613  10  
614  3   
615  5   
616  10  
617  2   
618  69  
619  70  
620  2   
621  7   
622  1   
623  8   
624  10  
625  6   
626  1   
627  6   
628  73  
629  1   
630  6   
631  4   
632  4   
633  5   
634  6   
635  9   
636  8   
637  5   
638  7   
639  6   
640  68  
641  5   
642  1   
643  10  
644  6   
645  56  
646  10  
647  87  
648  5   
649  9   
650  8   
651  6   
652  8   
653  98  
654  73  
655  2   
656  6   
657  10  
658  3   
659  6   
660  3   
661  8   
662  5   
663  10  
664  9   
665  10  
666  8   
667  62  
668  3   
669  3   
670  52  
671  2   
672  3   
673  7   
674  4   
675  10  
676  2   
677  6   
678  3   
679  86  
680  10  
681  2   
682  4   
683  74  
684  10  
685  4   
686  2   
687  1   
688  8   
689  5   
690  2   
691  4   
692  2   
693  74  
694  5   
695  4   
696  2   
697  5   
698  5   
699  7   
700  1   
701  4   
702  4   
703  1   
704  1   
705  75  
706  1   
707  1   
708  9   
709  3   
710  2   
711  8   
712  2   
713  2   
714  6   
715  9   
716  3   
717  1   
718  1   
719  1   
720  7   
721  5   
722  5   
723  96  
724  5   
725  3   
726  5   
727  10  
728  5   
729  4   
730  7   
731  3   
732  54  
733  8   
734  9   
735  9   
736  2   
737  52  
738  72  
739  8   
740  9   
741  7   
742  66  
743  6   
744  1   
745  3   
746  6   
747  5   
748  1   
749  2   
750  2   
751  7   
752  8   
753  8   
754  5   
755  2   
756  5   
757  2   
758  10  
759  9   
760  2   
761  4   
762  3   
763  10  
764  4   
765  10  
766  10  
767  4   
768  2   
769  1   
770  3   
771  3   
772  10  
773  7   
774  10  
775  1   
776  5   
777  4   
778  7   
779  75  
780  93  
781  5   
782  1   
783  7   
784  10  
785  9   
786  9   
787  9   
788  1   
789  4   
790  94  
791  9   
792  10  
793  7   
794  9   
795  3   
796  6   
797  7   
798  10  
799  6   
800  1   
801  6   
DEPOT_SECTION
1
-1
EOF
