NAME : XML800_1242_48
COMMENT : Generated as the XML100 dataset from the CVRPLIB
TYPE : CVRP
DIMENSION : 801
EDGE_WEIGHT_TYPE : EUC_2D
CAPACITY : 263
NODE_COORD_SECTION
1    269  683 
2    612  249 
3    453  512 
4    655  894 
5    742  871 
6    521  912 
7    404  336 
8    482  813 
9    788  856 
10   546  160 
11   562  931 
12   544  239 
13   616  911 
14   472  229 
15   700  901 
16   437  271 
17   783  777 
18   466  405 
19   464  243 
20   486  392 
21   724  947 
22   508  160 
23   379  275 
24   513  373 
25   485  302 
26   772  862 
27   779  910 
28   733  952 
29   735  971 
30   540  875 
31   766  949 
32   912  774 
33   493  153 
34   486  266 
35   718  927 
36   698  958 
37   646  920 
38   569  947 
39   604  923 
40   573  679 
41   742  875 
42   303  428 
43   699  904 
44   653  370 
45   639  899 
46   616  906 
47   456  261 
48   626  938 
49   492  291 
50   732  928 
51   683  169 
52   533  63  
53   627  781 
54   439  303 
55   696  871 
56   631  909 
57   891  710 
58   593  397 
59   635  879 
60   692  757 
61   431  307 
62   411  249 
63   740  824 
64   659  171 
65   450  177 
66   474  296 
67   776  854 
68   596  896 
69   777  828 
70   587  847 
71   507  311 
72   564  464 
73   728  944 
74   487  351 
75   367  44  
76   475  889 
77   690  935 
78   696  866 
79   525  737 
80   602  859 
81   540  371 
82   499  181 
83   770  824 
84   559  888 
85   634  235 
86   817  994 
87   493  772 
88   694  914 
89   729  881 
90   725  929 
91   557  289 
92   712  828 
93   737  912 
94   735  979 
95   570  982 
96   470  150 
97   704  982 
98   642  998 
99   636  838 
100  751  914 
101  496  288 
102  744  798 
103  691  881 
104  725  794 
105  525  867 
106  500  267 
107  471  240 
108  666  964 
109  483  870 
110  767  876 
111  586  864 
112  795  956 
113  532  326 
114  719  332 
115  83   271 
116  610  273 
117  484  862 
118  747  836 
119  721  936 
120  742  968 
121  525  970 
122  733  919 
123  834  831 
124  807  966 
125  640  938 
126  786  754 
127  454  290 
128  651  813 
129  475  340 
130  538  289 
131  623  894 
132  595  167 
133  584  921 
134  676  906 
135  624  868 
136  624  877 
137  759  931 
138  710  737 
139  381  323 
140  549  127 
141  418  220 
142  470  648 
143  849  815 
144  666  959 
145  798  877 
146  623  988 
147  461  270 
148  520  594 
149  702  909 
150  644  800 
151  755  924 
152  649  915 
153  482  222 
154  539  891 
155  761  967 
156  241  294 
157  660  772 
158  553  282 
159  754  937 
160  536  885 
161  754  946 
162  766  911 
163  466  897 
164  698  911 
165  613  934 
166  899  662 
167  466  762 
168  473  383 
169  771  891 
170  405  276 
171  479  463 
172  772  954 
173  644  292 
174  239  890 
175  365  212 
176  612  974 
177  973  715 
178  638  892 
179  595  921 
180  510  316 
181  513  312 
182  650  210 
183  715  846 
184  671  898 
185  702  913 
186  674  903 
187  800  890 
188  546  894 
189  472  716 
190  714  896 
191  655  828 
192  766  915 
193  549  252 
194  767  978 
195  483  990 
196  798  337 
197  439  157 
198  716  923 
199  560  932 
200  467  237 
201  673  723 
202  643  948 
203  677  959 
204  535  866 
205  520  966 
206  768  979 
207  428  227 
208  516  358 
209  621  789 
210  628  837 
211  982  768 
212  647  936 
213  791  971 
214  541  927 
215  633  772 
216  732  894 
217  655  958 
218  492  266 
219  618  918 
220  604  745 
221  753  935 
222  493  249 
223  658  972 
224  460  310 
225  840  958 
226  554  762 
227  506  267 
228  761  566 
229  592  883 
230  809  979 
231  749  848 
232  711  983 
233  633  893 
234  562  186 
235  584  888 
236  639  833 
237  642  969 
238  704  791 
239  504  873 
240  740  893 
241  824  963 
242  701  920 
243  725  850 
244  696  814 
245  816  879 
246  613  389 
247  698  851 
248  468  169 
249  553  923 
250  288  211 
251  851  864 
252  700  942 
253  782  993 
254  503  257 
255  502  301 
256  659  779 
257  627  845 
258  423  920 
259  392  435 
260  566  987 
261  390  334 
262  489  215 
263  602  937 
264  563  918 
265  716  922 
266  464  140 
267  331  266 
268  772  692 
269  566  834 
270  587  875 
271  702  871 
272  748  838 
273  605  929 
274  562  958 
275  688  945 
276  616  938 
277  678  266 
278  568  907 
279  426  814 
280  628  921 
281  546  214 
282  651  932 
283  632  891 
284  640  913 
285  432  219 
286  423  250 
287  515  900 
288  641  976 
289  393  911 
290  590  903 
291  498  173 
292  679  850 
293  847  843 
294  795  805 
295  567  291 
296  438  406 
297  516  972 
298  632  927 
299  651  788 
300  876  897 
301  602  923 
302  680  833 
303  611  962 
304  562  203 
305  603  976 
306  509  313 
307  497  824 
308  731  762 
309  616  924 
310  777  887 
311  657  723 
312  836  954 
313  577  941 
314  650  931 
315  435  210 
316  752  826 
317  684  304 
318  503  103 
319  668  863 
320  634  959 
321  383  294 
322  557  986 
323  627  920 
324  612  931 
325  658  898 
326  431  352 
327  575  235 
328  510  264 
329  538  106 
330  438  257 
331  423  366 
332  470  865 
333  436  296 
334  744  839 
335  742  906 
336  545  212 
337  914  860 
338  733  848 
339  498  954 
340  444  318 
341  786  674 
342  591  993 
343  517  824 
344  769  887 
345  689  778 
346  506  229 
347  630  939 
348  557  878 
349  574  293 
350  710  837 
351  475  287 
352  672  792 
353  745  925 
354  588  969 
355  779  936 
356  662  262 
357  570  286 
358  588  987 
359  397  224 
360  719  903 
361  758  733 
362  474  309 
363  755  835 
364  292  418 
365  743  870 
366  720  877 
367  732  842 
368  529  919 
369  549  986 
370  508  222 
371  879  641 
372  449  499 
373  462  191 
374  656  987 
375  589  897 
376  753  910 
377  513  282 
378  472  250 
379  403  141 
380  606  339 
381  691  944 
382  447  175 
383  345  136 
384  466  444 
385  504  974 
386  627  398 
387  700  104 
388  630  305 
389  739  877 
390  476  247 
391  343  221 
392  394  168 
393  430  387 
394  482  308 
395  482  317 
396  573  664 
397  526  351 
398  621  988 
399  684  797 
400  722  900 
401  729  948 
402  472  389 
403  616  900 
404  544  246 
405  590  371 
406  626  968 
407  488  360 
408  591  345 
409  566  926 
410  630  929 
411  743  986 
412  678  978 
413  541  335 
414  533  987 
415  535  310 
416  398  286 
417  661  925 
418  599  941 
419  602  885 
420  737  664 
421  443  303 
422  453  249 
423  588  959 
424  744  959 
425  354  383 
426  255  121 
427  393  311 
428  702  819 
429  612  260 
430  527  939 
431  425  263 
432  742  873 
433  729  287 
434  868  860 
435  459  274 
436  707  915 
437  561  959 
438  534  862 
439  418  251 
440  565  938 
441  394  293 
442  687  784 
443  873  938 
444  434  213 
445  665  881 
446  768  903 
447  599  945 
448  561  424 
449  410  273 
450  526  314 
451  799  890 
452  560  227 
453  783  873 
454  745  919 
455  503  321 
456  695  900 
457  582  892 
458  486  915 
459  576  818 
460  915  949 
461  811  873 
462  761  854 
463  661  776 
464  401  319 
465  680  902 
466  614  966 
467  501  909 
468  375  693 
469  584  120 
470  574  902 
471  376  91  
472  515  160 
473  657  918 
474  497  399 
475  655  985 
476  798  903 
477  691  929 
478  776  964 
479  450  723 
480  615  781 
481  381  187 
482  802  873 
483  673  862 
484  834  816 
485  962  745 
486  715  886 
487  746  703 
488  302  299 
489  696  882 
490  718  879 
491  583  178 
492  674  961 
493  646  890 
494  440  367 
495  534  331 
496  963  844 
497  627  895 
498  490  871 
499  335  112 
500  695  931 
501  552  217 
502  565  245 
503  604  740 
504  672  893 
505  554  919 
506  742  710 
507  307  651 
508  856  979 
509  725  895 
510  501  284 
511  812  634 
512  734  971 
513  330  411 
514  324  340 
515  674  938 
516  852  963 
517  561  917 
518  464  347 
519  527  268 
520  436  248 
521  742  858 
522  643  974 
523  753  867 
524  607  889 
525  607  898 
526  838  938 
527  582  823 
528  564  973 
529  716  823 
530  564  317 
531  743  786 
532  925  826 
533  595  295 
534  473  269 
535  571  850 
536  680  766 
537  734  984 
538  455  248 
539  465  194 
540  640  949 
541  596  870 
542  350  311 
543  503  315 
544  860  809 
545  488  272 
546  459  901 
547  622  788 
548  396  445 
549  863  734 
550  443  148 
551  877  916 
552  511  273 
553  649  890 
554  732  668 
555  306  151 
556  559  844 
557  595  272 
558  545  689 
559  514  293 
560  443  251 
561  482  251 
562  464  957 
563  628  961 
564  741  838 
565  438  172 
566  709  815 
567  620  966 
568  412  281 
569  730  856 
570  484  962 
571  487  293 
572  453  291 
573  582  939 
574  731  928 
575  633  932 
576  889  858 
577  472  170 
578  637  893 
579  668  908 
580  362  963 
581  660  904 
582  697  953 
583  477  257 
584  483  188 
585  765  660 
586  764  970 
587  804  926 
588  526  909 
589  456  319 
590  807  940 
591  648  776 
592  525  306 
593  665  856 
594  691  994 
595  474  242 
596  778  873 
597  484  274 
598  452  303 
599  585  842 
600  639  822 
601  578  308 
602  513  853 
603  644  909 
604  419  809 
605  598  951 
606  505  342 
607  660  881 
608  282  175 
609  741  451 
610  479  869 
611  502  178 
612  629  219 
613  699  872 
614  764  938 
615  583  926 
616  612  306 
617  692  851 
618  750  783 
619  513  291 
620  313  931 
621  518  406 
622  671  886 
623  672  473 
624  536  841 
625  553  921 
626  434  830 
627  636  946 
628  473  263 
629  532  160 
630  748  715 
631  460  339 
632  455  233 
633  601  943 
634  486  876 
635  213  300 
636  481  352 
637  441  981 
638  613  935 
639  578  312 
640  460  186 
641  853  916 
642  602  288 
643  547  819 
644  689  912 
645  697  934 
646  810  802 
647  472  169 
648  546  118 
649  457  269 
650  583  921 
651  398  192 
652  420  378 
653  549  123 
654  457  287 
655  468  135 
656  661  840 
657  843  835 
658  523  726 
659  545  912 
660  577  944 
661  331  165 
662  581  862 
663  747  885 
664  574  975 
665  389  283 
666  790  837 
667  566  980 
668  593  845 
669  487  278 
670  414  968 
671  497  319 
672  591  255 
673  389  386 
674  465  277 
675  469  238 
676  693  657 
677  707  713 
678  505  188 
679  816  867 
680  754  883 
681  718  817 
682  422  446 
683  771  990 
684  549  221 
685  552  784 
686  601  924 
687  484  259 
688  601  933 
689  464  290 
690  825  799 
691  807  763 
692  458  368 
693  733  963 
694  813  843 
695  602  907 
696  768  939 
697  516  309 
698  876  890 
699  545  116 
700  547  800 
701  648  864 
702  762  886 
703  658  896 
704  718  947 
705  552  887 
706  529  275 
707  550  307 
708  400  399 
709  541  249 
710  859  913 
711  361  300 
712  534  893 
713  790  971 
714  348  864 
715  203  873 
716  675  841 
717  554  969 
718  534  246 
719  514  277 
720  829  908 
721  530  868 
722  710  835 
723  479  139 
724  615  826 
725  791  643 
726  532  410 
727  590  918 
728  677  923 
729  699  834 
730  793  689 
731  628  792 
732  719  910 
733  563  254 
734  446  245 
735  654  939 
736  565  852 
737  635  935 
738  709  884 
739  655  913 
740  382  80  
741  341  317 
742  585  943 
743  699  928 
744  576  885 
745  533  249 
746  771  962 
747  703  907 
748  689  115 
749  494  257 
750  491  270 
751  589  940 
752  466  860 
753  601  249 
754  421  291 
755  495  240 
756  677  882 
757  505  272 
758  667  859 
759  727  910 
760  613  888 
761  587  997 
762  802  922 
763  629  347 
764  614  871 
765  583  209 
766  662  929 
767  505  546 
768  689  883 
769  486  276 
770  819  840 
771  730  902 
772  710  933 
773  538  323 
774  509  287 
775  792  895 
776  566  394 
777  776  878 
778  641  833 
779  544  226 
780  639  244 
781  544  244 
782  789  835 
783  483  234 
784  699  941 
785  700  906 
786  527  331 
787  809  911 
788  508  336 
789  920  918 
790  638  940 
791  681  920 
792  686  422 
793  632  878 
794  576  974 
795  530  440 
796  921  999 
797  578  925 
798  705  966 
799  580  288 
800  345  165 
801  767  779 
DEMAND_SECTION
1    0   
2    29  
3    82  
4    9   
5    30  
6    4   
7    23  
8    45  
9    45  
10   66  
11   13  
12   14  
13   44  
14   43  
15   65  
16   44  
17   9   
18   80  
19   21  
20   29  
21   1   
22   55  
23   92  
24   50  
25   27  
26   27  
27   19  
28   36  
29   3   
30   88  
31   61  
32   94  
33   97  
34   13  
35   57  
36   11  
37   71  
38   90  
39   10  
40   65  
41   62  
42   52  
43   79  
44   67  
45   42  
46   89  
47   21  
48   100 
49   59  
50   75  
51   69  
52   81  
53   11  
54   97  
55   31  
56   81  
57   37  
58   68  
59   29  
60   100 
61   60  
62   87  
63   32  
64   17  
65   50  
66   93  
67   95  
68   83  
69   47  
70   3   
71   1   
72   87  
73   59  
74   40  
75   61  
76   42  
77   4   
78   90  
79   37  
80   37  
81   62  
82   69  
83   14  
84   31  
85   83  
86   10  
87   14  
88   53  
89   54  
90   98  
91   8   
92   83  
93   30  
94   33  
95   11  
96   39  
97   28  
98   82  
99   21  
100  43  
101  66  
102  12  
103  18  
104  80  
105  20  
106  91  
107  17  
108  22  
109  56  
110  23  
111  66  
112  38  
113  83  
114  92  
115  62  
116  79  
117  54  
118  11  
119  7   
120  84  
121  18  
122  95  
123  88  
124  78  
125  86  
126  75  
127  71  
128  1   
129  14  
130  73  
131  61  
132  32  
133  5   
134  3   
135  28  
136  52  
137  4   
138  39  
139  20  
140  66  
141  16  
142  98  
143  74  
144  68  
145  93  
146  27  
147  92  
148  65  
149  61  
150  77  
151  28  
152  55  
153  60  
154  60  
155  3   
156  64  
157  56  
158  80  
159  34  
160  33  
161  70  
162  66  
163  76  
164  97  
165  83  
166  68  
167  96  
168  49  
169  42  
170  18  
171  55  
172  30  
173  85  
174  43  
175  95  
176  39  
177  18  
178  17  
179  87  
180  93  
181  20  
182  58  
183  32  
184  42  
185  39  
186  92  
187  63  
188  94  
189  8   
190  79  
191  98  
192  1   
193  74  
194  35  
195  67  
196  68  
197  76  
198  17  
199  28  
200  97  
201  69  
202  11  
203  95  
204  68  
205  91  
206  18  
207  90  
208  7   
209  17  
210  16  
211  13  
212  1   
213  22  
214  84  
215  39  
216  63  
217  79  
218  22  
219  2   
220  88  
221  97  
222  44  
223  70  
224  80  
225  24  
226  88  
227  33  
228  7   
229  1   
230  88  
231  84  
232  48  
233  85  
234  21  
235  17  
236  88  
237  91  
238  65  
239  26  
240  94  
241  9   
242  41  
243  100 
244  47  
245  51  
246  88  
247  16  
248  7   
249  39  
250  100 
251  86  
252  1   
253  24  
254  1   
255  10  
256  70  
257  5   
258  10  
259  55  
260  92  
261  52  
262  77  
263  67  
264  30  
265  64  
266  99  
267  74  
268  94  
269  2   
270  55  
271  90  
272  68  
273  16  
274  30  
275  38  
276  9   
277  10  
278  88  
279  12  
280  58  
281  44  
282  33  
283  80  
284  53  
285  18  
286  46  
287  28  
288  59  
289  47  
290  25  
291  6   
292  79  
293  14  
294  17  
295  64  
296  72  
297  77  
298  24  
299  38  
300  19  
301  97  
302  90  
303  30  
304  56  
305  36  
306  54  
307  8   
308  99  
309  74  
310  58  
311  45  
312  58  
313  3   
314  6   
315  92  
316  38  
317  14  
318  52  
319  70  
320  49  
321  22  
322  86  
323  45  
324  69  
325  24  
326  69  
327  16  
328  81  
329  44  
330  69  
331  18  
332  77  
333  28  
334  52  
335  28  
336  69  
337  11  
338  95  
339  1   
340  12  
341  17  
342  29  
343  75  
344  7   
345  59  
346  40  
347  59  
348  63  
349  91  
350  26  
351  86  
352  45  
353  15  
354  61  
355  69  
356  10  
357  18  
358  64  
359  10  
360  99  
361  27  
362  62  
363  54  
364  52  
365  52  
366  11  
367  86  
368  8   
369  4   
370  55  
371  1   
372  96  
373  6   
374  100 
375  19  
376  16  
377  99  
378  11  
379  10  
380  47  
381  13  
382  64  
383  44  
384  57  
385  89  
386  36  
387  20  
388  22  
389  65  
390  51  
391  43  
392  35  
393  4   
394  40  
395  45  
396  9   
397  52  
398  11  
399  74  
400  11  
401  53  
402  71  
403  78  
404  80  
405  82  
406  49  
407  6   
408  92  
409  83  
410  9   
411  24  
412  19  
413  42  
414  84  
415  93  
416  40  
417  96  
418  25  
419  68  
420  80  
421  32  
422  94  
423  28  
424  96  
425  48  
426  83  
427  95  
428  61  
429  60  
430  37  
431  44  
432  10  
433  76  
434  42  
435  35  
436  22  
437  59  
438  22  
439  18  
440  82  
441  93  
442  74  
443  58  
444  51  
445  56  
446  59  
447  80  
448  7   
449  88  
450  62  
451  20  
452  62  
453  16  
454  27  
455  100 
456  63  
457  6   
458  72  
459  48  
460  78  
461  65  
462  65  
463  61  
464  8   
465  64  
466  31  
467  41  
468  46  
469  84  
470  2   
471  86  
472  59  
473  10  
474  19  
475  9   
476  54  
477  76  
478  74  
479  40  
480  59  
481  2   
482  63  
483  37  
484  60  
485  80  
486  32  
487  92  
488  54  
489  93  
490  27  
491  66  
492  31  
493  71  
494  91  
495  15  
496  72  
497  22  
498  50  
499  46  
500  37  
501  57  
502  2   
503  57  
504  16  
505  25  
506  23  
507  39  
508  46  
509  29  
510  84  
511  3   
512  45  
513  97  
514  8   
515  68  
516  47  
517  32  
518  15  
519  79  
520  68  
521  13  
522  60  
523  37  
524  60  
525  25  
526  9   
527  96  
528  80  
529  58  
530  95  
531  42  
532  80  
533  40  
534  97  
535  30  
536  90  
537  16  
538  8   
539  81  
540  9   
541  47  
542  44  
543  83  
544  47  
545  26  
546  57  
547  32  
548  25  
549  20  
550  33  
551  55  
552  33  
553  13  
554  57  
555  87  
556  18  
557  93  
558  77  
559  17  
560  45  
561  77  
562  80  
563  36  
564  33  
565  46  
566  27  
567  7   
568  33  
569  59  
570  76  
571  87  
572  100 
573  5   
574  26  
575  2   
576  18  
577  61  
578  92  
579  97  
580  48  
581  19  
582  84  
583  10  
584  43  
585  6   
586  28  
587  74  
588  46  
589  21  
590  78  
591  67  
592  46  
593  26  
594  15  
595  59  
596  78  
597  30  
598  98  
599  94  
600  99  
601  16  
602  92  
603  60  
604  99  
605  8   
606  5   
607  76  
608  58  
609  39  
610  79  
611  43  
612  60  
613  77  
614  72  
615  85  
616  91  
617  11  
618  41  
619  63  
620  9   
621  93  
622  88  
623  63  
624  24  
625  55  
626  37  
627  68  
628  93  
629  49  
630  52  
631  16  
632  91  
633  94  
634  17  
635  32  
636  23  
637  19  
638  6   
639  40  
640  22  
641  96  
642  1   
643  91  
644  16  
645  54  
646  9   
647  44  
648  94  
649  75  
650  85  
651  30  
652  86  
653  61  
654  69  
655  98  
656  100 
657  91  
658  95  
659  88  
660  82  
661  36  
662  99  
663  81  
664  59  
665  37  
666  95  
667  23  
668  76  
669  73  
670  95  
671  10  
672  14  
673  70  
674  94  
675  55  
676  94  
677  43  
678  31  
679  31  
680  5   
681  90  
682  76  
683  32  
684  80  
685  84  
686  36  
687  46  
688  100 
689  47  
690  4   
691  54  
692  47  
693  99  
694  66  
695  7   
696  47  
697  30  
698  4   
699  30  
700  15  
701  33  
702  84  
703  97  
704  53  
705  5   
706  38  
707  50  
708  62  
709  14  
710  73  
711  92  
712  67  
713  43  
714  56  
715  52  
716  25  
717  84  
718  68  
719  6   
720  23  
721  59  
722  68  
723  53  
724  34  
725  96  
726  32  
727  57  
728  93  
729  77  
730  41  
731  24  
732  54  
733  84  
734  92  
735  29  
736  95  
737  25  
738  53  
739  52  
740  16  
741  59  
742  45  
743  34  
744  96  
745  34  
746  99  
747  19  
748  71  
749  45  
750  88  
751  60  
752  72  
753  31  
754  21  
755  37  
756  76  
757  50  
758  88  
759  59  
760  55  
761  21  
762  57  
763  41  
764  32  
765  59  
766  47  
767  41  
768  89  
769  47  
770  9   
771  18  
772  16  
773  95  
774  23  
775  86  
776  34  
777  79  
778  21  
779  22  
780  55  
781  16  
782  41  
783  4   
784  94  
785  45  
786  13  
787  45  
788  23  
789  82  
790  92  
791  11  
792  55  
793  96  
794  29  
795  64  
796  44  
797  24  
798  100 
799  20  
800  55  
801  95  
DEPOT_SECTION
1
-1
EOF
