NAME : XML800_2125_42
COMMENT : Generated as the XML100 dataset from the CVRPLIB
TYPE : CVRP
DIMENSION : 801
EDGE_WEIGHT_TYPE : EUC_2D
CAPACITY : 117
NODE_COORD_SECTION
1    500  500 
2    463  535 
3    120  312 
4    544  630 
5    787  110 
6    466  967 
7    794  6   
8    433  125 
9    875  250 
10   367  436 
11   82   285 
12   421  416 
13   785  213 
14   254  397 
15   422  399 
16   273  657 
17   23   235 
18   533  733 
19   555  919 
20   822  845 
21   586  906 
22   293  95  
23   680  541 
24   800  457 
25   296  933 
26   768  7   
27   571  872 
28   935  502 
29   66   727 
30   325  84  
31   954  97  
32   747  460 
33   759  425 
34   973  632 
35   132  263 
36   644  694 
37   103  376 
38   928  462 
39   549  313 
40   164  224 
41   301  248 
42   905  991 
43   370  994 
44   910  450 
45   683  569 
46   176  720 
47   837  865 
48   868  453 
49   137  899 
50   235  540 
51   506  607 
52   898  979 
53   910  59  
54   910  962 
55   133  358 
56   551  871 
57   70   418 
58   201  282 
59   302  59  
60   139  32  
61   587  308 
62   302  733 
63   965  934 
64   385  600 
65   522  355 
66   586  83  
67   101  432 
68   86   947 
69   988  917 
70   316  506 
71   610  822 
72   418  383 
73   982  712 
74   459  909 
75   248  42  
76   771  897 
77   200  160 
78   553  189 
79   825  230 
80   39   224 
81   718  113 
82   447  562 
83   695  776 
84   315  882 
85   144  771 
86   705  924 
87   14   423 
88   882  638 
89   589  987 
90   652  936 
91   816  940 
92   584  414 
93   118  718 
94   582  206 
95   746  296 
96   441  752 
97   906  443 
98   627  232 
99   491  191 
100  47   312 
101  455  125 
102  103  213 
103  426  754 
104  217  333 
105  115  47  
106  343  329 
107  492  537 
108  727  440 
109  877  119 
110  18   370 
111  802  214 
112  648  546 
113  535  764 
114  440  99  
115  168  732 
116  401  931 
117  144  384 
118  592  233 
119  393  689 
120  7    873 
121  43   54  
122  431  288 
123  40   403 
124  769  967 
125  195  426 
126  957  901 
127  537  324 
128  416  25  
129  151  508 
130  224  340 
131  11   623 
132  123  675 
133  926  523 
134  921  426 
135  271  192 
136  129  690 
137  131  935 
138  143  6   
139  936  573 
140  887  433 
141  910  17  
142  936  582 
143  50   965 
144  602  148 
145  641  228 
146  222  653 
147  317  6   
148  331  569 
149  219  666 
150  680  494 
151  279  150 
152  526  683 
153  464  470 
154  257  796 
155  106  496 
156  612  615 
157  828  755 
158  401  926 
159  255  76  
160  25   764 
161  575  166 
162  485  111 
163  94   607 
164  967  690 
165  940  700 
166  68   981 
167  809  616 
168  57   325 
169  437  219 
170  392  315 
171  810  163 
172  939  713 
173  644  121 
174  721  243 
175  635  994 
176  942  489 
177  598  163 
178  188  683 
179  543  493 
180  39   56  
181  972  746 
182  756  475 
183  735  919 
184  51   39  
185  566  732 
186  303  996 
187  423  674 
188  149  53  
189  144  841 
190  849  922 
191  477  147 
192  890  164 
193  515  915 
194  708  663 
195  507  17  
196  904  736 
197  871  559 
198  719  16  
199  993  414 
200  420  781 
201  300  69  
202  743  904 
203  6    903 
204  268  18  
205  946  976 
206  672  206 
207  633  534 
208  720  264 
209  651  12  
210  655  302 
211  911  88  
212  188  260 
213  572  542 
214  850  468 
215  829  683 
216  647  554 
217  528  197 
218  395  180 
219  447  645 
220  697  649 
221  624  161 
222  995  315 
223  111  668 
224  956  104 
225  55   907 
226  692  979 
227  415  414 
228  418  358 
229  126  976 
230  214  15  
231  784  424 
232  309  51  
233  445  549 
234  536  578 
235  959  770 
236  802  158 
237  759  107 
238  543  739 
239  742  283 
240  691  964 
241  167  488 
242  689  802 
243  194  185 
244  403  197 
245  688  586 
246  316  705 
247  46   692 
248  585  430 
249  476  285 
250  581  51  
251  898  14  
252  569  494 
253  651  155 
254  811  912 
255  633  744 
256  338  180 
257  228  457 
258  955  386 
259  189  209 
260  396  697 
261  848  31  
262  373  933 
263  936  153 
264  46   584 
265  141  565 
266  874  150 
267  794  981 
268  126  674 
269  560  387 
270  974  673 
271  954  695 
272  564  110 
273  293  293 
274  12   42  
275  4    941 
276  36   646 
277  736  481 
278  356  498 
279  792  391 
280  691  159 
281  390  985 
282  435  242 
283  940  909 
284  582  270 
285  781  98  
286  118  562 
287  633  510 
288  366  395 
289  221  404 
290  722  268 
291  538  596 
292  71   316 
293  796  226 
294  862  827 
295  633  110 
296  205  176 
297  645  84  
298  560  373 
299  426  144 
300  2    890 
301  853  360 
302  999  185 
303  222  902 
304  58   809 
305  858  75  
306  87   961 
307  335  281 
308  502  129 
309  780  3   
310  996  948 
311  202  929 
312  956  583 
313  970  630 
314  510  902 
315  993  403 
316  179  6   
317  588  839 
318  134  767 
319  927  314 
320  120  841 
321  600  157 
322  91   60  
323  331  786 
324  570  421 
325  316  663 
326  661  688 
327  891  476 
328  67   224 
329  89   462 
330  401  487 
331  517  680 
332  876  213 
333  148  935 
334  366  102 
335  463  53  
336  869  839 
337  570  942 
338  163  277 
339  598  762 
340  150  999 
341  752  439 
342  255  634 
343  604  949 
344  190  159 
345  981  280 
346  259  506 
347  308  380 
348  518  873 
349  135  717 
350  907  559 
351  433  667 
352  930  152 
353  697  615 
354  507  207 
355  186  310 
356  921  103 
357  334  145 
358  677  655 
359  234  732 
360  122  374 
361  727  503 
362  198  391 
363  954  118 
364  568  577 
365  139  314 
366  354  150 
367  132  37  
368  580  313 
369  666  645 
370  155  188 
371  965  789 
372  661  548 
373  191  370 
374  519  702 
375  179  225 
376  852  610 
377  105  196 
378  675  559 
379  720  472 
380  727  606 
381  141  765 
382  833  367 
383  758  602 
384  691  283 
385  965  672 
386  480  585 
387  752  528 
388  790  554 
389  585  787 
390  4    903 
391  495  893 
392  649  542 
393  399  31  
394  930  174 
395  609  744 
396  475  97  
397  318  290 
398  663  315 
399  112  203 
400  809  796 
401  832  672 
402  152  248 
403  108  825 
404  598  325 
405  375  195 
406  550  285 
407  295  184 
408  560  326 
409  566  647 
410  479  490 
411  379  412 
412  651  215 
413  631  386 
414  724  675 
415  141  360 
416  483  249 
417  245  597 
418  152  369 
419  429  943 
420  202  635 
421  748  678 
422  117  30  
423  855  386 
424  273  924 
425  827  315 
426  213  263 
427  755  784 
428  978  447 
429  440  116 
430  727  475 
431  138  736 
432  838  571 
433  578  504 
434  339  896 
435  744  774 
436  662  494 
437  87   788 
438  193  671 
439  872  560 
440  792  460 
441  140  772 
442  835  13  
443  912  614 
444  494  626 
445  794  259 
446  596  265 
447  325  436 
448  352  789 
449  839  904 
450  131  988 
451  795  739 
452  503  460 
453  437  97  
454  629  536 
455  235  151 
456  155  784 
457  762  809 
458  234  946 
459  227  394 
460  342  619 
461  465  442 
462  366  985 
463  376  639 
464  311  393 
465  53   534 
466  275  80  
467  957  913 
468  130  754 
469  952  426 
470  662  80  
471  474  774 
472  154  931 
473  247  512 
474  928  59  
475  386  670 
476  202  333 
477  721  422 
478  893  376 
479  361  88  
480  712  938 
481  606  966 
482  948  568 
483  656  558 
484  726  128 
485  560  581 
486  720  295 
487  764  91  
488  370  173 
489  930  779 
490  739  821 
491  169  183 
492  323  915 
493  956  688 
494  130  448 
495  251  756 
496  311  532 
497  326  759 
498  561  814 
499  711  493 
500  262  765 
501  94   534 
502  986  51  
503  431  933 
504  743  809 
505  289  611 
506  259  369 
507  853  186 
508  171  247 
509  657  787 
510  372  484 
511  220  130 
512  563  213 
513  981  866 
514  848  840 
515  995  773 
516  288  94  
517  51   568 
518  471  862 
519  319  90  
520  738  568 
521  580  131 
522  526  587 
523  935  844 
524  489  934 
525  885  605 
526  596  740 
527  67   387 
528  726  599 
529  64   223 
530  611  383 
531  835  286 
532  206  990 
533  952  542 
534  367  517 
535  740  762 
536  47   179 
537  236  442 
538  494  966 
539  767  734 
540  192  939 
541  850  530 
542  285  245 
543  246  263 
544  246  501 
545  466  931 
546  988  729 
547  985  831 
548  313  182 
549  616  192 
550  933  137 
551  677  297 
552  484  558 
553  19   458 
554  558  614 
555  146  41  
556  750  546 
557  45   376 
558  337  148 
559  934  376 
560  204  787 
561  612  96  
562  19   67  
563  493  908 
564  35   420 
565  282  944 
566  344  937 
567  553  275 
568  472  723 
569  304  492 
570  914  937 
571  641  760 
572  56   506 
573  358  72  
574  165  4   
575  709  415 
576  558  353 
577  97   534 
578  307  591 
579  292  239 
580  482  381 
581  948  553 
582  938  341 
583  343  797 
584  384  569 
585  645  524 
586  755  732 
587  232  691 
588  875  321 
589  1000 581 
590  175  593 
591  993  969 
592  161  658 
593  63   123 
594  714  233 
595  885  222 
596  326  326 
597  536  864 
598  650  50  
599  949  862 
600  986  948 
601  798  321 
602  150  29  
603  182  717 
604  794  616 
605  85   119 
606  690  787 
607  652  770 
608  294  140 
609  3    760 
610  635  52  
611  242  615 
612  11   871 
613  756  180 
614  1000 958 
615  112  267 
616  736  372 
617  347  835 
618  384  317 
619  434  156 
620  978  143 
621  724  245 
622  447  611 
623  77   147 
624  57   178 
625  568  272 
626  681  945 
627  758  890 
628  650  45  
629  578  932 
630  338  969 
631  756  966 
632  421  576 
633  416  659 
634  417  862 
635  617  560 
636  948  251 
637  586  554 
638  428  871 
639  425  884 
640  252  547 
641  695  52  
642  867  6   
643  901  813 
644  156  192 
645  441  581 
646  877  892 
647  878  442 
648  196  503 
649  253  619 
650  812  744 
651  661  822 
652  3    346 
653  187  27  
654  177  898 
655  618  232 
656  812  97  
657  664  348 
658  376  61  
659  311  736 
660  591  781 
661  577  41  
662  863  584 
663  760  846 
664  592  853 
665  784  776 
666  646  833 
667  346  303 
668  275  23  
669  740  760 
670  453  438 
671  164  573 
672  393  918 
673  994  860 
674  129  472 
675  953  971 
676  909  416 
677  34   311 
678  346  150 
679  72   575 
680  825  175 
681  832  461 
682  705  595 
683  674  778 
684  940  525 
685  895  108 
686  974  401 
687  358  654 
688  719  129 
689  248  364 
690  947  411 
691  745  416 
692  683  859 
693  53   36  
694  562  331 
695  839  51  
696  826  130 
697  714  38  
698  139  57  
699  307  715 
700  797  719 
701  828  557 
702  765  519 
703  611  699 
704  744  972 
705  940  655 
706  420  750 
707  936  276 
708  502  801 
709  398  1000
710  838  369 
711  890  398 
712  711  148 
713  612  273 
714  810  554 
715  248  265 
716  585  930 
717  18   724 
718  965  168 
719  56   162 
720  742  239 
721  609  402 
722  174  56  
723  131  85  
724  648  720 
725  156  29  
726  770  90  
727  756  686 
728  698  852 
729  983  966 
730  324  107 
731  973  135 
732  66   913 
733  958  811 
734  149  929 
735  866  408 
736  36   643 
737  723  774 
738  978  231 
739  101  205 
740  725  60  
741  610  586 
742  131  871 
743  844  8   
744  588  985 
745  340  78  
746  537  345 
747  515  506 
748  118  550 
749  396  15  
750  301  519 
751  131  745 
752  660  717 
753  420  201 
754  536  394 
755  533  496 
756  926  836 
757  797  435 
758  232  675 
759  683  440 
760  873  946 
761  775  523 
762  316  912 
763  564  358 
764  570  679 
765  484  487 
766  83   570 
767  436  172 
768  92   390 
769  577  538 
770  20   114 
771  839  315 
772  21   604 
773  606  867 
774  803  630 
775  717  60  
776  573  186 
777  981  664 
778  915  301 
779  654  269 
780  801  944 
781  678  199 
782  575  879 
783  401  336 
784  119  83  
785  190  561 
786  965  149 
787  629  450 
788  342  39  
789  907  296 
790  894  363 
791  831  185 
792  382  93  
793  944  71  
794  439  66  
795  698  186 
796  326  543 
797  514  752 
798  240  274 
799  31   518 
800  279  458 
801  846  834 
DEMAND_SECTION
1    0   
2    7   
3    10  
4    4   
5    1   
6    6   
7    8   
8    7   
9    4   
10   6   
11   8   
12   1   
13   4   
14   6   
15   9   
16   7   
17   2   
18   5   
19   5   
20   2   
21   2   
22   3   
23   2   
24   8   
25   1   
26   8   
27   4   
28   5   
29   6   
30   2   
31   7   
32   7   
33   2   
34   1   
35   8   
36   3   
37   5   
38   4   
39   3   
40   7   
41   8   
42   8   
43   5   
44   1   
45   7   
46   4   
47   6   
48   6   
49   10  
50   8   
51   4   
52   2   
53   4   
54   8   
55   6   
56   8   
57   7   
58   2   
59   1   
60   7   
61   10  
62   4   
63   10  
64   7   
65   4   
66   7   
67   2   
68   4   
69   8   
70   4   
71   6   
72   3   
73   3   
74   1   
75   5   
76   5   
77   8   
78   5   
79   3   
80   9   
81   9   
82   8   
83   2   
84   1   
85   7   
86   3   
87   6   
88   5   
89   1   
90   1   
91   9   
92   3   
93   6   
94   7   
95   4   
96   6   
97   3   
98   8   
99   5   
100  8   
101  6   
102  6   
103  6   
104  4   
105  10  
106  8   
107  6   
108  7   
109  4   
110  5   
111  1   
112  6   
113  4   
114  4   
115  6   
116  8   
117  4   
118  8   
119  7   
120  9   
121  10  
122  3   
123  1   
124  10  
125  10  
126  5   
127  6   
128  1   
129  4   
130  5   
131  6   
132  5   
133  8   
134  9   
135  9   
136  4   
137  1   
138  7   
139  1   
140  5   
141  1   
142  8   
143  7   
144  8   
145  8   
146  4   
147  3   
148  6   
149  8   
150  10  
151  3   
152  1   
153  9   
154  10  
155  5   
156  7   
157  10  
158  4   
159  1   
160  8   
161  6   
162  6   
163  1   
164  4   
165  9   
166  4   
167  5   
168  8   
169  2   
170  1   
171  2   
172  7   
173  1   
174  8   
175  2   
176  9   
177  9   
178  5   
179  8   
180  2   
181  2   
182  3   
183  8   
184  4   
185  5   
186  6   
187  2   
188  5   
189  2   
190  4   
191  8   
192  7   
193  4   
194  4   
195  1   
196  1   
197  8   
198  3   
199  7   
200  4   
201  3   
202  6   
203  5   
204  1   
205  2   
206  4   
207  2   
208  4   
209  10  
210  9   
211  7   
212  2   
213  7   
214  7   
215  4   
216  8   
217  3   
218  8   
219  9   
220  7   
221  6   
222  2   
223  8   
224  8   
225  5   
226  6   
227  2   
228  5   
229  9   
230  2   
231  1   
232  6   
233  1   
234  4   
235  2   
236  4   
237  2   
238  4   
239  5   
240  4   
241  10  
242  10  
243  6   
244  9   
245  1   
246  1   
247  7   
248  9   
249  5   
250  8   
251  1   
252  2   
253  1   
254  8   
255  6   
256  6   
257  3   
258  2   
259  3   
260  5   
261  3   
262  7   
263  7   
264  9   
265  5   
266  3   
267  2   
268  10  
269  9   
270  9   
271  7   
272  9   
273  3   
274  9   
275  5   
276  2   
277  2   
278  9   
279  2   
280  6   
281  9   
282  7   
283  1   
284  4   
285  7   
286  5   
287  10  
288  1   
289  2   
290  5   
291  9   
292  9   
293  4   
294  9   
295  3   
296  4   
297  10  
298  3   
299  3   
300  8   
301  10  
302  5   
303  8   
304  2   
305  10  
306  6   
307  2   
308  10  
309  8   
310  6   
311  2   
312  7   
313  4   
314  10  
315  7   
316  1   
317  4   
318  8   
319  4   
320  4   
321  7   
322  10  
323  1   
324  1   
325  5   
326  7   
327  9   
328  7   
329  4   
330  8   
331  7   
332  3   
333  10  
334  10  
335  7   
336  9   
337  8   
338  9   
339  5   
340  2   
341  2   
342  2   
343  10  
344  1   
345  1   
346  3   
347  6   
348  5   
349  8   
350  2   
351  10  
352  9   
353  4   
354  9   
355  3   
356  2   
357  7   
358  5   
359  9   
360  4   
361  3   
362  1   
363  7   
364  2   
365  8   
366  8   
367  3   
368  4   
369  8   
370  7   
371  6   
372  6   
373  6   
374  5   
375  5   
376  10  
377  7   
378  5   
379  10  
380  1   
381  10  
382  1   
383  1   
384  4   
385  4   
386  3   
387  5   
388  2   
389  8   
390  7   
391  3   
392  9   
393  3   
394  7   
395  3   
396  4   
397  2   
398  1   
399  9   
400  3   
401  9   
402  10  
403  4   
404  2   
405  1   
406  3   
407  5   
408  8   
409  7   
410  8   
411  10  
412  8   
413  8   
414  3   
415  6   
416  8   
417  8   
418  7   
419  8   
420  6   
421  1   
422  5   
423  9   
424  3   
425  9   
426  10  
427  9   
428  3   
429  2   
430  6   
431  8   
432  1   
433  4   
434  5   
435  4   
436  7   
437  4   
438  1   
439  3   
440  2   
441  1   
442  2   
443  1   
444  2   
445  9   
446  1   
447  1   
448  4   
449  1   
450  5   
451  9   
452  4   
453  7   
454  4   
455  8   
456  2   
457  7   
458  10  
459  8   
460  3   
461  6   
462  9   
463  1   
464  7   
465  7   
466  4   
467  9   
468  10  
469  9   
470  10  
471  4   
472  7   
473  6   
474  6   
475  3   
476  8   
477  9   
478  9   
479  5   
480  5   
481  7   
482  7   
483  6   
484  2   
485  8   
486  7   
487  1   
488  8   
489  10  
490  8   
491  5   
492  9   
493  6   
494  5   
495  9   
496  1   
497  2   
498  8   
499  7   
500  2   
501  8   
502  10  
503  7   
504  10  
505  2   
506  2   
507  7   
508  1   
509  3   
510  2   
511  8   
512  8   
513  3   
514  6   
515  1   
516  4   
517  6   
518  6   
519  3   
520  6   
521  2   
522  8   
523  2   
524  4   
525  10  
526  10  
527  4   
528  9   
529  1   
530  10  
531  9   
532  10  
533  2   
534  1   
535  3   
536  9   
537  2   
538  9   
539  7   
540  8   
541  9   
542  9   
543  2   
544  5   
545  3   
546  8   
547  8   
548  5   
549  6   
550  1   
551  9   
552  7   
553  4   
554  7   
555  6   
556  3   
557  8   
558  7   
559  7   
560  5   
561  3   
562  3   
563  6   
564  9   
565  8   
566  8   
567  9   
568  4   
569  2   
570  2   
571  1   
572  7   
573  4   
574  6   
575  3   
576  7   
577  1   
578  10  
579  9   
580  8   
581  9   
582  7   
583  5   
584  3   
585  4   
586  3   
587  5   
588  1   
589  1   
590  10  
591  5   
592  4   
593  6   
594  6   
595  3   
596  4   
597  10  
598  6   
599  6   
600  6   
601  6   
602  2   
603  2   
604  7   
605  4   
606  1   
607  4   
608  10  
609  5   
610  3   
611  8   
612  6   
613  2   
614  10  
615  4   
616  2   
617  7   
618  7   
619  9   
620  7   
621  7   
622  6   
623  2   
624  5   
625  5   
626  4   
627  3   
628  7   
629  6   
630  2   
631  10  
632  1   
633  3   
634  8   
635  3   
636  7   
637  5   
638  8   
639  8   
640  10  
641  9   
642  3   
643  5   
644  4   
645  6   
646  8   
647  8   
648  8   
649  5   
650  4   
651  8   
652  4   
653  9   
654  4   
655  8   
656  1   
657  5   
658  8   
659  10  
660  9   
661  5   
662  1   
663  2   
664  10  
665  5   
666  8   
667  2   
668  9   
669  9   
670  3   
671  8   
672  8   
673  9   
674  5   
675  3   
676  6   
677  4   
678  10  
679  7   
680  3   
681  8   
682  10  
683  2   
684  9   
685  8   
686  9   
687  8   
688  2   
689  3   
690  8   
691  7   
692  10  
693  5   
694  1   
695  4   
696  4   
697  4   
698  5   
699  10  
700  4   
701  8   
702  8   
703  8   
704  2   
705  10  
706  1   
707  4   
708  6   
709  5   
710  8   
711  7   
712  4   
713  8   
714  4   
715  2   
716  6   
717  4   
718  3   
719  10  
720  3   
721  9   
722  4   
723  9   
724  10  
725  7   
726  8   
727  3   
728  7   
729  2   
730  9   
731  2   
732  4   
733  8   
734  2   
735  6   
736  10  
737  6   
738  9   
739  5   
740  6   
741  4   
742  3   
743  10  
744  5   
745  3   
746  5   
747  1   
748  5   
749  4   
750  8   
751  5   
752  6   
753  2   
754  3   
755  7   
756  10  
757  2   
758  5   
759  5   
760  3   
761  3   
762  7   
763  3   
764  7   
765  1   
766  4   
767  5   
768  7   
769  1   
770  7   
771  2   
772  2   
773  6   
774  6   
775  1   
776  5   
777  3   
778  10  
779  2   
780  8   
781  5   
782  2   
783  3   
784  10  
785  10  
786  2   
787  7   
788  5   
789  8   
790  7   
791  4   
792  6   
793  4   
794  4   
795  5   
796  4   
797  4   
798  10  
799  3   
800  6   
801  7   
DEPOT_SECTION
1
-1
EOF
