NAME : XML800_1174_47
COMMENT : Generated as the XML100 dataset from the CVRPLIB
TYPE : CVRP
DIMENSION : 801
EDGE_WEIGHT_TYPE : EUC_2D
CAPACITY : 187
NODE_COORD_SECTION
1    983  547 
2    369  769 
3    493  158 
4    239  641 
5    918  719 
6    478  29  
7    352  51  
8    88   109 
9    898  472 
10   632  96  
11   687  935 
12   335  367 
13   177  28  
14   888  705 
15   995  413 
16   981  753 
17   771  278 
18   662  488 
19   209  26  
20   485  28  
21   652  205 
22   492  979 
23   490  771 
24   356  453 
25   775  931 
26   833  207 
27   210  744 
28   222  718 
29   255  514 
30   657  121 
31   616  129 
32   843  19  
33   975  803 
34   500  848 
35   812  696 
36   649  153 
37   3    536 
38   313  204 
39   591  468 
40   79   940 
41   579  85  
42   308  107 
43   653  788 
44   280  930 
45   751  277 
46   825  653 
47   177  32  
48   485  423 
49   757  189 
50   411  357 
51   435  803 
52   431  851 
53   117  661 
54   904  882 
55   824  535 
56   629  952 
57   686  830 
58   479  528 
59   585  137 
60   754  723 
61   497  24  
62   199  330 
63   695  417 
64   703  519 
65   728  176 
66   17   866 
67   360  9   
68   704  57  
69   696  727 
70   419  589 
71   565  405 
72   910  845 
73   763  408 
74   874  495 
75   976  790 
76   477  679 
77   656  291 
78   991  6   
79   683  555 
80   366  848 
81   196  306 
82   633  972 
83   732  667 
84   611  130 
85   98   121 
86   807  441 
87   904  392 
88   311  274 
89   750  819 
90   218  302 
91   561  812 
92   899  124 
93   582  188 
94   678  323 
95   689  171 
96   580  26  
97   496  679 
98   570  488 
99   519  415 
100  269  658 
101  742  591 
102  267  69  
103  874  243 
104  599  124 
105  32   562 
106  876  698 
107  335  334 
108  680  634 
109  571  727 
110  163  353 
111  730  720 
112  896  276 
113  668  269 
114  235  759 
115  850  416 
116  538  397 
117  908  506 
118  677  601 
119  595  284 
120  109  418 
121  224  228 
122  390  251 
123  207  962 
124  283  36  
125  512  524 
126  736  668 
127  100  845 
128  891  273 
129  112  828 
130  235  642 
131  50   615 
132  647  178 
133  65   478 
134  838  801 
135  857  158 
136  103  361 
137  422  752 
138  359  147 
139  840  191 
140  613  966 
141  987  124 
142  56   356 
143  156  452 
144  158  4   
145  73   692 
146  779  598 
147  764  973 
148  166  273 
149  484  183 
150  226  562 
151  741  86  
152  251  79  
153  588  905 
154  689  152 
155  962  72  
156  289  590 
157  207  310 
158  197  98  
159  618  119 
160  724  527 
161  665  221 
162  339  685 
163  234  767 
164  574  588 
165  812  905 
166  496  943 
167  222  136 
168  606  922 
169  13   566 
170  795  443 
171  256  952 
172  192  806 
173  703  189 
174  373  463 
175  138  179 
176  652  391 
177  365  459 
178  995  864 
179  623  318 
180  788  651 
181  434  577 
182  769  418 
183  925  140 
184  758  817 
185  925  805 
186  828  714 
187  404  652 
188  759  373 
189  117  241 
190  709  781 
191  398  254 
192  928  819 
193  788  31  
194  240  958 
195  644  633 
196  802  460 
197  683  899 
198  440  336 
199  439  139 
200  286  296 
201  859  167 
202  107  303 
203  773  411 
204  779  305 
205  345  867 
206  658  433 
207  349  74  
208  11   860 
209  746  802 
210  426  959 
211  987  361 
212  186  223 
213  30   482 
214  904  192 
215  749  318 
216  334  741 
217  535  75  
218  889  316 
219  777  273 
220  328  419 
221  837  534 
222  882  685 
223  395  436 
224  684  319 
225  342  439 
226  700  812 
227  126  558 
228  285  960 
229  403  40  
230  226  920 
231  374  907 
232  54   170 
233  606  247 
234  731  507 
235  169  547 
236  352  730 
237  268  907 
238  874  726 
239  92   282 
240  25   619 
241  141  296 
242  522  680 
243  469  915 
244  296  615 
245  543  712 
246  289  966 
247  108  891 
248  122  71  
249  980  191 
250  152  170 
251  249  121 
252  199  111 
253  444  625 
254  21   379 
255  295  353 
256  492  620 
257  433  305 
258  416  481 
259  661  815 
260  692  830 
261  352  981 
262  548  300 
263  774  225 
264  629  234 
265  470  875 
266  264  779 
267  37   844 
268  491  22  
269  276  610 
270  511  772 
271  425  580 
272  935  938 
273  221  939 
274  646  408 
275  423  241 
276  817  308 
277  254  469 
278  214  396 
279  312  401 
280  793  207 
281  831  975 
282  422  965 
283  966  763 
284  351  267 
285  236  518 
286  645  457 
287  100  276 
288  648  880 
289  109  352 
290  933  860 
291  936  139 
292  221  413 
293  597  682 
294  524  194 
295  126  413 
296  102  294 
297  62   267 
298  407  948 
299  620  665 
300  206  769 
301  110  554 
302  105  485 
303  720  96  
304  972  964 
305  720  761 
306  979  356 
307  594  356 
308  752  979 
309  831  705 
310  922  734 
311  587  991 
312  950  158 
313  871  103 
314  515  239 
315  236  19  
316  912  302 
317  560  238 
318  873  558 
319  830  916 
320  99   279 
321  372  703 
322  746  90  
323  348  318 
324  262  175 
325  167  581 
326  186  167 
327  308  291 
328  150  519 
329  278  677 
330  681  146 
331  363  474 
332  985  637 
333  396  660 
334  321  1   
335  467  711 
336  468  774 
337  238  470 
338  158  221 
339  233  800 
340  47   771 
341  171  160 
342  707  45  
343  561  327 
344  371  859 
345  199  249 
346  810  412 
347  252  651 
348  639  103 
349  58   377 
350  237  608 
351  201  295 
352  560  633 
353  893  28  
354  908  556 
355  505  41  
356  647  143 
357  799  887 
358  338  538 
359  339  237 
360  251  817 
361  155  175 
362  966  97  
363  184  983 
364  577  154 
365  746  350 
366  234  584 
367  232  803 
368  710  702 
369  417  687 
370  828  410 
371  364  693 
372  367  875 
373  388  669 
374  410  818 
375  567  393 
376  440  23  
377  228  271 
378  681  891 
379  810  892 
380  24   648 
381  758  207 
382  765  740 
383  579  897 
384  472  771 
385  828  131 
386  391  41  
387  176  391 
388  783  883 
389  942  153 
390  809  792 
391  523  160 
392  148  45  
393  141  671 
394  397  448 
395  707  246 
396  149  373 
397  91   679 
398  554  22  
399  18   527 
400  270  263 
401  281  263 
402  193  61  
403  468  126 
404  259  510 
405  37   824 
406  52   687 
407  643  127 
408  144  532 
409  252  205 
410  483  245 
411  589  919 
412  642  647 
413  641  35  
414  475  488 
415  970  103 
416  459  818 
417  605  118 
418  156  789 
419  76   253 
420  38   663 
421  583  615 
422  663  733 
423  904  530 
424  348  312 
425  499  63  
426  766  327 
427  944  441 
428  788  184 
429  697  75  
430  616  904 
431  480  77  
432  947  366 
433  96   865 
434  284  696 
435  253  452 
436  292  282 
437  862  407 
438  627  788 
439  401  436 
440  521  779 
441  216  561 
442  579  860 
443  242  708 
444  488  849 
445  445  878 
446  516  264 
447  569  675 
448  119  466 
449  544  362 
450  487  722 
451  528  256 
452  180  571 
453  439  593 
454  144  886 
455  365  378 
456  459  4   
457  755  393 
458  313  197 
459  83   418 
460  661  785 
461  793  523 
462  366  846 
463  213  384 
464  319  365 
465  541  60  
466  764  87  
467  445  361 
468  258  126 
469  151  152 
470  139  434 
471  556  76  
472  801  392 
473  468  201 
474  530  423 
475  759  395 
476  170  534 
477  69   213 
478  159  781 
479  443  311 
480  344  817 
481  960  430 
482  65   81  
483  968  532 
484  780  719 
485  165  940 
486  846  8   
487  386  679 
488  638  653 
489  192  414 
490  286  192 
491  1000 996 
492  338  239 
493  731  579 
494  427  298 
495  56   898 
496  916  197 
497  689  582 
498  639  96  
499  975  948 
500  299  814 
501  545  955 
502  222  948 
503  743  391 
504  473  301 
505  767  92  
506  603  905 
507  78   693 
508  937  265 
509  78   702 
510  943  345 
511  174  410 
512  416  23  
513  73   843 
514  915  521 
515  399  110 
516  944  426 
517  212  531 
518  560  967 
519  91   241 
520  458  443 
521  275  816 
522  111  973 
523  479  484 
524  296  628 
525  433  615 
526  393  817 
527  883  168 
528  41   914 
529  228  731 
530  552  724 
531  450  942 
532  630  244 
533  244  437 
534  289  588 
535  943  84  
536  166  136 
537  527  416 
538  37   498 
539  584  2   
540  473  543 
541  326  610 
542  421  780 
543  483  575 
544  729  478 
545  61   873 
546  533  185 
547  913  79  
548  925  44  
549  554  235 
550  552  36  
551  145  463 
552  401  816 
553  544  32  
554  431  402 
555  891  405 
556  405  777 
557  875  964 
558  301  320 
559  443  651 
560  151  375 
561  693  39  
562  887  44  
563  291  108 
564  186  729 
565  326  84  
566  835  528 
567  624  564 
568  792  566 
569  86   242 
570  912  482 
571  583  163 
572  111  433 
573  130  56  
574  464  737 
575  377  970 
576  18   888 
577  696  952 
578  77   31  
579  631  325 
580  938  988 
581  646  322 
582  548  555 
583  702  659 
584  922  891 
585  792  525 
586  448  59  
587  582  575 
588  325  681 
589  110  100 
590  27   578 
591  303  760 
592  248  824 
593  660  598 
594  294  949 
595  1000 190 
596  168  306 
597  767  86  
598  772  677 
599  700  581 
600  153  519 
601  761  182 
602  637  641 
603  722  209 
604  225  306 
605  612  324 
606  447  364 
607  127  246 
608  360  597 
609  776  939 
610  758  625 
611  709  531 
612  562  94  
613  151  859 
614  192  668 
615  806  73  
616  475  282 
617  995  726 
618  974  276 
619  123  150 
620  319  690 
621  329  484 
622  639  808 
623  371  499 
624  4    971 
625  824  197 
626  685  277 
627  199  136 
628  706  71  
629  162  236 
630  822  35  
631  854  714 
632  500  649 
633  842  251 
634  916  545 
635  208  715 
636  953  365 
637  555  194 
638  894  792 
639  857  248 
640  922  643 
641  531  331 
642  723  681 
643  181  123 
644  107  412 
645  108  893 
646  292  723 
647  965  870 
648  869  744 
649  174  93  
650  404  635 
651  2    893 
652  566  706 
653  104  541 
654  642  445 
655  913  661 
656  62   535 
657  423  239 
658  257  127 
659  88   17  
660  573  583 
661  965  52  
662  302  516 
663  36   882 
664  381  907 
665  53   971 
666  51   763 
667  338  982 
668  38   25  
669  672  580 
670  793  232 
671  907  882 
672  321  651 
673  13   544 
674  352  489 
675  697  502 
676  780  518 
677  315  845 
678  238  482 
679  283  395 
680  407  690 
681  54   5   
682  732  459 
683  551  811 
684  242  879 
685  718  332 
686  686  361 
687  305  935 
688  459  566 
689  248  364 
690  177  749 
691  74   913 
692  491  518 
693  726  183 
694  677  425 
695  37   702 
696  696  258 
697  441  297 
698  745  928 
699  529  428 
700  896  203 
701  517  274 
702  395  10  
703  634  292 
704  699  412 
705  364  431 
706  671  768 
707  824  443 
708  150  755 
709  998  327 
710  880  353 
711  361  35  
712  237  494 
713  722  670 
714  36   513 
715  880  609 
716  834  75  
717  353  49  
718  112  261 
719  266  557 
720  453  374 
721  462  868 
722  427  910 
723  381  385 
724  366  900 
725  979  102 
726  669  25  
727  928  136 
728  680  965 
729  395  814 
730  677  402 
731  542  595 
732  770  840 
733  188  94  
734  490  566 
735  2    721 
736  669  43  
737  558  292 
738  27   814 
739  534  93  
740  239  575 
741  238  607 
742  643  256 
743  819  589 
744  676  33  
745  812  293 
746  931  659 
747  550  976 
748  584  322 
749  216  978 
750  173  580 
751  811  998 
752  887  499 
753  563  793 
754  316  656 
755  539  683 
756  216  587 
757  391  12  
758  565  811 
759  729  434 
760  272  186 
761  516  964 
762  28   890 
763  169  740 
764  838  597 
765  431  749 
766  438  874 
767  131  884 
768  265  317 
769  286  776 
770  184  100 
771  762  467 
772  933  178 
773  574  416 
774  349  972 
775  920  635 
776  736  823 
777  169  367 
778  655  81  
779  880  190 
780  268  965 
781  737  141 
782  239  938 
783  99   397 
784  8    288 
785  145  275 
786  110  546 
787  754  886 
788  692  911 
789  487  869 
790  364  133 
791  590  207 
792  870  679 
793  92   614 
794  44   955 
795  287  871 
796  495  244 
797  683  691 
798  178  546 
799  404  480 
800  783  647 
801  97   301 
DEMAND_SECTION
1    0   
2    7   
3    7   
4    98  
5    9   
6    6   
7    1   
8    8   
9    8   
10   91  
11   9   
12   5   
13   10  
14   6   
15   7   
16   5   
17   8   
18   5   
19   2   
20   7   
21   88  
22   9   
23   6   
24   2   
25   8   
26   5   
27   10  
28   5   
29   81  
30   69  
31   10  
32   7   
33   8   
34   2   
35   8   
36   6   
37   3   
38   7   
39   2   
40   7   
41   1   
42   10  
43   10  
44   2   
45   5   
46   4   
47   9   
48   6   
49   9   
50   7   
51   5   
52   5   
53   6   
54   3   
55   9   
56   1   
57   6   
58   2   
59   3   
60   98  
61   3   
62   6   
63   57  
64   4   
65   7   
66   2   
67   3   
68   3   
69   2   
70   3   
71   8   
72   4   
73   3   
74   8   
75   2   
76   9   
77   1   
78   5   
79   7   
80   3   
81   6   
82   3   
83   6   
84   1   
85   1   
86   8   
87   8   
88   3   
89   2   
90   3   
91   6   
92   2   
93   10  
94   10  
95   9   
96   2   
97   9   
98   3   
99   8   
100  62  
101  4   
102  9   
103  4   
104  53  
105  6   
106  1   
107  7   
108  9   
109  6   
110  9   
111  1   
112  1   
113  97  
114  7   
115  59  
116  9   
117  5   
118  4   
119  1   
120  8   
121  74  
122  8   
123  5   
124  10  
125  1   
126  10  
127  5   
128  83  
129  9   
130  79  
131  1   
132  10  
133  3   
134  1   
135  7   
136  5   
137  1   
138  8   
139  6   
140  3   
141  9   
142  2   
143  6   
144  2   
145  2   
146  9   
147  8   
148  79  
149  9   
150  5   
151  3   
152  10  
153  3   
154  6   
155  7   
156  6   
157  1   
158  10  
159  5   
160  1   
161  3   
162  89  
163  7   
164  4   
165  57  
166  8   
167  3   
168  7   
169  5   
170  5   
171  4   
172  59  
173  1   
174  4   
175  9   
176  9   
177  8   
178  1   
179  6   
180  5   
181  2   
182  1   
183  93  
184  5   
185  8   
186  4   
187  8   
188  6   
189  2   
190  10  
191  6   
192  2   
193  2   
194  7   
195  5   
196  2   
197  5   
198  4   
199  9   
200  8   
201  10  
202  7   
203  68  
204  6   
205  77  
206  5   
207  1   
208  4   
209  3   
210  6   
211  3   
212  8   
213  7   
214  10  
215  7   
216  1   
217  4   
218  2   
219  7   
220  7   
221  2   
222  9   
223  6   
224  9   
225  8   
226  7   
227  10  
228  4   
229  2   
230  10  
231  6   
232  6   
233  6   
234  7   
235  1   
236  77  
237  9   
238  9   
239  2   
240  2   
241  9   
242  1   
243  65  
244  6   
245  4   
246  9   
247  4   
248  6   
249  6   
250  8   
251  4   
252  10  
253  10  
254  8   
255  3   
256  10  
257  3   
258  2   
259  6   
260  3   
261  1   
262  7   
263  1   
264  1   
265  7   
266  2   
267  4   
268  2   
269  2   
270  4   
271  4   
272  4   
273  10  
274  9   
275  10  
276  9   
277  5   
278  6   
279  4   
280  5   
281  1   
282  8   
283  4   
284  95  
285  4   
286  4   
287  59  
288  8   
289  9   
290  6   
291  1   
292  52  
293  10  
294  3   
295  3   
296  6   
297  9   
298  70  
299  1   
300  3   
301  6   
302  4   
303  1   
304  1   
305  8   
306  7   
307  10  
308  8   
309  1   
310  8   
311  7   
312  3   
313  1   
314  8   
315  5   
316  7   
317  8   
318  5   
319  1   
320  7   
321  4   
322  52  
323  7   
324  54  
325  10  
326  1   
327  3   
328  3   
329  10  
330  5   
331  8   
332  1   
333  90  
334  7   
335  4   
336  3   
337  4   
338  1   
339  8   
340  88  
341  8   
342  69  
343  7   
344  7   
345  7   
346  1   
347  8   
348  8   
349  8   
350  3   
351  7   
352  99  
353  4   
354  1   
355  5   
356  1   
357  10  
358  9   
359  1   
360  10  
361  6   
362  72  
363  5   
364  51  
365  6   
366  10  
367  8   
368  7   
369  10  
370  4   
371  5   
372  4   
373  7   
374  7   
375  83  
376  6   
377  83  
378  10  
379  86  
380  1   
381  6   
382  7   
383  10  
384  2   
385  1   
386  9   
387  1   
388  7   
389  2   
390  90  
391  92  
392  4   
393  3   
394  5   
395  5   
396  3   
397  5   
398  2   
399  81  
400  4   
401  2   
402  4   
403  3   
404  3   
405  1   
406  7   
407  2   
408  8   
409  10  
410  5   
411  8   
412  5   
413  2   
414  9   
415  10  
416  3   
417  4   
418  99  
419  4   
420  4   
421  1   
422  7   
423  7   
424  2   
425  1   
426  2   
427  8   
428  4   
429  6   
430  6   
431  5   
432  9   
433  1   
434  3   
435  7   
436  2   
437  3   
438  10  
439  2   
440  67  
441  3   
442  7   
443  1   
444  2   
445  5   
446  7   
447  9   
448  9   
449  1   
450  55  
451  2   
452  3   
453  1   
454  10  
455  1   
456  4   
457  7   
458  9   
459  6   
460  2   
461  7   
462  6   
463  2   
464  86  
465  10  
466  4   
467  9   
468  51  
469  2   
470  10  
471  3   
472  5   
473  7   
474  6   
475  10  
476  4   
477  6   
478  9   
479  6   
480  98  
481  5   
482  7   
483  1   
484  5   
485  4   
486  8   
487  9   
488  9   
489  5   
490  6   
491  9   
492  4   
493  2   
494  10  
495  61  
496  10  
497  2   
498  9   
499  7   
500  1   
501  9   
502  86  
503  4   
504  10  
505  10  
506  6   
507  4   
508  6   
509  1   
510  10  
511  2   
512  2   
513  8   
514  7   
515  5   
516  1   
517  4   
518  6   
519  1   
520  78  
521  1   
522  5   
523  4   
524  2   
525  9   
526  66  
527  85  
528  8   
529  1   
530  6   
531  2   
532  4   
533  4   
534  10  
535  5   
536  10  
537  4   
538  1   
539  1   
540  9   
541  9   
542  5   
543  5   
544  1   
545  10  
546  3   
547  9   
548  3   
549  2   
550  1   
551  7   
552  3   
553  1   
554  8   
555  1   
556  4   
557  5   
558  3   
559  5   
560  4   
561  4   
562  5   
563  74  
564  3   
565  2   
566  89  
567  9   
568  5   
569  93  
570  5   
571  5   
572  1   
573  9   
574  10  
575  10  
576  8   
577  4   
578  2   
579  1   
580  6   
581  7   
582  7   
583  8   
584  1   
585  3   
586  10  
587  4   
588  66  
589  7   
590  2   
591  3   
592  9   
593  7   
594  53  
595  69  
596  7   
597  1   
598  1   
599  10  
600  4   
601  7   
602  3   
603  3   
604  8   
605  78  
606  6   
607  6   
608  2   
609  6   
610  3   
611  10  
612  10  
613  1   
614  8   
615  2   
616  4   
617  7   
618  96  
619  10  
620  4   
621  8   
622  8   
623  10  
624  5   
625  6   
626  3   
627  8   
628  2   
629  7   
630  4   
631  7   
632  4   
633  10  
634  9   
635  6   
636  2   
637  3   
638  7   
639  7   
640  10  
641  4   
642  9   
643  5   
644  4   
645  5   
646  6   
647  9   
648  4   
649  6   
650  10  
651  4   
652  5   
653  5   
654  7   
655  6   
656  1   
657  8   
658  2   
659  1   
660  3   
661  81  
662  9   
663  9   
664  84  
665  5   
666  1   
667  6   
668  1   
669  10  
670  5   
671  8   
672  9   
673  2   
674  3   
675  76  
676  10  
677  7   
678  1   
679  7   
680  8   
681  10  
682  5   
683  7   
684  3   
685  83  
686  10  
687  1   
688  5   
689  100 
690  3   
691  2   
692  5   
693  89  
694  7   
695  7   
696  4   
697  4   
698  6   
699  3   
700  10  
701  9   
702  9   
703  5   
704  7   
705  1   
706  3   
707  4   
708  10  
709  1   
710  9   
711  1   
712  2   
713  7   
714  7   
715  9   
716  2   
717  5   
718  5   
719  5   
720  1   
721  4   
722  5   
723  2   
724  6   
725  8   
726  7   
727  10  
728  1   
729  4   
730  10  
731  1   
732  7   
733  3   
734  3   
735  9   
736  8   
737  10  
738  10  
739  3   
740  83  
741  8   
742  9   
743  8   
744  1   
745  61  
746  4   
747  7   
748  6   
749  3   
750  88  
751  4   
752  10  
753  9   
754  3   
755  8   
756  2   
757  5   
758  1   
759  7   
760  92  
761  4   
762  3   
763  3   
764  9   
765  8   
766  2   
767  5   
768  79  
769  90  
770  10  
771  4   
772  2   
773  82  
774  6   
775  3   
776  5   
777  5   
778  5   
779  8   
780  2   
781  77  
782  90  
783  3   
784  2   
785  2   
786  2   
787  2   
788  7   
789  2   
790  4   
791  5   
792  6   
793  93  
794  10  
795  54  
796  6   
797  83  
798  8   
799  4   
800  9   
801  1   
DEPOT_SECTION
1
-1
EOF
