NAME : XML800_2325_44
COMMENT : Generated as the XML100 dataset from the CVRPLIB
TYPE : CVRP
DIMENSION : 801
EDGE_WEIGHT_TYPE : EUC_2D
CAPACITY : 112
NODE_COORD_SECTION
1    500  500 
2    686  943 
3    967  59  
4    938  688 
5    844  16  
6    838  848 
7    259  912 
8    990  991 
9    878  911 
10   999  792 
11   237  982 
12   770  978 
13   223  818 
14   19   274 
15   808  187 
16   282  904 
17   306  843 
18   347  881 
19   294  887 
20   147  926 
21   433  911 
22   551  656 
23   913  901 
24   268  596 
25   318  701 
26   74   978 
27   17   871 
28   383  919 
29   248  874 
30   219  987 
31   303  819 
32   341  922 
33   278  655 
34   266  928 
35   922  806 
36   378  175 
37   334  654 
38   890  881 
39   312  477 
40   3    963 
41   944  861 
42   814  724 
43   313  878 
44   196  958 
45   359  854 
46   373  910 
47   83   263 
48   303  931 
49   890  975 
50   932  855 
51   623  783 
52   647  323 
53   126  880 
54   976  898 
55   324  972 
56   761  982 
57   908  525 
58   792  997 
59   116  714 
60   806  505 
61   340  440 
62   666  592 
63   902  738 
64   86   682 
65   324  999 
66   211  942 
67   277  887 
68   139  944 
69   265  931 
70   545  976 
71   569  12  
72   401  950 
73   367  808 
74   656  682 
75   860  997 
76   910  827 
77   919  18  
78   731  712 
79   332  450 
80   357  623 
81   739  307 
82   242  831 
83   234  827 
84   299  947 
85   614  959 
86   967  988 
87   111  985 
88   658  974 
89   189  913 
90   396  80  
91   299  794 
92   856  748 
93   839  915 
94   542  808 
95   136  925 
96   326  775 
97   390  930 
98   339  857 
99   359  961 
100  288  919 
101  249  811 
102  769  954 
103  348  39  
104  360  898 
105  283  68  
106  28   434 
107  308  897 
108  872  63  
109  232  996 
110  273  795 
111  381  984 
112  926  784 
113  798  864 
114  334  909 
115  906  964 
116  352  539 
117  240  874 
118  918  798 
119  187  728 
120  950  741 
121  197  494 
122  419  467 
123  982  828 
124  290  84  
125  265  665 
126  15   392 
127  473  941 
128  402  234 
129  188  976 
130  339  861 
131  161  455 
132  258  873 
133  965  744 
134  732  127 
135  798  765 
136  893  81  
137  615  872 
138  222  532 
139  930  875 
140  359  138 
141  181  24  
142  886  859 
143  208  881 
144  205  983 
145  267  958 
146  313  845 
147  67   951 
148  859  195 
149  245  939 
150  837  823 
151  943  603 
152  147  803 
153  788  827 
154  382  944 
155  775  637 
156  77   982 
157  941  669 
158  253  906 
159  71   777 
160  376  995 
161  700  710 
162  948  821 
163  343  827 
164  298  410 
165  892  740 
166  558  733 
167  50   830 
168  273  493 
169  726  893 
170  909  847 
171  264  920 
172  4    979 
173  979  893 
174  154  914 
175  497  997 
176  833  717 
177  930  906 
178  568  401 
179  929  672 
180  301  951 
181  535  898 
182  627  78  
183  487  821 
184  250  756 
185  105  923 
186  353  997 
187  972  746 
188  231  891 
189  214  820 
190  266  867 
191  944  791 
192  925  661 
193  394  378 
194  107  950 
195  149  965 
196  126  963 
197  994  639 
198  728  641 
199  699  187 
200  996  739 
201  994  1   
202  503  559 
203  106  594 
204  494  590 
205  325  809 
206  631  574 
207  895  754 
208  310  262 
209  412  804 
210  478  978 
211  386  10  
212  361  969 
213  563  308 
214  495  173 
215  376  976 
216  259  967 
217  302  910 
218  426  815 
219  929  523 
220  373  979 
221  180  948 
222  24   920 
223  231  904 
224  976  729 
225  848  809 
226  384  854 
227  106  967 
228  288  328 
229  410  982 
230  848  845 
231  399  326 
232  319  77  
233  84   836 
234  602  771 
235  18   723 
236  120  124 
237  289  948 
238  292  227 
239  330  986 
240  278  948 
241  50   950 
242  705  643 
243  514  29  
244  756  209 
245  122  947 
246  860  913 
247  222  656 
248  410  865 
249  73   951 
250  527  614 
251  284  982 
252  263  959 
253  881  981 
254  445  679 
255  341  878 
256  508  210 
257  436  868 
258  684  979 
259  309  913 
260  549  507 
261  300  944 
262  889  832 
263  329  742 
264  948  262 
265  226  259 
266  783  701 
267  257  911 
268  837  412 
269  73   910 
270  803  935 
271  282  913 
272  289  534 
273  707  720 
274  163  831 
275  204  603 
276  790  327 
277  782  979 
278  201  961 
279  958  149 
280  75   983 
281  318  890 
282  192  912 
283  932  685 
284  138  941 
285  294  932 
286  76   691 
287  644  218 
288  905  677 
289  358  288 
290  404  264 
291  385  879 
292  339  921 
293  14   972 
294  844  29  
295  575  887 
296  77   36  
297  980  298 
298  592  967 
299  384  938 
300  392  951 
301  328  768 
302  784  14  
303  338  184 
304  65   574 
305  299  979 
306  925  776 
307  422  839 
308  305  919 
309  672  694 
310  741  308 
311  240  920 
312  304  456 
313  243  916 
314  262  966 
315  825  954 
316  866  824 
317  520  187 
318  940  392 
319  141  834 
320  851  692 
321  354  789 
322  182  286 
323  107  948 
324  307  546 
325  38   925 
326  987  979 
327  488  905 
328  679  207 
329  308  956 
330  160  374 
331  89   988 
332  361  931 
333  255  392 
334  228  438 
335  762  488 
336  7    964 
337  205  391 
338  210  887 
339  395  542 
340  750  352 
341  293  912 
342  687  979 
343  923  698 
344  236  149 
345  372  824 
346  893  657 
347  827  968 
348  61   126 
349  173  367 
350  662  406 
351  811  358 
352  745  422 
353  731  613 
354  666  129 
355  867  537 
356  53   936 
357  205  921 
358  294  733 
359  161  896 
360  988  18  
361  288  955 
362  789  730 
363  892  804 
364  455  952 
365  199  370 
366  972  833 
367  277  945 
368  59   970 
369  702  600 
370  928  497 
371  55   990 
372  82   953 
373  859  910 
374  912  647 
375  711  895 
376  486  795 
377  386  479 
378  257  972 
379  970  917 
380  971  971 
381  356  865 
382  82   989 
383  508  334 
384  222  883 
385  752  304 
386  965  686 
387  11   538 
388  472  506 
389  976  924 
390  205  907 
391  236  885 
392  382  185 
393  255  108 
394  920  543 
395  835  167 
396  410  948 
397  266  922 
398  858  815 
399  827  846 
400  716  731 
401  876  720 
402  242  839 
403  219  837 
404  85   846 
405  289  932 
406  594  723 
407  136  839 
408  996  803 
409  549  590 
410  58   758 
411  226  989 
412  11   30  
413  344  706 
414  573  300 
415  954  248 
416  456  291 
417  84   914 
418  289  361 
419  760  639 
420  951  746 
421  358  906 
422  280  816 
423  754  70  
424  748  36  
425  285  9   
426  818  82  
427  571  223 
428  846  589 
429  162  689 
430  349  933 
431  754  344 
432  204  713 
433  520  504 
434  318  973 
435  230  851 
436  470  832 
437  579  83  
438  276  976 
439  986  596 
440  191  850 
441  880  596 
442  919  942 
443  731  980 
444  82   961 
445  797  836 
446  289  756 
447  113  796 
448  225  857 
449  809  261 
450  733  253 
451  249  985 
452  257  809 
453  319  891 
454  77   860 
455  833  874 
456  695  644 
457  1000 862 
458  860  977 
459  422  504 
460  666  199 
461  485  569 
462  123  207 
463  502  603 
464  859  859 
465  609  586 
466  349  946 
467  66   585 
468  264  969 
469  110  920 
470  262  905 
471  343  979 
472  313  471 
473  842  973 
474  372  795 
475  365  243 
476  979  304 
477  238  944 
478  201  913 
479  918  819 
480  332  987 
481  325  948 
482  848  989 
483  122  94  
484  205  892 
485  942  767 
486  920  739 
487  293  986 
488  252  478 
489  294  960 
490  25   296 
491  568  553 
492  195  618 
493  275  974 
494  264  973 
495  299  940 
496  424  306 
497  466  788 
498  908  239 
499  461  682 
500  477  699 
501  396  711 
502  981  736 
503  479  907 
504  472  212 
505  283  852 
506  55   808 
507  405  549 
508  967  572 
509  131  956 
510  543  272 
511  359  927 
512  923  740 
513  846  956 
514  335  880 
515  190  889 
516  605  750 
517  115  984 
518  848  993 
519  245  187 
520  545  955 
521  757  716 
522  308  899 
523  224  500 
524  346  108 
525  329  931 
526  700  102 
527  191  988 
528  73   825 
529  102  632 
530  321  847 
531  416  917 
532  525  842 
533  240  602 
534  197  631 
535  951  852 
536  268  920 
537  20   873 
538  475  859 
539  117  653 
540  241  948 
541  312  999 
542  922  919 
543  10   926 
544  300  854 
545  168  716 
546  348  912 
547  972  538 
548  52   532 
549  305  987 
550  828  991 
551  944  803 
552  175  868 
553  998  941 
554  142  938 
555  768  744 
556  560  715 
557  814  949 
558  902  833 
559  90   927 
560  174  908 
561  334  897 
562  384  727 
563  429  213 
564  510  723 
565  332  936 
566  258  987 
567  293  688 
568  598  817 
569  377  431 
570  936  849 
571  872  657 
572  627  579 
573  661  882 
574  326  767 
575  182  893 
576  97   907 
577  194  440 
578  887  794 
579  119  931 
580  165  907 
581  414  745 
582  878  861 
583  677  957 
584  320  939 
585  446  926 
586  892  854 
587  368  607 
588  151  990 
589  803  687 
590  519  263 
591  19   462 
592  560  966 
593  58   957 
594  363  946 
595  352  998 
596  394  924 
597  190  847 
598  481  910 
599  928  803 
600  228  977 
601  877  776 
602  670  535 
603  251  997 
604  418  985 
605  169  927 
606  657  354 
607  259  848 
608  855  446 
609  514  809 
610  418  594 
611  856  182 
612  186  598 
613  172  941 
614  940  679 
615  804  800 
616  7    892 
617  890  431 
618  321  661 
619  775  593 
620  845  252 
621  891  786 
622  402  994 
623  545  396 
624  955  807 
625  857  244 
626  138  414 
627  31   440 
628  959  786 
629  64   864 
630  800  622 
631  934  869 
632  499  810 
633  389  926 
634  828  958 
635  538  887 
636  97   659 
637  123  797 
638  468  441 
639  641  979 
640  588  744 
641  894  689 
642  126  960 
643  182  65  
644  811  416 
645  673  46  
646  351  926 
647  96   965 
648  239  846 
649  480  909 
650  86   1000
651  894  963 
652  140  980 
653  784  246 
654  434  551 
655  826  499 
656  996  574 
657  17   110 
658  755  466 
659  261  888 
660  21   817 
661  461  922 
662  145  48  
663  211  887 
664  317  905 
665  377  681 
666  807  921 
667  274  934 
668  193  845 
669  12   705 
670  33   72  
671  98   192 
672  846  998 
673  287  226 
674  56   711 
675  645  846 
676  917  896 
677  174  861 
678  52   597 
679  296  985 
680  375  878 
681  272  902 
682  447  327 
683  649  861 
684  370  781 
685  486  974 
686  813  960 
687  785  889 
688  156  928 
689  367  901 
690  916  805 
691  211  864 
692  824  75  
693  388  933 
694  555  27  
695  192  869 
696  969  817 
697  60   969 
698  738  655 
699  266  189 
700  441  706 
701  288  46  
702  273  57  
703  811  635 
704  254  956 
705  202  918 
706  249  859 
707  959  250 
708  996  964 
709  328  932 
710  331  928 
711  487  776 
712  513  914 
713  898  923 
714  754  622 
715  333  80  
716  967  775 
717  183  550 
718  722  935 
719  314  466 
720  909  958 
721  899  738 
722  251  950 
723  294  655 
724  349  838 
725  218  745 
726  496  875 
727  329  231 
728  229  382 
729  414  266 
730  505  286 
731  875  386 
732  382  633 
733  218  781 
734  769  85  
735  579  244 
736  180  108 
737  502  787 
738  892  564 
739  943  786 
740  826  875 
741  351  493 
742  787  538 
743  672  826 
744  766  982 
745  486  281 
746  183  936 
747  807  861 
748  697  83  
749  247  539 
750  897  773 
751  177  474 
752  673  799 
753  31   667 
754  325  220 
755  18   975 
756  469  493 
757  991  300 
758  403  804 
759  383  408 
760  365  283 
761  429  951 
762  359  725 
763  568  719 
764  186  955 
765  663  889 
766  244  887 
767  269  831 
768  252  900 
769  785  726 
770  746  487 
771  174  819 
772  960  614 
773  363  862 
774  458  605 
775  327  939 
776  210  363 
777  432  952 
778  627  908 
779  497  969 
780  806  156 
781  204  60  
782  247  925 
783  41   838 
784  330  950 
785  928  737 
786  73   897 
787  303  932 
788  509  134 
789  954  237 
790  278  759 
791  656  589 
792  433  422 
793  159  924 
794  264  851 
795  260  579 
796  782  804 
797  2    958 
798  76   907 
799  411  888 
800  212  935 
801  160  757 
DEMAND_SECTION
1    0   
2    7   
3    9   
4    8   
5    1   
6    5   
7    10  
8    2   
9    8   
10   6   
11   8   
12   3   
13   9   
14   1   
15   3   
16   4   
17   1   
18   5   
19   5   
20   7   
21   4   
22   5   
23   6   
24   4   
25   2   
26   9   
27   8   
28   8   
29   9   
30   8   
31   5   
32   1   
33   2   
34   9   
35   2   
36   3   
37   6   
38   8   
39   3   
40   6   
41   4   
42   9   
43   8   
44   9   
45   4   
46   4   
47   6   
48   10  
49   1   
50   10  
51   8   
52   4   
53   2   
54   2   
55   1   
56   1   
57   7   
58   2   
59   5   
60   7   
61   5   
62   3   
63   3   
64   10  
65   7   
66   9   
67   5   
68   5   
69   6   
70   7   
71   9   
72   10  
73   3   
74   4   
75   10  
76   3   
77   2   
78   2   
79   7   
80   5   
81   6   
82   2   
83   9   
84   2   
85   4   
86   1   
87   4   
88   8   
89   9   
90   9   
91   6   
92   6   
93   10  
94   8   
95   2   
96   7   
97   3   
98   2   
99   7   
100  8   
101  7   
102  6   
103  7   
104  1   
105  6   
106  9   
107  7   
108  2   
109  1   
110  3   
111  8   
112  9   
113  1   
114  5   
115  4   
116  2   
117  5   
118  1   
119  9   
120  1   
121  1   
122  7   
123  2   
124  6   
125  1   
126  5   
127  8   
128  2   
129  9   
130  5   
131  5   
132  4   
133  10  
134  4   
135  9   
136  7   
137  2   
138  3   
139  6   
140  7   
141  1   
142  7   
143  3   
144  8   
145  6   
146  2   
147  7   
148  6   
149  1   
150  3   
151  2   
152  8   
153  2   
154  9   
155  10  
156  2   
157  3   
158  8   
159  1   
160  5   
161  5   
162  7   
163  8   
164  1   
165  10  
166  1   
167  4   
168  6   
169  5   
170  5   
171  9   
172  10  
173  8   
174  5   
175  5   
176  1   
177  2   
178  9   
179  7   
180  1   
181  6   
182  10  
183  10  
184  4   
185  4   
186  7   
187  10  
188  5   
189  1   
190  10  
191  3   
192  10  
193  6   
194  4   
195  6   
196  7   
197  6   
198  8   
199  9   
200  9   
201  10  
202  1   
203  2   
204  8   
205  5   
206  10  
207  2   
208  5   
209  4   
210  6   
211  1   
212  10  
213  7   
214  7   
215  8   
216  4   
217  8   
218  10  
219  5   
220  6   
221  7   
222  8   
223  10  
224  4   
225  1   
226  5   
227  4   
228  8   
229  3   
230  9   
231  9   
232  2   
233  3   
234  8   
235  5   
236  3   
237  6   
238  9   
239  4   
240  9   
241  10  
242  2   
243  10  
244  3   
245  10  
246  9   
247  8   
248  8   
249  6   
250  4   
251  7   
252  6   
253  4   
254  5   
255  3   
256  9   
257  3   
258  7   
259  9   
260  1   
261  8   
262  5   
263  6   
264  7   
265  7   
266  6   
267  7   
268  5   
269  10  
270  3   
271  2   
272  10  
273  7   
274  6   
275  8   
276  5   
277  1   
278  8   
279  6   
280  5   
281  6   
282  10  
283  6   
284  10  
285  7   
286  9   
287  8   
288  3   
289  4   
290  6   
291  8   
292  1   
293  9   
294  9   
295  10  
296  9   
297  3   
298  10  
299  6   
300  7   
301  10  
302  5   
303  3   
304  4   
305  3   
306  7   
307  10  
308  5   
309  2   
310  7   
311  5   
312  10  
313  3   
314  3   
315  7   
316  4   
317  2   
318  7   
319  2   
320  10  
321  2   
322  10  
323  2   
324  7   
325  1   
326  6   
327  8   
328  7   
329  9   
330  2   
331  9   
332  8   
333  5   
334  5   
335  8   
336  5   
337  3   
338  6   
339  3   
340  5   
341  3   
342  9   
343  10  
344  7   
345  1   
346  7   
347  8   
348  5   
349  1   
350  4   
351  1   
352  1   
353  6   
354  3   
355  6   
356  1   
357  6   
358  6   
359  9   
360  7   
361  9   
362  6   
363  10  
364  10  
365  2   
366  2   
367  7   
368  2   
369  4   
370  5   
371  8   
372  7   
373  1   
374  1   
375  2   
376  5   
377  2   
378  9   
379  2   
380  5   
381  4   
382  3   
383  6   
384  10  
385  6   
386  2   
387  7   
388  7   
389  7   
390  7   
391  1   
392  2   
393  9   
394  1   
395  7   
396  6   
397  8   
398  10  
399  10  
400  7   
401  7   
402  6   
403  4   
404  4   
405  10  
406  5   
407  3   
408  5   
409  6   
410  5   
411  1   
412  1   
413  5   
414  8   
415  10  
416  10  
417  3   
418  2   
419  1   
420  5   
421  5   
422  10  
423  8   
424  3   
425  6   
426  8   
427  1   
428  6   
429  2   
430  10  
431  9   
432  2   
433  2   
434  8   
435  7   
436  1   
437  2   
438  8   
439  9   
440  7   
441  6   
442  7   
443  8   
444  2   
445  9   
446  8   
447  1   
448  10  
449  6   
450  10  
451  5   
452  4   
453  3   
454  6   
455  8   
456  3   
457  1   
458  2   
459  6   
460  2   
461  9   
462  2   
463  5   
464  8   
465  5   
466  2   
467  9   
468  7   
469  8   
470  5   
471  1   
472  8   
473  4   
474  4   
475  2   
476  4   
477  1   
478  5   
479  8   
480  2   
481  9   
482  10  
483  8   
484  4   
485  8   
486  3   
487  9   
488  4   
489  9   
490  10  
491  6   
492  10  
493  6   
494  5   
495  8   
496  5   
497  8   
498  10  
499  2   
500  7   
501  7   
502  4   
503  2   
504  10  
505  9   
506  6   
507  2   
508  6   
509  4   
510  6   
511  2   
512  2   
513  3   
514  7   
515  6   
516  7   
517  8   
518  10  
519  2   
520  5   
521  1   
522  1   
523  2   
524  4   
525  3   
526  5   
527  7   
528  1   
529  9   
530  1   
531  9   
532  7   
533  9   
534  5   
535  3   
536  5   
537  9   
538  3   
539  5   
540  4   
541  2   
542  5   
543  5   
544  7   
545  5   
546  8   
547  7   
548  6   
549  2   
550  6   
551  9   
552  2   
553  6   
554  2   
555  6   
556  4   
557  8   
558  4   
559  1   
560  5   
561  3   
562  6   
563  10  
564  8   
565  1   
566  8   
567  8   
568  10  
569  3   
570  10  
571  9   
572  2   
573  10  
574  10  
575  2   
576  6   
577  7   
578  2   
579  7   
580  8   
581  1   
582  4   
583  9   
584  1   
585  9   
586  4   
587  9   
588  5   
589  8   
590  8   
591  2   
592  2   
593  10  
594  2   
595  1   
596  4   
597  2   
598  4   
599  5   
600  4   
601  10  
602  7   
603  10  
604  5   
605  2   
606  3   
607  5   
608  3   
609  8   
610  6   
611  7   
612  10  
613  3   
614  8   
615  3   
616  8   
617  5   
618  4   
619  1   
620  4   
621  8   
622  1   
623  1   
624  8   
625  9   
626  7   
627  6   
628  3   
629  3   
630  9   
631  4   
632  7   
633  9   
634  7   
635  7   
636  6   
637  1   
638  6   
639  5   
640  9   
641  6   
642  8   
643  3   
644  8   
645  9   
646  9   
647  2   
648  8   
649  7   
650  6   
651  1   
652  8   
653  5   
654  6   
655  6   
656  3   
657  5   
658  3   
659  2   
660  4   
661  8   
662  3   
663  9   
664  3   
665  8   
666  1   
667  8   
668  9   
669  10  
670  4   
671  6   
672  9   
673  1   
674  9   
675  1   
676  1   
677  5   
678  7   
679  5   
680  7   
681  7   
682  2   
683  5   
684  2   
685  1   
686  2   
687  2   
688  10  
689  5   
690  5   
691  3   
692  5   
693  6   
694  10  
695  2   
696  7   
697  8   
698  1   
699  6   
700  6   
701  9   
702  5   
703  6   
704  10  
705  8   
706  6   
707  10  
708  1   
709  7   
710  2   
711  2   
712  4   
713  7   
714  3   
715  3   
716  1   
717  10  
718  7   
719  8   
720  3   
721  5   
722  9   
723  7   
724  4   
725  5   
726  5   
727  6   
728  10  
729  4   
730  6   
731  5   
732  5   
733  4   
734  8   
735  5   
736  5   
737  10  
738  2   
739  1   
740  1   
741  10  
742  6   
743  4   
744  2   
745  6   
746  6   
747  3   
748  2   
749  5   
750  4   
751  7   
752  8   
753  7   
754  9   
755  2   
756  8   
757  4   
758  9   
759  9   
760  7   
761  5   
762  4   
763  4   
764  8   
765  9   
766  2   
767  4   
768  1   
769  7   
770  4   
771  10  
772  5   
773  1   
774  3   
775  4   
776  3   
777  7   
778  7   
779  9   
780  2   
781  4   
782  5   
783  4   
784  9   
785  8   
786  10  
787  10  
788  3   
789  9   
790  9   
791  4   
792  7   
793  1   
794  10  
795  5   
796  8   
797  5   
798  3   
799  7   
800  4   
801  9   
DEPOT_SECTION
1
-1
EOF
