NAME : gen1000_003
COMMENT : uniform customers, demands 1..9, generated by bench/make_tuning_set.py
TYPE : CVRP
DIMENSION : 1001
EDGE_WEIGHT_TYPE : EUC_2D
CAPACITY : 200
NODE_COORD_SECTION
1 0.25758768656453324 0.4112741239575496
2 0.4071349278840394 0.25577110135890857
3 0.7579256263677896 0.4929732958321237
4 0.9417762792717113 0.47287696296046244
5 0.9220731672707928 0.3221115781464071
6 0.24942254155856536 0.7526567229996175
7 0.7791984809811251 0.8319155576978249
8 0.6107651206075617 0.15781565431219202
9 0.6069422894896114 0.8942390973276695
10 0.025658850661715027 0.24638600036487213
11 0.5378539520523591 0.03271778827040328
12 0.7109488084881597 0.3261454743196621
13 0.1544464496267991 0.6171747725927904
14 0.7865188737464566 0.6398673833004423
15 0.13972285825210162 0.8435781209650532
16 0.7888464999125925 0.3573533855037949
17 0.5722642928836268 0.8308861842472092
18 0.46954995815000145 0.4626210118481423
19 0.9078988586441064 0.2499610629092487
20 0.8552088144013303 0.5533699212741211
21 0.4168697431832663 0.2709633317925384
22 0.1390923208107655 0.28951242169374547
23 0.1791379634439867 0.7928355130013475
24 0.567993345538039 0.330928532735971
25 0.08116672478609499 0.3578325967120054
26 0.3898301862830682 0.427691659659735
27 0.8221423084546791 0.05903264162374644
28 0.0683947951738082 0.24149930557493537
29 0.3262086820453779 0.852833129134868
30 0.813028921076422 0.46015908203948475
31 0.2607986151537187 0.6838471012520729
32 0.8224882640721133 0.9253115226373526
33 0.5078294925998295 0.3456401630693694
34 0.888320205414314 0.6515164312848787
35 0.0775032091592518 0.34600444736818614
36 0.10914995878604938 0.3467037868338525
37 0.00639924478622711 0.403437552507248
38 0.042371800191069675 0.6458557094956102
39 0.11554652446045788 0.32141480779485165
40 0.9433547026074574 0.14803278335664705
41 0.6872749309391218 0.025504684184648907
42 0.31950312752968946 0.8362756219878741
43 0.5660157426620198 0.2634487828911206
44 0.008335241764081625 0.955857229632171
45 0.03944630960301043 0.6312852105972191
46 0.0018101379748515223 0.9272302664054713
47 0.39669584744048125 0.003219955135535968
48 0.5414251620306404 0.7963574739294281
49 0.21644361472997597 0.9769558845407197
50 0.1079582410684713 0.45104637107079415
51 0.04226344829441875 0.9564493954235527
52 0.37902748897984273 0.6496332439761725
53 0.8300677158875623 0.7075810464409013
54 0.6540066320121176 0.6841865569125767
55 0.7780149083396699 0.9377402816976638
56 0.45426567343045965 0.5773810380763587
57 0.33587833774211884 0.6879541913644948
58 0.7934904307430315 0.004708475680656576
59 0.4099255486789214 0.9374434847756541
60 0.4288029495147254 0.47629797296516885
61 0.9564264594688949 0.6025360621820092
62 0.8124159226843761 0.0902324763541803
63 0.47120594309017305 0.2760749640761032
64 0.009031628259408842 0.5241197187224299
65 0.9095623625821538 0.3697825736943756
66 0.41769319215624434 0.05290669755152155
67 0.09540990248269432 0.03421515045449197
68 0.4382727502882412 0.422734489973029
69 0.2615254169714729 0.742556208239231
70 0.23811578742805828 0.24143296754927168
71 0.7974066603310483 0.26448457652188007
72 0.6194131004441655 0.3789445061724793
73 0.13962237149298717 0.8466674106447202
74 0.10331558126345541 0.0779994623420377
75 0.23305082688903722 0.4924024342096207
76 0.7927869713402431 0.6567085226185659
77 0.16162797783611993 0.2757471850423503
78 0.0877639101207619 0.08838325133770675
79 0.7277941092678554 0.2673859994608785
80 0.7309937845625366 0.7874371437643668
81 0.4568968821334559 0.0030609233603238195
82 0.6001248698273993 0.9960573906699626
83 0.8305106099313015 0.3157402615785634
84 0.18651748272666646 0.4925154741201403
85 0.8127435081556423 0.1819443289338969
86 0.9415610565628574 0.6043495652203923
87 0.173159764611863 0.34777052890596283
88 0.5931745535882399 0.6453317993553165
89 0.6193360414505604 0.38037097523512353
90 0.03082361334528172 0.8753960557659177
91 0.8825082044588158 0.4917336965272585
92 0.7575126285199884 0.305820666816243
93 0.7083744435156495 0.1443465492597653
94 0.7685785307941762 0.2578893670831792
95 0.5795127238522102 0.7488307357108629
96 0.060943674568273876 0.2575275697888546
97 0.5505615223367448 0.5055728522691
98 0.7430589199523189 0.0686099547726523
99 0.4323588173211199 0.37033869730173086
100 0.055622375632922605 0.036658444160976855
101 0.01142543013407471 0.20230410068078641
102 0.30961972048226305 0.16939953124703455
103 0.6209054202591031 0.4833972266854365
104 0.6012837585716587 0.5983360135992857
105 0.06965535484759877 0.06220219142337213
106 0.11185090595066904 0.5241800237565808
107 0.32143534926539696 0.14215068218655225
108 0.6228416383822692 0.6637204152039429
109 0.5421752840376595 0.2523515182347863
110 0.7116352096951634 0.062442500668472345
111 0.2795075988781993 0.487455916195615
112 0.46625353702183603 0.34504454485353875
113 0.6378503710579856 0.7423785348466335
114 0.861077156654874 0.706739357679308
115 0.650532125495927 0.4642472602431581
116 0.9914176490528471 0.9563060847592149
117 0.7949448978917918 0.5050819166543191
118 0.2439451715475628 0.34828042149322
119 0.11021969661325048 0.082109305331036
120 0.9661234540985296 0.422303854325383
121 0.48021718377791156 0.6748536537831045
122 0.07308575996191424 0.023706936612073237
123 0.06979886032353622 0.5978983964483413
124 0.9697801366139898 0.024256697691729445
125 0.9364219650969074 0.6567186010487502
126 0.5469563825635475 0.5190660592089353
127 0.5918065931500565 0.9486655449508853
128 0.034305781917922884 0.6420293560077098
129 0.534803096500889 0.7008832281013364
130 0.743200129532173 0.19251362384455406
131 0.47452090777425693 0.08890201666451403
132 0.25841247813099855 0.2489410513824004
133 0.0825731144334988 0.2374360313223225
134 0.5765724923123676 0.9274029957152764
135 0.38821833647644877 0.24054706385938607
136 0.06464306596452307 0.7231825172736515
137 0.7951055865481378 0.7201450269202655
138 0.7632752581332412 0.5488175356878969
139 0.671973162743231 0.7139711687801322
140 0.9090958236398041 0.6194250658149897
141 0.1017363013087077 0.8346590201132877
142 0.40504803846864257 0.06440727816120784
143 0.6612908598893638 0.30200842548861095
144 0.01058385942193596 0.4827336714399848
145 0.12869232816911136 0.3999753325437235
146 0.7964261410571172 0.25003562448300143
147 0.2413828069165299 0.27714379449387905
148 0.047152016029821 0.5959971555783887
149 0.5690327189608392 0.3511448583499921
150 0.0911745239859807 0.627979488063467
151 0.7643898735462706 0.3800770817553397
152 0.8408343615259958 0.3321543553454869
153 0.7754786766522803 0.5812458650893815
154 0.8211831121854452 0.39242421687406326
155 0.14072394703853242 0.07045167992407819
156 0.5240828297496062 0.4676375034079505
157 0.18139620824520764 0.67453825104104
158 0.4764333225165909 0.024655948985116583
159 0.25590963766301655 0.14629722344542884
160 0.30144604225789773 0.9874690853917356
161 0.17141512502514644 0.3363041609263694
162 0.19283430308225447 0.5193581550604279
163 0.5458491964820512 0.14915772577172104
164 0.6410104085195683 0.2720181194885193
165 0.31414229602877763 0.01251664176881806
166 0.044922440717410694 0.8482011566113725
167 0.4639444265036241 0.28783577659027715
168 0.6587256209474173 0.18969915860067632
169 0.16642980588989964 0.010443029084642674
170 0.5113283714237432 0.01213681209194506
171 0.5004305562273234 0.289546910521965
172 0.6178795389917721 0.2880987252931303
173 0.5553499719270863 0.8791305586655076
174 0.4126361163039388 0.883306181152669
175 0.19689818245816748 0.4884080361893165
176 0.3769499076002215 0.3377680034003748
177 0.9614487885858032 0.39775977009211405
178 0.5939789617499341 0.3831518950452052
179 0.4539635848714152 0.685167955205243
180 0.9375441626169557 0.4927054228797898
181 0.2067573672523474 0.8828809775881412
182 0.7131954020345582 0.3145770521947979
183 0.4394275222620575 0.6470180564227341
184 0.6194499129744266 0.3261114389659052
185 0.1357313506699077 0.7086109977256603
186 0.9352090745532097 0.6008986109059445
187 0.9832374038035718 0.9823455775459551
188 0.518055114721036 0.06341741845607574
189 0.7645871847654007 0.34888826009574136
190 0.9071539300816293 0.9357046740778826
191 0.7607432401846776 0.10574120040339896
192 0.5754380741833203 0.6144585927153311
193 0.5396193068409325 0.07166281448382184
194 0.903085338638838 0.6365207884198977
195 0.6444715889178739 0.566113896584565
196 0.9505710408432171 0.8633232778060278
197 0.7351780869768965 0.2783933014342256
198 0.7578040919128401 0.08620675439603809
199 0.8494516189524853 0.3018872894328558
200 0.6397016163833801 0.7159436125659554
201 0.4419729592150279 0.5479248535900896
202 0.27510588481890186 0.11408073759209125
203 0.7565017559121621 0.2523540108973502
204 0.9564874323599766 0.8500008694276401
205 0.28267050637432223 0.6400513804457152
206 0.6136480596448879 0.7179381641264132
207 0.2802764705656132 0.13764689212897785
208 0.3714607559526828 0.8269234388847327
209 0.5722338406345447 0.24479791957654295
210 0.8040696131510632 0.11188540816924819
211 0.21870940525024085 0.03251687843789752
212 0.1547635283083867 0.9972011502899552
213 0.37413154398777804 0.35750125383492337
214 0.9407263354220592 0.6470117676375965
215 0.16854258708691972 0.12552863827058125
216 0.801448006850076 0.7282264714027924
217 0.8049829162752513 0.140342572439767
218 0.01551302750407213 0.13954941153601752
219 0.3324300735767106 0.8594954997446871
220 0.032388417552631 0.6255154589406475
221 0.371703955241626 0.9035169479716354
222 0.9025327848318558 0.7136534612162967
223 0.04986580921578854 0.154445653887751
224 0.22763150976035307 0.12145245903223834
225 0.09533570130194469 0.37360831381981885
226 0.8959714111621334 0.45959734115118944
227 0.5105837959427967 0.38155227831174376
228 0.14268963493839315 0.5350069209371862
229 0.511554921928277 0.11758042225369258
230 0.5162516442593246 0.8412922791130121
231 0.2081688785300997 0.22164554873253783
232 0.37159183243618066 0.9867112766863868
233 0.9725265319773798 0.36581123522848336
234 0.623695424745585 0.7811138778825826
235 0.34717082587443115 0.6918954482664444
236 0.8253293583252149 0.06699020657258958
237 0.7858950985032866 0.24091440549184284
238 0.20746674407199173 0.8523091404403776
239 0.5460330632786825 0.5209715598050826
240 0.882245362117174 0.8008076273558059
241 0.3248561521395872 0.31371469499282123
242 0.9262677784057679 0.3547155624366065
243 0.44582788157309705 0.43494397387677053
244 0.6623351997652727 0.7884035116698105
245 0.11540797303282935 0.900136880928402
246 0.9129050160972156 0.7577493174818882
247 0.128729258832732 0.9897762705115599
248 0.6050019804621016 0.9725786948653018
249 0.007573760635772753 0.8904499155334333
250 0.7026858374088488 0.36517995806720494
251 0.06953751800313168 0.3345530231449638
252 0.1926580561857535 0.1255090671137642
253 0.6817744072124913 0.3747724393731747
254 0.6639780579057245 0.6002021588632029
255 0.6013518762815976 0.5465039445423322
256 0.6015660159101288 0.5009652918985262
257 0.13090448596012305 0.05340766091984095
258 0.6455236012350196 0.5666630663587255
259 0.3076329124586027 0.03872891139328272
260 0.7127058821486468 0.3717778888521678
261 0.9879208947678457 0.11865110818362867
262 0.6583815023445571 0.38338692102610383
263 0.8694458723876033 0.08712999105291253
264 0.538970747143424 0.5517930549067254
265 0.1413068356424615 0.916154508224126
266 0.779022597707951 0.5017551308526061
267 0.4405706004045252 0.31793960101778307
268 0.865869087590621 0.0958944657848626
269 0.38526995104079986 0.17637987303448888
270 0.4996597347408135 0.10060917080945497
271 0.11756732588528274 0.028735932833351074
272 0.126477326552626 0.8849984492028319
273 0.482976968296966 0.8569717298437384
274 0.5884707008292397 0.227330009598386
275 0.3733544242346638 0.8237417330753304
276 0.7703035947090483 0.9301040916594346
277 0.8124379076495242 0.9645645173030528
278 0.15502628222546855 0.19626038102403887
279 0.22742346621451281 0.978288238007446
280 0.8679047370331252 0.6491352550168606
281 0.839877787849475 0.008960356174200879
282 0.8364963015212866 0.6215564209805573
283 0.14789363969332125 0.05159283365461398
284 0.6178161677743231 0.6241644847811816
285 0.15128159924074303 0.6784928031206504
286 0.1957393300260657 0.08326605581187319
287 0.8627397230341406 0.16507217148898912
288 0.8759551829677187 0.8714929164645163
289 0.28774089658740165 0.04542611947818709
290 0.5739771261036174 0.8866724007178443
291 0.929603960730572 0.4542053928543419
292 0.9952397006350008 0.8739479970922375
293 0.02307847676114705 0.7763217389936814
294 0.4655070087107076 0.25880148073071874
295 0.9961140547949835 0.4093733864071941
296 0.21599599819216309 0.8086239131007884
297 0.9282610699131415 0.05375083756258481
298 0.58422810802602 0.4012995715952079
299 0.11308730289906022 0.8852900294054755
300 0.6559157188428665 0.36471383672895585
301 0.006485189669387825 0.0012066378827213509
302 0.09517874100559087 0.9090401894431658
303 0.16584762488172444 0.9474404641210913
304 0.30028953604299713 0.11494780508291047
305 0.6533594777307886 0.6829493642440836
306 0.2704103044035949 0.014297700973942229
307 0.7154579137778063 0.058744835033709975
308 0.3579526247109174 0.630314196709984
309 0.9944345740448511 0.5086657771780185
310 0.08457864687881322 0.1334472345047818
311 0.8041415994819189 0.47310108456833366
312 0.9058866557825509 0.15603764783878626
313 0.12721177569857545 0.8401752002137453
314 0.6348352296795204 0.6079072210581313
315 0.70379599215544 0.8176088190831269
316 0.23986414196330474 0.35015790600190144
317 0.8541588278827159 0.13290462193052854
318 0.8069075426158109 0.6301972441716956
319 0.8609299798961699 0.88767917443517
320 0.7719684771724787 0.1683811261796745
321 0.025832061810034723 0.1954902273545468
322 0.28347845579296915 0.53438499468558
323 0.7748067803739772 0.9548494958734941
324 0.0823004567226796 0.22743995211034918
325 0.5386085569980337 0.9621074190184434
326 0.42236193809427647 0.8925497091869306
327 0.28734014903858274 0.4165950088092575
328 0.4456305052654823 0.1752349726189687
329 0.4666592688997727 0.7435076335189014
330 0.10375673901195859 0.7035509830246807
331 0.3312766548690712 0.4347484047517226
332 0.9167180283082138 0.638854037347838
333 0.2857950139304254 0.73792925661155
334 0.23250391403925885 0.4469319784143221
335 0.426691944157527 0.8621826010956669
336 0.6908704983061565 0.48639773157886323
337 0.39245999645243235 0.3705424050493391
338 0.7061983497735959 0.5335609306222048
339 0.48441849017894156 0.07139569249279032
340 0.5904561688036263 0.2994024566490677
341 0.7723437810796346 0.8061002946079892
342 0.05646779620690667 0.9863582039814163
343 0.9021399444958305 0.26676611436236186
344 0.8341808615619052 0.35151352690485915
345 0.5442431714493 0.8720398528101605
346 0.9823021571451581 0.8209507054282849
347 0.7455629357766586 0.12467531890807215
348 0.7838203839152956 0.2789574966143874
349 0.7311324599177509 0.7590331770606141
350 0.4912970237022518 0.06948350088209843
351 0.7414339649452026 0.4442726588488187
352 0.638382514293649 0.713722913543878
353 0.0822079792396484 0.7351216659935529
354 0.21615866842097642 0.44506458011910655
355 0.11786221861754909 0.637624775255027
356 0.2618830152629975 0.36997675962801135
357 0.2221622256746646 0.82523805801399
358 0.5791579161649036 0.01652364848555299
359 0.09779217705663645 0.5960384270004374
360 0.2925849660665347 0.5020155951105413
361 0.14919890524320123 0.9997638997938684
362 0.6351668690795454 0.6152500629602765
363 0.0325281063601901 0.24312852468211188
364 0.5439353515155656 0.978678341579195
365 0.9444484897198946 0.5334139602398739
366 0.4172379136994411 0.13127393550945732
367 0.2056715141794293 0.5791220365300226
368 0.9002508634073134 0.15055489896584673
369 0.6866265779098059 0.2979640281700796
370 0.6595663451526156 0.22174026807224434
371 0.6986854080562417 0.8680840259504317
372 0.8860937973714701 0.5155073560900891
373 0.16685982814763523 0.6487141584238217
374 0.18139150400018145 0.29169331414069044
375 0.7886317543833617 0.3744663718062452
376 0.790099567991125 0.2950601406823843
377 0.41349193935154216 0.6694848227783609
378 0.043547688165984644 0.7581704562467776
379 0.5709888695965298 0.15150281247268482
380 0.11117544130165657 0.1354022953984204
381 0.8995126511279112 0.5406826513236628
382 0.5024063391818563 0.5332757455459759
383 0.4598563767845635 0.39386104026504964
384 0.08015413411144601 0.7110291587660712
385 0.8286710357335652 0.1106108847433378
386 0.22378644978844164 0.9005907887290124
387 0.99194360543791 0.09634476519455182
388 0.4061119641513573 0.9117750483997998
389 0.029994736320138937 0.34763715598802936
390 0.36416574714305616 0.2867473294849542
391 0.8393020504902527 0.416097567575741
392 0.42366515384106274 0.25802582670809815
393 0.6819979488345574 0.01430343991902927
394 0.5689085667196311 0.7258896555895945
395 0.7286330879334998 0.6161931953404088
396 0.7780152415670751 0.013860278747462873
397 0.09282863228582605 0.1764644860761081
398 0.24575198436122514 0.22622838956830915
399 0.8940901521155371 0.6139257892286288
400 0.49095449792677803 0.5021523842202399
401 0.37865545534299294 0.7282156079893644
402 0.5194817342834934 0.1122427875820784
403 0.5210062053495159 0.8483489791599355
404 0.12111938694877766 0.21237981824456886
405 0.8373859290273088 0.890917619995941
406 0.9441634901730565 0.372106211754229
407 0.2198119980536526 0.6785858772688572
408 0.3572256283206128 0.5877491769393238
409 0.6540622401308549 0.4754851878478171
410 0.9443855191649256 0.002755906663673202
411 0.401030884876733 0.5131704029759133
412 0.22007592247142282 0.9363562392075333
413 0.5986190312850714 0.5714003557303853
414 0.14274880985783178 0.024962014203153915
415 0.9713565898795032 0.23105555801924982
416 0.8629826393255083 0.7895299719743969
417 0.5499681040960616 0.4006818724287855
418 0.8888416403180135 0.3690619728004265
419 0.24447937893445826 0.2642405649478764
420 0.4318781125947144 0.6324636225994318
421 0.615998552346129 0.9250027350058974
422 0.343383270752011 0.6317551377332083
423 0.16132698204384344 0.31824248102971764
424 0.01910298730498039 0.15535322523867223
425 0.7284401483540955 0.8784978794895862
426 0.6194576867423923 0.4611128061940718
427 0.6032347015233298 0.9285583908851643
428 0.9804359982083712 0.9836923183344006
429 0.6949149698946083 0.06680701623391994
430 0.6794797716484776 0.10651215914629064
431 0.7040502374708761 0.9651053421994406
432 0.9436324374837977 0.03107254358908873
433 0.7562273252164713 0.4131222801181458
434 0.24088263878081406 0.6129021068302823
435 0.3159118346251012 0.5692397472851749
436 0.9042465603222019 0.9838280399905163
437 0.1040306999434123 0.27482404508990244
438 0.1520228056837053 0.7862534823793659
439 0.9639946552063077 0.3730123824513484
440 0.4032022073418916 0.12696155020285183
441 0.6642482105000375 0.9574437258949032
442 0.41293602278028974 0.9064680644111631
443 0.2820430475317043 0.7593743274907396
444 0.2001786831577641 0.42127650668387195
445 0.6013202512501237 0.49845263159302666
446 0.6520466229448931 0.9536695458136911
447 0.9105218506917608 0.5582007722049407
448 0.8182690514878729 0.9176307527999156
449 0.1550012958367719 0.915062395155279
450 0.3319342853049483 0.7898188656837953
451 0.6539534528342663 0.7507774160326576
452 0.3116911134324274 0.7430138677942802
453 0.9547074677220295 0.3572625183344885
454 0.8687397043126491 0.9632728211371859
455 0.00794597647814621 0.170946761926823
456 0.13439197387244528 0.7457550524690915
457 0.5864579481528267 0.9454468242532937
458 0.6480050494422478 0.9287841119078766
459 0.9583516132103599 0.3586483120607169
460 0.009136043725333054 0.5715931344200694
461 0.007897708105979229 0.04304174570343633
462 0.8606205833741915 0.8901224259694474
463 0.17488820549461936 0.23403881935463056
464 0.4360605849223317 0.08627455363680303
465 0.7619177902774226 0.6488645157732524
466 0.6166721196511785 0.9572517015237344
467 0.9458309408014671 0.08001219997616771
468 0.9651321155166894 0.8561028190696277
469 0.07927252530458495 0.20065209606634615
470 0.6584891358362754 0.07554520909073514
471 0.04706276091396622 0.6405100944963527
472 0.3069818720982833 0.9239425477128279
473 0.8736546191685692 0.37993682439971943
474 0.8197715963367671 0.6914608457380086
475 0.44477494994318545 0.3129458000948053
476 0.5631525816211951 0.6645826006539411
477 0.6581275388498934 0.1335386682253339
478 0.19317023163464686 0.0337372840456277
479 0.3296663385193698 0.3998282531899694
480 0.6361465215549474 0.9146813502314225
481 0.557612430869332 0.872989159832805
482 0.1096784629843538 0.2159586650435873
483 0.43595324460155427 0.04162657459505126
484 0.14535244520047907 0.46037145796533097
485 0.3644909798630829 0.44686585102115184
486 0.8521025737400413 0.6999730151665748
487 0.7839718232336346 0.38850398455650703
488 0.25361248014769266 0.06669395180882376
489 0.32018051173712114 0.7772486004881773
490 0.2236282528221062 0.7315680381743677
491 0.2792497551925226 0.632750487877595
492 0.6771564953018531 0.22471781258544987
493 0.9582224593290316 0.8038704751494923
494 0.8778773544180213 0.8838637969779035
495 0.7659284074474125 0.7511534486728364
496 0.8899618199477753 0.37380693409054855
497 0.41262295111093705 0.9386410385683647
498 0.14440657583357697 0.4170986561164597
499 0.9280691237160079 0.6219555059503638
500 0.7664240804422667 0.585531379131202
501 0.014629743431222808 0.7045300596370557
502 0.990285024661893 0.2381171922185139
503 0.20320432250831455 0.3086328223189009
504 0.8057114636302238 0.49961239871222096
505 0.10987363428038377 0.26142652309665393
506 0.25799671386309686 0.9578876803199898
507 0.037632752636843736 0.3166881765607793
508 0.3371002076308752 0.7127915130636298
509 0.9129814452947179 0.09334906821295308
510 0.5166076965327425 0.31721203983979573
511 0.3038870552870222 0.010139716908725616
512 0.6098422423089518 0.8325185242592028
513 0.46172569820632015 0.9927155338657835
514 0.5552863501382298 0.4742519357329845
515 0.9102718802261777 0.5741135939042579
516 0.7161772811644497 0.45129242214022947
517 0.2260730986455599 0.7318549680524069
518 0.7326876955669498 0.7844320579953257
519 0.7034765818317437 0.9420043619575104
520 0.19441138811589898 0.16100333331084105
521 0.3905265950506336 0.055484249000464114
522 0.3016987413008242 0.26137252759638263
523 0.9590331598989421 0.908289574405631
524 0.07453264170435259 0.4781348112389081
525 0.3104261899542454 0.918964732156456
526 0.4885715500308847 0.18485059665776082
527 0.5783785467908933 0.4546011184730794
528 0.3649941919797405 0.10506666317744096
529 0.6960041883671566 0.4556341173361126
530 0.24174555155266653 0.40384544325052485
531 0.6856909770967705 0.0868549846411093
532 0.024725430110931756 0.6826320958874312
533 0.3053558559192465 0.12813451909998252
534 0.7339976711035235 0.03528105967299999
535 0.34737034776925557 0.6112917001765193
536 0.8614236159661648 0.8221821503294741
537 0.7321341352428229 0.552662130810761
538 0.3302412572776997 0.28727942345796265
539 0.40355181577179977 0.083719957546318
540 0.5864997710871686 0.012732548794550103
541 0.9439141227966401 0.8750574375756411
542 0.6795985613250168 0.7871088931362911
543 0.5678130773887451 0.8575679192482656
544 0.30570636144942454 0.3744145798197823
545 0.7933233692306386 0.4635630709108395
546 0.42141585028177186 0.5430299880800467
547 0.3502426023165961 0.18461219966624676
548 0.4288451491424701 0.5459203054845814
549 0.7898621208606946 0.5116057994172536
550 0.5713265626375358 0.9939166386697964
551 0.34259069328266945 0.013649353223675442
552 0.5240649260390118 0.515501064213275
553 0.6878909846442549 0.9305512512125232
554 0.33078368209078546 0.17904353754901992
555 0.3653956176252594 0.5807869631042075
556 0.8744202693467402 0.9902323881234539
557 0.1388178949044958 0.35098800702948085
558 0.8135429316751076 0.6217792031450903
559 0.33584237697389696 0.6324113986093571
560 0.9194845881422649 0.3235460955751621
561 0.13656428874584414 0.48123668407755316
562 0.3577055079058007 0.976674560919959
563 0.9038974717889694 0.19447416157978048
564 0.9053692075061242 0.16499132471938083
565 0.18261366138359503 0.5671800633548071
566 0.41649016759459756 0.7660906607466053
567 0.9299670088213164 0.42799098914722256
568 0.6443663760818462 0.6591875447061594
569 0.2155587594530265 0.825629360820959
570 0.16757393047604285 0.04204136271069703
571 0.29365626738606476 0.9958178861165451
572 0.8506113584370404 0.4956538774546393
573 0.11354083652095293 0.6693978381022555
574 0.9084150099743532 0.1546194652005981
575 0.4466950535233324 0.05720668228061565
576 0.12552917287376975 0.5741048286124502
577 0.014034599752067445 0.493249983812314
578 0.3576968669118451 0.7057112857183607
579 0.6532045180450673 0.6421911727775749
580 0.5166180346723597 0.36440752299596624
581 0.10101996233207666 0.8276204811955977
582 0.5095213935318796 0.9964995956895474
583 0.2346943570079456 0.19846400775934758
584 0.8179123444830706 0.7283299220552132
585 0.6602125519108948 0.8841021020837011
586 0.3105916002725515 0.9013448070771287
587 0.9212053987446293 0.7468843077140745
588 0.7889344858514119 0.7110756358201
589 0.2981201149804986 0.8608315324317486
590 0.4119265294933506 0.06192414821695669
591 0.8991390697403773 0.08397624593898168
592 0.05403151585118837 0.9080820093647473
593 0.818500529021886 0.8896533428831076
594 0.41614484754967307 0.24631090297306024
595 0.3368478799464728 0.6397438931956969
596 0.7938888333042673 0.036412190865770966
597 0.060205673503856194 0.7158252710439595
598 0.5891427853533429 0.7633324777472459
599 0.9524670238209346 0.25402354774218383
600 0.4957468231624975 0.015884469644475097
601 0.15823804942285624 0.34936289106691776
602 0.6929458075817784 0.21327507822022707
603 0.5617790136360123 0.6744423394566396
604 0.2691582738468419 0.7419058133882944
605 0.9184470813460697 0.2470474218176164
606 0.604467755466384 0.008315166768544824
607 0.17946065668073852 0.18879265281300572
608 0.18784598091225302 0.3571014410540345
609 0.9002474965670973 0.18986923092752228
610 0.2225669079036423 0.8828077073276213
611 0.666680582326441 0.8526444168216111
612 0.9034328250765582 0.8908346137948795
613 0.23866671779536974 0.19832743475233827
614 0.4088697668488097 0.9314898716909249
615 0.07826122497100718 0.4534985395696256
616 0.4233712456411821 0.48739323088703246
617 0.22959609656742375 0.4398356898482285
618 0.20840518373167194 0.9542335500761525
619 0.08491642028632895 0.621717986495339
620 0.8563728995044073 0.17471109524851725
621 0.18492073270663523 0.7675162557373972
622 0.8144198242196908 0.015717768237789254
623 0.23258499701777513 0.4498389914882941
624 0.49112089592512465 0.5102730078896505
625 0.7166076224841599 0.018219378071285153
626 0.7061243837906609 0.027204253395910705
627 0.7643440462686327 0.8044655106150356
628 0.2418892839717216 0.7004086776511427
629 0.3594908637585209 0.4832888847786123
630 0.8719258824209776 0.5736050309541962
631 0.6494069461257309 0.5093349720819023
632 0.20318495457558083 0.777674102618524
633 0.9536265758418703 0.47558275828918195
634 0.20056962056280492 0.7655801567427325
635 0.1976900740461035 0.6250141769227203
636 0.10014809635368549 0.07501338521492407
637 0.5837287609977447 0.4021520928122321
638 0.2879097364197625 0.5881798494162507
639 0.00513662544057214 0.4361952632715783
640 0.1743647926207187 0.652564126805359
641 0.27601685902049544 0.4801373666189137
642 0.5221502847132166 0.5636606836300555
643 0.268761179880067 0.2647471745575487
644 0.8816918843835889 0.44264216624697483
645 0.5728290246467002 0.6108104616940283
646 0.11388273953276062 0.6352918624880715
647 0.929155088322932 0.523938465894206
648 0.11160669426742664 0.2869850964868832
649 0.12296894349376364 0.5462119467379098
650 0.8895631280009525 0.25190721318522336
651 0.15311076858909245 0.80036863651484
652 0.807073172247949 0.26479204433448345
653 0.5663062443283657 0.7521182845308523
654 0.31257635432626607 0.32365762299143785
655 0.7221835456045984 0.07505287511293035
656 0.6625907270332523 0.8537732418045694
657 0.5889505422777356 0.5390208411204646
658 0.6758900989247135 0.7856762515105715
659 0.9195208039889505 0.7240931681101735
660 0.37455879219132016 0.43589445878564526
661 0.8832596995803539 0.6093917780626007
662 0.14016753270031646 0.7971589742944054
663 0.46903417461257046 0.6190159263191618
664 0.30018958734115075 0.574963792358218
665 0.7816545668899403 0.6292073410653959
666 0.9007532222212682 0.39587782696680773
667 0.7228016580512356 0.2113122008489875
668 0.7293091437590675 0.7119201783295394
669 0.11903364333646427 0.7602238001526668
670 0.653074542858719 0.9655566228250657
671 0.4900252019666198 0.32727595126927056
672 0.47751804831967304 0.31627658298713
673 0.6819754946310064 0.7660418724957367
674 0.1134749392892197 0.6723717373684485
675 0.900714941608865 0.2528689864137298
676 0.23030855383231896 0.3251968785254936
677 0.9695051157009072 0.48774102588553214
678 0.24520270035052583 0.9479778891959785
679 0.9041466321204404 0.039118884017545374
680 0.9015768901117232 0.3663040663572733
681 0.3167603306275175 0.2763780572367487
682 0.1417244544518903 0.7259906693241102
683 0.08684971857178703 0.9611322019470154
684 0.6847160092980502 0.15527439534419352
685 0.8804740171687071 0.41788498754345604
686 0.42127128929281243 0.5669718192421569
687 0.12474145903473532 0.4060353695620591
688 0.38618509213859875 0.05158904369066608
689 0.11053922431255259 0.4264579115846363
690 0.15661106964130023 0.7132782929440981
691 0.6231652938055796 0.6069485232915333
692 0.33026098172418117 0.8103635351776126
693 0.5188180141657462 0.6368052033360165
694 0.31266313433170034 0.7629089904553447
695 0.3986023923605323 0.8530137059244559
696 0.1930813992399465 0.3204985390140167
697 0.4075605416679917 0.4309106167467982
698 0.6566360134311174 0.9498915090190763
699 0.13237555636862686 0.43780492546637073
700 0.11339720267615327 0.5252973166690461
701 0.1795382530196784 0.7450560615825053
702 0.18178408337480145 0.13154720175047607
703 0.7456813268743786 0.44691290578625864
704 0.009490108873034364 0.07479505163599653
705 0.19024543235688274 0.873076490861719
706 0.0677153008745841 0.2681471880925942
707 0.28175348513274434 0.09284421476962146
708 0.191782017644327 0.2975827372434159
709 0.3123172320033666 0.18438140440505468
710 0.018437428897309704 0.7998710577018247
711 0.3501207001410207 0.6858925540064811
712 0.24112527028197983 0.8202319723833044
713 0.37084154397229696 0.3704754616099465
714 0.9942130057052916 0.5982385048005996
715 0.6102298403369893 0.8919303070539559
716 0.8773533190445036 0.26385663505296275
717 0.4364049438346723 0.8882683659685551
718 0.5169763331215272 0.5468321599223385
719 0.3877336100190283 0.9914673823876492
720 0.11916671171340709 0.0010087403179128707
721 0.33338864170112303 0.8436775762652786
722 0.5048163208725176 0.17456461220681685
723 0.20640942651751937 0.7340802846744156
724 0.32820864059006516 0.6137275461951441
725 0.2222247874642994 0.9167810647947653
726 0.4834522775486556 0.5389167809977214
727 0.9010072130044807 0.6111317727653215
728 0.2695181292547665 0.72223477946353
729 0.6857971646795668 0.6958659417558732
730 0.7815800147079979 0.8865116123318367
731 0.19140036653589176 0.4771299612338905
732 0.8464483380575947 0.32875363273139335
733 0.030155044391247277 0.119728930730014
734 0.21039316116915097 0.1820321787143393
735 0.4190915734775077 0.19006036784833003
736 0.8147240516153833 0.5998952338572411
737 0.07362885494054727 0.43469926571409157
738 0.16106544570080172 0.6377415818183336
739 0.7923765650904204 0.9055266717923475
740 0.3013374671645518 0.4467347365130371
741 0.9142850929574642 0.28067759535636494
742 0.16903931641854775 0.7019125248643244
743 0.2778173528812976 0.10705498177209727
744 0.9501483770641472 0.038306647728220455
745 0.7297840691903086 0.8780140209447944
746 0.3376283812706333 0.9286575063012799
747 0.685414032903007 0.9236997223280341
748 0.7909269835914732 0.17166530832710958
749 0.03429863001970268 0.42281857776861154
750 0.7246809041409856 0.7607462483387071
751 0.8601143720596625 0.4310462120368579
752 0.8918430911609656 0.6472548837793747
753 0.9826204383313548 0.111999117197635
754 0.845472430491603 0.06677538448395215
755 0.5621453933802323 0.7333884006697422
756 0.3215365552628635 0.13735672165784008
757 0.8479182207604528 0.07258124793046128
758 0.30762279543009874 0.10829990283066204
759 0.9224712284296824 0.6488340578481987
760 0.38968575728377286 0.4992906685074029
761 0.19765664323368648 0.5518420729095777
762 0.009365521179238057 0.6025389632144815
763 0.5374609973928042 0.6214622103754521
764 0.9682944913667555 0.8926143157519569
765 0.6447753170953511 0.6115278884849801
766 0.6538806692969726 0.05526608454636395
767 0.5753771989677923 0.12498579661930698
768 0.26529169819852405 0.3202583681431328
769 0.21569030777132847 0.5256081993235097
770 0.5902997622068701 0.15744753002447676
771 0.7026829120882571 0.013408077369344351
772 0.6209444635967281 0.9988792181172467
773 0.3653643110185113 0.46753277280485883
774 0.5265821332195101 0.7791094801577952
775 0.28177032453311857 0.6894141075189698
776 0.5612651536620764 0.6633796262152422
777 0.27067298425621045 0.9975991835209377
778 0.08037017333295327 0.7036741339246233
779 0.9042874727500628 0.6050914469749508
780 0.5120895446271928 0.7653629198994768
781 0.5303558035130128 0.32660427133130865
782 0.0680835797612952 0.24032443054681796
783 0.6846401466639045 0.015066591477589042
784 0.2805713200172947 0.6148046593126357
785 0.9898418659944388 0.21082984928673287
786 0.8801390540422219 0.37501277820470114
787 0.3948579501684013 0.13743366506949628
788 0.1469502901680536 0.502524013304358
789 0.512217516315671 0.7629459762950878
790 0.9770526021733819 0.9827823409947206
791 0.6484612887523875 0.22249249242006663
792 0.16209847253685117 0.9648463598815067
793 0.317736097896013 0.9234220896852587
794 0.4303688473923655 0.23399246760951764
795 0.00018846522005089295 0.048077679621717495
796 0.22796765299744837 0.4157516123331556
797 0.44359227320862327 0.5044813322288626
798 0.8341140413687758 0.7003132755562916
799 0.4434070666412512 0.9147787893122824
800 0.6375827292363858 0.1933882135870687
801 0.9676550796606014 0.27307289906448384
802 0.1141096295456715 0.8628067888695666
803 0.2504712631425873 0.8138475491326649
804 0.729735640393101 0.6508060564600245
805 0.14724877260945524 0.9311220258816939
806 0.43711317261066107 0.543483163062157
807 0.7437487194656153 0.42620164221918044
808 0.8064237514807939 0.8162586832538463
809 0.6450181133500528 0.06460108746194149
810 0.24111794046414792 0.36950764782463996
811 0.5586495514408881 0.5975464644754276
812 0.515904775552305 0.6490443268533141
813 0.9520341252527633 0.09837649121368297
814 0.904846658540652 0.520428624937951
815 0.3096544739446878 0.6474868585394012
816 0.3431341430617211 0.3026992353272755
817 0.23985269219955507 0.3927590676029056
818 0.5400889701339893 0.48832096906173794
819 0.45495454806385716 0.7693226128439482
820 0.9216693983614064 0.46611395082602025
821 0.7161044550374519 0.85916738252108
822 0.5892774376108044 0.6593396389860723
823 0.616182993010218 0.196005306620885
824 0.20883787830220057 0.9093801883385376
825 0.02285230664553395 0.5451830677385385
826 0.25843587123187206 0.6316426773515164
827 0.714617060587669 0.4650503020909077
828 0.2237783288760078 0.5740403297307698
829 0.7310794846868814 0.9356862694760226
830 0.36531278293204017 0.14882358104040783
831 0.24038962288494348 0.7803787263192913
832 0.21837581939620765 0.6833866014213843
833 0.4150879851423497 0.944029630950424
834 0.09096652252623794 0.24881724591009746
835 0.7729536755242757 0.962457573021904
836 0.84144286892837 0.9558506865336247
837 0.43443336671707755 0.5781444864372602
838 0.8166506132272453 0.7344699801346232
839 0.9229453908715227 0.8952646741079098
840 0.10523793761076783 0.5260773920878559
841 0.3182843946878553 0.5168299028969334
842 0.749660967765266 0.5657058964687781
843 0.915507011414037 0.5625803031916806
844 0.16641474393938038 0.5177620046981485
845 0.32263696377612805 0.2913029311966189
846 0.6537223210509486 0.61725731026767
847 0.870824082050429 0.6501483674941746
848 0.3462668108245207 0.1485378133887404
849 0.9227770765278255 0.37749490462571345
850 0.26411103596439567 0.5703446592979521
851 0.43791251657512054 0.7567990768081793
852 0.34784722824785175 0.5029627560358386
853 0.29842374251955406 0.22743082012444948
854 0.7484446818388145 0.2104126128484185
855 0.8678563710745578 0.18905844569740393
856 0.0033502480661282696 0.536754276661589
857 0.06716688400647897 0.4693036783050136
858 0.8228012047851453 0.8648783993859067
859 0.6541465954172406 0.7933265476393466
860 0.19768354649885778 0.7851312460124173
861 0.9209798848575369 0.516861458861268
862 0.30926886231170003 0.3292845978745813
863 0.7626541623031251 0.2648928966187617
864 0.7579227125738178 0.7752846412607249
865 0.4964586563635436 0.8395190638321419
866 0.7379883709552046 0.8843976753561373
867 0.8622326747859893 0.19431980621622114
868 0.0958025606874442 0.5522894658098384
869 0.6832154965288315 0.9883167937915125
870 0.968173296677245 0.9029326479684944
871 0.5186887151435604 0.00384571429634617
872 0.05311197448438276 0.7661018025582281
873 0.9997955321455836 0.4899638804360693
874 0.5371525873741968 0.4024744140606107
875 0.903466109630835 0.7096162006458285
876 0.03241626050589985 0.22430143428210014
877 0.047879061171372195 0.2530838079948522
878 0.8259271761467156 0.8124637319965191
879 0.33740260347507756 0.06788422762578072
880 0.814867058476635 0.044660613020506945
881 0.5154287475294563 0.17645075447249614
882 0.3449155048375878 0.9862724481941566
883 0.642487165393009 0.5944165984842623
884 0.07178030096422983 0.690182090514058
885 0.7460217528567764 0.387654367091135
886 0.27973645714932993 0.5439934864788625
887 0.42792234310019683 0.13561549972056508
888 0.5450837973479169 0.2156364042305906
889 0.16435431279748935 0.6998384622028934
890 0.8349662639560588 0.07368726772948642
891 0.5347371145492805 0.9443113147481638
892 0.8593453092692112 0.025714355124418442
893 0.05363444630102476 0.30361315935714983
894 0.460441928097149 0.7544900500195317
895 0.12809053779843538 0.252056098400398
896 0.6604304133732476 0.6485833332170591
897 0.4434944892094165 0.398563238110927
898 0.7239895505043838 0.7055633117812519
899 0.1956876738422707 0.2485952367290345
900 0.9426405178684479 0.028172701402616518
901 0.6709165181521876 0.029611258613818303
902 0.7422243297444497 0.04602949243671961
903 0.15450520275794544 0.784023732770979
904 0.6996846886161115 0.06220892822303592
905 0.2893984834149024 0.6206417809243859
906 0.17463342075479193 0.4169978373808031
907 0.47794660698428104 0.24725760663191731
908 0.7398964183037594 0.9132736842516662
909 0.7491598393431409 0.10108322501819411
910 0.520925048630894 0.89390013292198
911 0.2301565214518796 0.19057723471931876
912 0.3327191484454014 0.16897198030237115
913 0.31810491544557873 0.29084219471343653
914 0.8656989302342203 0.18206439417889775
915 0.552162267027775 0.10384827589501688
916 0.907967326159804 0.12833803683987366
917 0.4159749490819753 0.15641471992905642
918 0.9447219153739312 0.8712426776930132
919 0.7189900162973633 0.21200677794352307
920 0.8072241061122382 0.5924951348770774
921 0.9184633332064043 0.03677975803124334
922 0.5321920914830204 0.8283144899003654
923 0.7573998373618875 0.07196106670635649
924 0.03011071061477244 0.6449374125788451
925 0.3609380468986829 0.8201231206435244
926 0.3168723277760881 0.10906230261994376
927 0.6494897260016372 0.653294049591572
928 0.5924005174128367 0.8194093724719552
929 0.16502342971109973 0.09429789189577875
930 0.9744860649422493 0.8975382771142278
931 0.583468148115645 0.5971291211062693
932 0.1893155863170597 0.9855060421188504
933 0.2994184967749457 0.4665809906455596
934 0.5662855265515948 0.7792018690224024
935 0.6426335297042043 0.6064336055942375
936 0.8324324815481855 0.23225778246844786
937 0.19051318344622137 0.6254790741029226
938 0.3463752158767457 0.9190003543101926
939 0.9014916130987483 0.5575559398758172
940 0.15959015256781117 0.5007779028417321
941 0.2126048411843363 0.5125875435562842
942 0.41249586321933973 0.5522610342983579
943 0.7210351225030271 0.6408099085301506
944 0.2865063047209546 0.9355723403041515
945 0.24000004223830174 0.8025508323859464
946 0.4988936210074616 0.8001217782130918
947 0.41053704424476456 0.594156828511064
948 0.5025102965435527 0.713243465168469
949 0.38239711076018845 0.5962881360315675
950 0.3955893039055429 0.05972426040395962
951 0.9737233295897713 0.42156010242159336
952 0.45358353410336316 0.3101902762116614
953 0.5619961688948634 0.4948586304516005
954 0.7089429342422618 0.527453292750272
955 0.5227384857276405 0.6221934270133477
956 0.3157038799655907 0.6896979060828364
957 0.18758158176392425 0.9780080104034982
958 0.4392061683603363 0.26525407892037034
959 0.574367085501747 0.6104934876449932
960 0.5885802604164546 0.2057561083031192
961 0.009972939718581486 0.37021386028616
962 0.08540536618594641 0.8070126770373532
963 0.6059462782158155 0.1713334859420731
964 0.03889422453286406 0.7490104782711315
965 0.713819046076891 0.3293728757879836
966 0.47005019092377587 0.1804314751670999
967 0.25850656956318796 0.9312442310130428
968 0.03521703851683011 0.3882585827326759
969 0.34382347867235397 0.6878910176703718
970 0.752136915361802 0.2023964367057295
971 0.4650757926872646 0.5383926207064856
972 0.962147698227503 0.5743517919147556
973 0.022839356465898297 0.5432404559468966
974 0.5471330653396574 0.1458676671789647
975 0.05537775617092655 0.20446440286401435
976 0.18214790501817568 0.22640266662339803
977 0.20820376328604595 0.30252359146284846
978 0.6277474281679306 0.011233770280055122
979 0.541174470299351 0.588360868120396
980 0.5011894367669706 0.7909287804828858
981 0.38329342444032166 0.4980078499327063
982 0.13919279882083746 0.06770294781058861
983 0.004772823590149966 0.6450526330767576
984 0.9618445554146431 0.7954829699523377
985 0.16786011588260807 0.5820068555290681
986 0.6700494249107322 0.01613353938708506
987 0.713591551337472 0.3467757765806774
988 0.014892191428242385 0.1252685057117522
989 0.6771574537989141 0.09736721034526874
990 0.42349839585414795 0.29557306208140854
991 0.036672459376137057 0.06397742372465154
992 0.45478396433502566 0.04755787544801504
993 0.2467059852512451 0.8153953565836753
994 0.8559362635509182 0.022184155184826637
995 0.7261562749071444 0.43544658719074747
996 0.4416931482938493 0.5471382595719902
997 0.6172549630548099 0.962644794236249
998 0.4247366717130636 0.8771659587934924
999 0.6308209824069787 0.15262675411026771
1000 0.6214532595917974 0.11779041008172308
1001 0.8600013129899023 0.6675463275751253
DEMAND_SECTION
1 0
2 4
3 9
4 6
5 6
6 1
7 8
8 2
9 5
10 9
11 2
12 1
13 6
14 3
15 4
16 6
17 7
18 4
19 4
20 7
21 1
22 9
23 8
24 8
25 4
26 6
27 7
28 5
29 4
30 1
31 5
32 2
33 4
34 4
35 3
36 3
37 5
38 4
39 6
40 9
41 6
42 1
43 1
44 7
45 1
46 5
47 3
48 4
49 2
50 9
51 5
52 7
53 7
54 9
55 6
56 2
57 3
58 9
59 2
60 6
61 2
62 6
63 3
64 2
65 1
66 4
67 6
68 6
69 2
70 4
71 3
72 6
73 3
74 7
75 5
76 1
77 5
78 3
79 9
80 3
81 4
82 4
83 6
84 6
85 3
86 2
87 6
88 4
89 4
90 1
91 4
92 5
93 3
94 2
95 2
96 2
97 9
98 3
99 9
100 8
101 3
102 1
103 9
104 4
105 5
106 1
107 8
108 4
109 4
110 6
111 1
112 2
113 9
114 1
115 7
116 6
117 3
118 1
119 7
120 3
121 3
122 6
123 4
124 7
125 8
126 6
127 8
128 8
129 7
130 7
131 7
132 6
133 9
134 7
135 7
136 5
137 7
138 7
139 8
140 4
141 3
142 3
143 1
144 2
145 4
146 2
147 8
148 3
149 1
150 4
151 7
152 7
153 4
154 3
155 3
156 9
157 7
158 1
159 5
160 7
161 8
162 3
163 1
164 3
165 8
166 3
167 8
168 2
169 9
170 6
171 5
172 2
173 7
174 5
175 6
176 9
177 2
178 7
179 7
180 6
181 1
182 3
183 6
184 4
185 4
186 4
187 9
188 9
189 6
190 1
191 4
192 4
193 3
194 4
195 7
196 6
197 6
198 8
199 8
200 3
201 8
202 3
203 7
204 9
205 7
206 9
207 3
208 1
209 6
210 8
211 8
212 4
213 6
214 7
215 8
216 9
217 6
218 1
219 5
220 8
221 3
222 4
223 8
224 9
225 5
226 6
227 8
228 1
229 8
230 7
231 8
232 8
233 5
234 9
235 5
236 2
237 3
238 7
239 9
240 5
241 9
242 9
243 1
244 8
245 9
246 1
247 2
248 9
249 7
250 9
251 5
252 7
253 3
254 8
255 6
256 9
257 6
258 2
259 7
260 6
261 6
262 9
263 2
264 2
265 5
266 5
267 7
268 6
269 9
270 6
271 5
272 7
273 8
274 8
275 8
276 5
277 4
278 9
279 4
280 4
281 8
282 9
283 2
284 7
285 7
286 4
287 2
288 5
289 5
290 8
291 7
292 5
293 2
294 9
295 3
296 2
297 6
298 4
299 7
300 6
301 2
302 5
303 8
304 7
305 4
306 5
307 7
308 3
309 1
310 9
311 8
312 9
313 8
314 7
315 3
316 4
317 9
318 8
319 3
320 6
321 5
322 8
323 5
324 9
325 4
326 6
327 4
328 9
329 9
330 4
331 3
332 4
333 3
334 8
335 2
336 4
337 5
338 7
339 4
340 4
341 4
342 7
343 2
344 1
345 7
346 6
347 6
348 4
349 5
350 8
351 3
352 9
353 4
354 3
355 3
356 5
357 5
358 7
359 9
360 1
361 3
362 9
363 3
364 6
365 1
366 4
367 8
368 6
369 3
370 8
371 6
372 9
373 7
374 2
375 6
376 8
377 9
378 7
379 6
380 8
381 4
382 2
383 9
384 6
385 8
386 1
387 8
388 1
389 5
390 7
391 1
392 1
393 3
394 7
395 5
396 8
397 8
398 5
399 4
400 9
401 8
402 3
403 1
404 9
405 5
406 9
407 5
408 5
409 2
410 5
411 5
412 7
413 2
414 6
415 8
416 4
417 4
418 9
419 6
420 6
421 4
422 9
423 4
424 8
425 5
426 1
427 7
428 5
429 6
430 5
431 7
432 6
433 1
434 9
435 6
436 2
437 8
438 1
439 1
440 8
441 7
442 4
443 4
444 7
445 4
446 1
447 4
448 1
449 2
450 4
451 8
452 7
453 6
454 3
455 7
456 8
457 1
458 3
459 6
460 3
461 5
462 6
463 6
464 5
465 5
466 8
467 7
468 5
469 8
470 3
471 7
472 2
473 6
474 7
475 8
476 4
477 4
478 4
479 4
480 4
481 1
482 8
483 8
484 3
485 1
486 7
487 7
488 2
489 9
490 7
491 9
492 6
493 9
494 3
495 4
496 1
497 6
498 4
499 2
500 2
501 8
502 5
503 2
504 8
505 3
506 2
507 6
508 3
509 7
510 7
511 3
512 8
513 1
514 1
515 2
516 7
517 4
518 6
519 5
520 6
521 6
522 3
523 7
524 8
525 1
526 5
527 1
528 8
529 6
530 8
531 6
532 9
533 6
534 2
535 2
536 3
537 7
538 1
539 6
540 8
541 5
542 7
543 2
544 8
545 7
546 1
547 8
548 6
549 2
550 2
551 7
552 4
553 5
554 4
555 2
556 5
557 3
558 7
559 6
560 9
561 8
562 6
563 4
564 4
565 5
566 3
567 5
568 6
569 4
570 9
571 4
572 3
573 2
574 3
575 7
576 4
577 3
578 4
579 1
580 2
581 8
582 1
583 2
584 9
585 4
586 8
587 8
588 2
589 6
590 9
591 1
592 6
593 6
594 5
595 6
596 4
597 9
598 4
599 1
600 4
601 4
602 7
603 9
604 6
605 5
606 8
607 7
608 5
609 3
610 7
611 8
612 5
613 3
614 2
615 5
616 7
617 9
618 1
619 2
620 4
621 3
622 1
623 1
624 8
625 7
626 8
627 7
628 5
629 6
630 5
631 2
632 6
633 8
634 9
635 1
636 7
637 5
638 4
639 2
640 5
641 7
642 6
643 6
644 6
645 8
646 9
647 7
648 4
649 8
650 8
651 8
652 9
653 2
654 4
655 4
656 4
657 6
658 1
659 6
660 5
661 9
662 5
663 9
664 6
665 8
666 6
667 5
668 5
669 3
670 6
671 7
672 9
673 7
674 2
675 1
676 1
677 3
678 2
679 6
680 1
681 4
682 2
683 1
684 4
685 4
686 3
687 6
688 3
689 1
690 9
691 2
692 6
693 9
694 2
695 1
696 4
697 4
698 9
699 3
700 5
701 9
702 4
703 7
704 2
705 8
706 5
707 9
708 5
709 2
710 3
711 7
712 5
713 1
714 8
715 6
716 9
717 8
718 7
719 3
720 5
721 8
722 3
723 1
724 6
725 2
726 2
727 7
728 6
729 4
730 2
731 3
732 6
733 7
734 8
735 6
736 3
737 5
738 4
739 8
740 3
741 8
742 9
743 5
744 2
745 8
746 2
747 2
748 9
749 7
750 8
751 6
752 2
753 1
754 5
755 7
756 5
757 5
758 6
759 6
760 4
761 3
762 1
763 8
764 4
765 9
766 1
767 7
768 5
769 1
770 6
771 3
772 6
773 4
774 3
775 3
776 1
777 2
778 7
779 6
780 6
781 1
782 4
783 1
784 3
785 2
786 7
787 3
788 8
789 4
790 3
791 8
792 2
793 4
794 9
795 6
796 5
797 7
798 7
799 9
800 6
801 3
802 5
803 7
804 3
805 9
806 8
807 9
808 8
809 7
810 1
811 1
812 9
813 1
814 1
815 5
816 6
817 1
818 3
819 3
820 2
821 5
822 4
823 4
824 2
825 8
826 5
827 3
828 9
829 2
830 2
831 3
832 6
833 7
834 4
835 5
836 4
837 6
838 5
839 2
840 4
841 4
842 4
843 1
844 5
845 5
846 7
847 7
848 7
849 3
850 7
851 7
852 9
853 5
854 3
855 5
856 8
857 6
858 1
859 8
860 8
861 3
862 2
863 5
864 2
865 6
866 2
867 6
868 7
869 2
870 3
871 1
872 5
873 2
874 1
875 5
876 2
877 5
878 6
879 9
880 2
881 5
882 6
883 8
884 9
885 3
886 8
887 3
888 2
889 5
890 7
891 5
892 5
893 1
894 5
895 4
896 8
897 5
898 3
899 4
900 6
901 7
902 9
903 5
904 5
905 4
906 5
907 4
908 3
909 3
910 7
911 2
912 2
913 6
914 6
915 9
916 8
917 7
918 9
919 5
920 8
921 7
922 9
923 3
924 9
925 1
926 7
927 8
928 4
929 3
930 6
931 5
932 6
933 1
934 4
935 3
936 2
937 9
938 4
939 9
940 7
941 5
942 5
943 8
944 1
945 4
946 4
947 9
948 2
949 5
950 9
951 3
952 8
953 4
954 2
955 6
956 3
957 8
958 5
959 8
960 6
961 5
962 6
963 3
964 6
965 3
966 3
967 8
968 2
969 4
970 6
971 9
972 9
973 7
974 8
975 8
976 7
977 9
978 5
979 6
980 1
981 8
982 7
983 9
984 2
985 6
986 9
987 7
988 1
989 4
990 2
991 9
992 1
993 4
994 1
995 7
996 9
997 8
998 2
999 9
1000 7
1001 1
DEPOT_SECTION
1
-1
EOF
