NAME : gen1000_006
COMMENT : uniform customers, demands 1..9, generated by bench/make_tuning_set.py
TYPE : CVRP
DIMENSION : 1001
EDGE_WEIGHT_TYPE : EUC_2D
CAPACITY : 200
NODE_COORD_SECTION
1 0.2652701083692304 0.6450899931395886
2 0.4760820725323873 0.13378982244454507
3 0.8502664725550677 0.12842703494544283
4 0.3781316806619408 0.19074360106532962
5 0.72584177003492 0.18581483627158868
6 0.6846496269546113 0.24903567826815232
7 0.8781552943107851 0.5176422793541512
8 0.35630173507983287 0.9682021658825356
9 0.6450710275255785 0.7688912114822469
10 0.08597734608433039 0.19463199631857286
11 0.2433819040977494 0.15208741612512877
12 0.4861722465103626 0.269868020209601
13 0.5019773087844538 0.6558843114541779
14 0.5329342311203682 0.8677853783321811
15 0.1761916996422812 0.05085123889658816
16 0.10703798082768057 0.1418612226969178
17 0.11827682594330924 0.9754305608173848
18 0.5824378941617729 0.7816481789153312
19 0.7635175127884607 0.34907420427171043
20 0.5452549788357957 0.3850688595411913
21 0.9373301401077333 0.5240905514214611
22 0.2296714684568122 0.9328254400171023
23 0.8449399089625557 0.031191925230466655
24 0.8997151371936534 0.10250424971171945
25 0.4528006160145177 0.07681874643107323
26 0.8472115687826014 0.183690513443032
27 0.939026392315971 0.21499025924034776
28 0.28081104079228225 0.30988581974878493
29 0.7584144313023512 0.0171356383625485
30 0.07421491420649973 0.5265144368520729
31 0.6206205874127751 0.9270864918773503
32 0.7623975734274022 0.5807930920191918
33 0.09001469713781696 0.9199570694307112
34 0.8993543957921893 0.7274232180656907
35 0.611989666317236 0.06501712793362946
36 0.15881891344804144 0.7058055956189373
37 0.3197132531776238 0.6294992806170359
38 0.08542691885730003 0.31478306558952984
39 0.6704904883023116 0.2536044136927017
40 0.35554367520629426 0.9889068285787399
41 0.10497701699904316 0.39440858911364374
42 0.3570802255679909 0.09818048790488743
43 0.3386004058799421 0.33334424885877745
44 0.8448290774296993 0.5014949665383944
45 0.3132470314514595 0.6071868625141426
46 0.29011800759521766 0.0732317489492409
47 0.01324525407600885 0.008851572945680286
48 0.7515471722659145 0.38783207761269956
49 0.7163004936080063 0.5841370518585994
50 0.8841304112590279 0.4755641225248112
51 0.37145283286640596 0.8979835165333503
52 0.5106944978003615 0.3846274689196675
53 0.11338056226092774 0.44696141073635987
54 0.41561970280516547 0.36272997084435343
55 0.46896364198987917 0.8600169990772161
56 0.9894125865844872 0.2666046312761231
57 0.8298755063068404 0.2043910675582492
58 0.5323729542901683 0.08786132730954554
59 0.4344419195442908 0.9731024855458462
60 0.5009898897765693 0.5197064161870225
61 0.4421872893512967 0.273759638340354
62 0.7169940421107076 0.5135371974566867
63 0.6114899645311095 0.5636348204497441
64 0.5237562902190342 0.36910574060756807
65 0.5354271966578776 0.713111679852187
66 0.6638768124991901 0.7285063074006976
67 0.4622494097387121 0.06184138065276967
68 0.18111794752065813 0.22319565345620795
69 0.3116217134850613 0.3771026132132643
70 0.3642699342016582 0.48080838088750755
71 0.46205855431081033 0.4324918108250354
72 0.04181080530178849 0.9170979992205057
73 0.6632113324878195 0.6959660005251419
74 0.1463038479284301 0.23312336548315893
75 0.4973746738750138 0.03541511000709363
76 0.6030238199637353 0.45768261543503164
77 0.3723218806357306 0.2637977711770797
78 0.5831447727991681 0.10537160876140861
79 0.11441019748017234 0.6643912315086785
80 0.39260053448236487 0.6100021324694934
81 0.15035293244998915 0.926168972168486
82 0.2139921982022538 0.5044667935896407
83 0.1677519732760704 0.689835275153774
84 0.5117167775465107 0.651757754152707
85 0.20565557635533893 0.4705126424616637
86 0.5293732041210334 0.07065120571180139
87 0.1925304009147767 0.5808994910039477
88 0.47417033598798397 0.6776357289000559
89 0.07686056333094804 0.30584389152117186
90 0.6463453077869225 0.4400067518808666
91 0.0022060132715270298 0.4189394935127948
92 0.4082818022157134 0.19299270147591052
93 0.4622693576578567 0.16867773813612352
94 0.31986977169330566 0.16834252161628482
95 0.2057158611611828 0.47367134889426643
96 0.9075137979741135 0.9673071280653268
97 0.622929456114573 0.20460947879177283
98 0.7512700528593168 0.7097011789276897
99 0.7566462958946472 0.28874749249963594
100 0.6299628553593906 0.7185159151886155
101 0.710915459764184 0.16274962316790642
102 0.9924979285223082 0.7369974392922272
103 0.8901620152173688 0.9508057641679419
104 0.9786295966832866 0.761871008293763
105 0.22817808823580632 0.40134943204572016
106 0.5141029333666307 0.5499056245948768
107 0.3022368750027209 0.9019277106544004
108 0.9163928557262907 0.7333890853941277
109 0.9838711019934462 0.9633856382279724
110 0.44483405077022464 0.6454771271856167
111 0.647448400905334 0.49224135406434644
112 0.11606777367851806 0.8348182967455504
113 0.718116463419579 0.09828422009442883
114 0.5496462078790262 0.6099243738172718
115 0.7497390673909113 0.36207326386073857
116 0.07733939920877497 0.8916396030827656
117 0.2848847971962072 0.6012285289431211
118 0.8002345385421251 0.4042788080702837
119 0.2616589761560215 0.759939209026106
120 0.023696622714678428 0.9023466548806015
121 0.978441215284038 0.8372278106821821
122 0.07360947353710112 0.9444546677233481
123 0.08078080448342861 0.5354825157458256
124 0.6497954922751632 0.962373855583776
125 0.3622085456743659 0.47460088120320143
126 0.7867547699984679 0.02920954024228717
127 0.3946886166676735 0.6702596988107142
128 0.2588621274896402 0.3266340782728805
129 0.5996955066831858 0.8510760716085671
130 0.8848571355941451 0.962532527384641
131 0.3523707883674544 0.9562262440516067
132 0.3055807457675124 0.7986915745383067
133 0.5417051550239251 0.06086449496735491
134 0.2365708091136559 0.22122549481082177
135 0.15630373539931464 0.29119269828397976
136 0.7988343184324894 0.9527521550118967
137 0.40452925342680446 0.9004109444172085
138 0.6874177543712529 0.1341172121498072
139 0.7672584732321855 0.4809462833210424
140 0.7752263222978595 0.8082115435449986
141 0.32666962048887926 0.22057792392570008
142 0.17312791614659717 0.2967179840637135
143 0.6780135242501083 0.008667198983500213
144 0.22105289605063838 0.5951636345917013
145 0.820663998340171 0.15743187337911602
146 0.8641403813450435 0.7908676450586569
147 0.17581868273580015 0.1781946019634304
148 0.23039729091760885 0.9182304877646518
149 0.9007567727543245 0.8112484466768451
150 0.7696292471890406 0.8833746819679448
151 0.3199607092959438 0.06949241322915534
152 0.7181493575836188 0.261712334719568
153 0.13665555202442536 0.5247332527235867
154 0.0536031131708119 0.5226853313682505
155 0.6607844856639205 0.14180510978340022
156 0.36461916626487 0.4189997819564719
157 0.15648856698552172 0.5803338261172666
158 0.8276739286368376 0.7747901916543805
159 0.4747816380324884 0.9857282507597487
160 0.3723052790237483 0.2130687398579163
161 0.6073881878711019 0.0580207424133663
162 0.7668822448269497 0.41345803889657984
163 0.683707351261822 0.504616584360262
164 0.052075096882408856 0.060271791762819604
165 0.9587954168094579 0.5898035660386376
166 0.39813907844757224 0.03880677661911058
167 0.811071488468742 0.12182769945065886
168 0.4805692991241216 0.9692869475301911
169 0.07755597840155959 0.3469486808764354
170 0.02441766414175961 0.5116392970880866
171 0.3611128206639398 0.05709568885403238
172 0.8037559544552113 0.19383209428881076
173 0.05305612801664672 0.3817922544460477
174 0.870354073177069 0.076297378835819
175 0.09077273381871032 0.05632116035704382
176 0.34244403174851656 0.4053603172804896
177 0.0672692125218558 0.31098669246971655
178 0.3768635123526495 0.23273534489473535
179 0.7187015224963487 0.8502165240681206
180 0.46365023307754993 0.5485599037522279
181 0.39460917699203135 0.4787142480563418
182 0.8531305240344732 0.4281852044302693
183 0.05260029717772308 0.3832147948962643
184 0.5475517305272946 0.9584730511582844
185 0.40408779498282543 0.3281755024258748
186 0.05815031261213388 0.8329273662530807
187 0.5544889616270935 0.4048971529971934
188 0.49642002683263786 0.4871842316288094
189 0.16805089705858145 0.0868060487415333
190 0.7258071122486721 0.6524231338576801
191 0.010963880245451474 0.6353825431325528
192 0.9732337376637198 0.1751725291482592
193 0.5413585020241919 0.6042863801112607
194 0.04555577074411099 0.3073779209653339
195 0.17505792788489716 0.7862733575359502
196 0.15321483326485763 0.5028669433346249
197 0.36273953771705925 0.9974088044634524
198 0.7883544838338533 0.46498541219532985
199 0.8969385997436087 0.5434831552930753
200 0.8022157085682786 0.5233538076067423
201 0.8405004909736931 0.09490212271207366
202 0.5461834163738203 0.08658757464212297
203 0.714954543589172 0.28347160122003545
204 0.26681022095100615 0.39655203787578386
205 0.9002379861374269 0.23343401810010278
206 0.3039706355429169 0.7156242175155623
207 0.6919083211234 0.09286472057234951
208 0.17583184089648163 0.5388574610853634
209 0.9278193474330031 0.7865830608736865
210 0.9613813652162349 0.7114981930007113
211 0.27242191335089116 0.5598771438292023
212 0.4420992858032833 0.21277490470191196
213 0.15795919942821524 0.42068326256931887
214 0.09472584382552418 0.8313212691113412
215 0.22171792763449405 0.9274471669847631
216 0.5106672377922009 0.10514424450679771
217 0.06924880842805359 0.9119545319797988
218 0.5965606875065785 0.5928756106123898
219 0.38112910008110823 0.39191305089287665
220 0.43361474524199506 0.9644676243522394
221 0.8624817627641396 0.33034315360414324
222 0.6141002523558159 0.052968829903233816
223 0.34062754317787425 0.33045180278554454
224 0.03615084667051238 0.7708168691386346
225 0.19744338165574493 0.6038783656284192
226 0.32566653976667903 0.5640023603877926
227 0.11205982396292025 0.7141949493198324
228 0.471576854014635 0.2577973480775223
229 0.31463548133090624 0.7645137552922767
230 0.6274826142636587 0.5662346941532163
231 0.5729321050537595 0.04692411318159595
232 0.07637288940677178 0.9415587854500825
233 0.7215634906330347 0.4253218138984848
234 0.920655304777164 0.72077980307138
235 0.5733845016642877 0.9078373032049106
236 0.31863059771487956 0.43459265437094696
237 0.8605973441325592 0.6192410851005411
238 0.9271151746508532 0.057807091816076905
239 0.5359208101727416 0.06139491953984766
240 0.6387564730430971 0.3628349187210155
241 0.12511473850236532 0.1362492619454183
242 0.863216740903658 0.5543001094460089
243 0.9148734428854967 0.3797010424559154
244 0.6784940938243996 0.41462931501185285
245 0.5068380986986577 0.8018773777402497
246 0.24550570447330688 0.16268824618202382
247 0.16249079096486818 0.8754036725093121
248 0.8102176760035269 0.26561734956912075
249 0.23859548925610974 0.1387275180085945
250 0.48284988857226596 0.9220239260017803
251 0.22853430040846312 0.7822111242181918
252 0.026211690378736052 0.07889006999009218
253 0.9420232203336424 0.1891881026925305
254 0.7900988175275853 0.9728279175768575
255 0.8075465972515962 0.8751525544352103
256 0.5086570039106598 0.1956870772250342
257 0.9693891315524704 0.970703235181038
258 0.2778111267268467 0.9971446723684204
259 0.35719848195670156 0.5286677263604012
260 0.4085175694630231 0.3458901382838676
261 0.549918661854132 0.15584656544323405
262 0.43213854431123233 0.8438975248474065
263 0.3208367024068488 0.3114144087702887
264 0.7724339019339856 0.32774871014553353
265 0.7476037551325702 0.6534265806574264
266 0.3128716129535005 0.8077122411011702
267 0.41109996403382065 0.15791688837029993
268 0.3084189384661047 0.18900741840330182
269 0.14122494045540113 0.006342683349213285
270 0.26057364900151314 0.8780697259876442
271 0.13901360397912832 0.816947684036636
272 0.4857980260956902 0.24465782142608317
273 0.6747452765661021 0.8250772475290741
274 0.4069435548571064 0.4475819418648175
275 0.12646028497772643 0.3982462327001771
276 0.734131487836275 0.8593680346805108
277 0.5908854710670862 0.030743542747832975
278 0.6562426664017791 0.8600171531674967
279 0.6634704182993114 0.0020338127302975684
280 0.5447849374448651 0.46821078719486364
281 0.9383941575956769 0.3000415791072957
282 0.7778848096017684 0.026819127660673958
283 0.9062634765046236 0.5962865144210305
284 0.008940233393664898 0.0981435561228946
285 0.2088975509859622 0.6051040668274017
286 0.3852865164525171 0.6169897268678463
287 0.6599702532133415 0.5281361309628412
288 0.33021875929544975 0.4183973211559302
289 0.3457233585778339 0.31475307427503596
290 0.6110199464288668 0.7408608274616041
291 0.5407021217482783 0.1104905155900302
292 0.7441628276211617 0.5342509796071387
293 0.5219671340601387 0.8965737535013937
294 0.9553769744933802 0.3126633410765125
295 0.6070763711341716 0.5565077606313771
296 0.9113124270762483 0.011530278522086324
297 0.22609125845175337 0.5464556888086374
298 0.5650271995569957 0.14148544081708458
299 0.9020878807409765 0.33616420672990466
300 0.9108367809213104 0.3254305556506223
301 0.3814986938345173 0.11714790745953751
302 0.7109545177020455 0.4285159452550995
303 0.5149695616148123 0.4966026100133537
304 0.3982167065503539 0.8301426466867193
305 0.3188124928298286 0.8202281185321358
306 0.5473262373357736 0.7805604236319207
307 0.7203395676672324 0.7879029467226214
308 0.8907976298180532 0.24124040289241988
309 0.10988166475198213 0.41092470968166517
310 0.7482751422369864 0.4238027878416345
311 0.3152574212302809 0.8192050355829862
312 0.26172863281228986 0.43573125495792864
313 0.0778813166591028 0.8418904794252555
314 0.45701522487265256 0.9384023139384765
315 0.37480129800443085 0.13309210247143421
316 0.19347390578257018 0.8170048283916883
317 0.3563765778300033 0.8732892446546149
318 0.9559120662194753 0.18218736421004056
319 0.0424109388238062 0.4295506567338263
320 0.8943332968645061 0.21490726193008858
321 0.7848849750557154 0.26682110832413575
322 0.3426646299081111 0.7826530625106097
323 0.03250459982956322 0.5512979500384912
324 0.925543879821727 0.27772788963161743
325 0.8857672943142267 0.9004308833510618
326 0.7683377259935447 0.21011575011486994
327 0.05851561663496607 0.9329301451228142
328 0.10373681781561339 0.9931070001888036
329 0.14451906385522573 0.7250343540716805
330 0.39205803683363183 0.26774492782787107
331 0.35369374217716876 0.6395700591214221
332 0.9907314911212887 0.43853432453839836
333 0.8663627411335084 0.3890362722365692
334 0.5692023287422823 0.32603919466718223
335 0.8003053333768335 0.7668437758083266
336 0.660954933056501 0.09378614226205406
337 0.25101018189347224 0.4921006058439539
338 0.0845965389870953 0.9965449498020829
339 0.7230894906238524 0.46462777556203494
340 0.6493906193190073 0.41920052230715554
341 0.1742646831163348 0.5408491416871289
342 0.5626690040566618 0.49427259062811135
343 0.14138106835283526 0.7007404851875939
344 0.4007587127020593 0.26242695206929045
345 0.6342896151957809 0.2614828682998829
346 0.024059849018485457 0.597485318444572
347 0.1603263117936956 0.3686111540223349
348 0.7342674966504678 0.569826520398785
349 0.23522573221208298 0.24952139452934496
350 0.010414985193999082 0.954484184583162
351 0.3041960474057299 0.7499766744972811
352 0.5923737797987314 0.5762535538343474
353 0.6443964413325585 0.8122414383763229
354 0.17793540436869082 0.6421769013215217
355 0.29083426930853407 0.9040764585922987
356 0.7437674781932898 0.4210416440552176
357 0.9210624078509295 0.9220817454521645
358 0.3788908697438782 0.3743292499508766
359 0.5280333578790686 0.28948084947967534
360 0.51812688112843 0.6365697843199088
361 0.28510372943587525 0.6769733335324755
362 0.9198108442018665 0.8336723463409985
363 0.0657756807628157 0.9859830413015106
364 0.7994500387165007 0.6594282014352186
365 0.6752838035821593 0.029750143971571386
366 0.4717272100203148 0.19800359364437492
367 0.52362815357228 0.7705212493346897
368 0.3338540900767316 0.36713707663269635
369 0.6037072881238128 0.06983012484884599
370 0.8714472543584522 0.889129426817175
371 0.2592240215508912 0.24890289926785192
372 0.176659736157736 0.025411219289323772
373 0.786024193185844 0.8492555507980417
374 0.3265160827063205 0.6328010297927104
375 0.7720576277332876 0.8039893088321749
376 0.35508936343749564 0.17870272550583333
377 0.38324202148058506 0.881176223702675
378 0.8134076413541865 0.9504678469687989
379 0.6928919587100307 0.4131300895449477
380 0.7519579475751461 0.7645900432632929
381 0.17311073664882215 0.23009707123193424
382 0.5589434170315737 0.8910505468145226
383 0.9675442448360105 0.8652889228455231
384 0.45638526872399854 0.7502738719929939
385 0.09227498104357645 0.3100081727701348
386 0.5649981738674018 0.2725423760132686
387 0.057778080693299816 0.2723240373062388
388 0.34874972305044827 0.18812470896849887
389 0.07334153589030723 0.877027894846575
390 0.37872869268974674 0.3659658592726216
391 0.2996660038378727 0.659969379714382
392 0.3787809062092756 0.8540737819643527
393 0.8784134722955362 0.6469579638826117
394 0.4333918801934531 0.6630557480866298
395 0.6723933165100469 0.3281708227424355
396 0.06691859788315202 0.8656283273237689
397 0.9644025886189935 0.9566392195005049
398 0.7073367475350255 0.3849152848144468
399 0.08718165631206953 0.9788120988141901
400 0.7902751970086588 0.21665619639684974
401 0.018193098429024168 0.3645290321011556
402 0.7611233322626905 0.36080188950975656
403 0.4785478622384798 0.8347928811235922
404 0.37674194542978146 0.662009669065803
405 0.43783759215401274 0.9742037113756403
406 0.7730146196967098 0.8526377784270639
407 0.38793075132075283 0.07714995901239463
408 0.8762143640508094 0.4190584795905453
409 0.7798836297092804 0.493497533198738
410 0.015021155101292871 0.24328204818031762
411 0.19131153546464708 0.30075257261104427
412 0.6877611576095443 0.9361766121296469
413 0.3325190196973594 0.6106779791519275
414 0.24838826305419304 0.38356579852973105
415 0.47091667676589155 0.2564780179315511
416 0.16659190412739633 0.9838790940754186
417 0.17446136841800042 0.4243650884269722
418 0.06714707924730179 0.9872657273476886
419 0.8108660088819438 0.7036251745729685
420 0.8856341423426194 0.023275725710723116
421 0.8647505450702598 0.6890002305032802
422 0.2985009742371473 0.9311785453285768
423 0.5265070077312298 0.02518924868491912
424 0.8696308591534466 0.045676426953773164
425 0.45409450265234197 0.8440477200470416
426 0.9264056465239747 0.297388812851314
427 0.6204341331008694 0.9183720077823802
428 0.6753599001341772 0.16381252062447638
429 0.6248859367008757 0.8904426666620561
430 0.5237376772054952 0.5480627789270821
431 0.2705038257757669 0.6690998935705703
432 0.9323327827858929 0.22173536588513276
433 0.226637534400148 0.42177841075036293
434 0.8657905836309149 0.4059049268078493
435 0.6031403406699885 0.7125271105201949
436 0.9892880679272608 0.47378450265023253
437 0.8863728870954343 0.31070255073256936
438 0.2779427972863454 0.15778962712134292
439 0.3329104791580926 0.781314570844686
440 0.649243141865904 0.3865434526321374
441 0.2667988510643915 0.44016724735203405
442 0.43052958337781655 0.387267267748584
443 0.183294616277332 0.08869306684559852
444 0.9517554267575117 0.829279614722424
445 0.8295343611853283 0.15519389094481928
446 0.1779370892891784 0.2556167680378325
447 0.6030148673629175 0.32204579953862045
448 0.9448190255672674 0.7334442530320822
449 0.5268230850255865 0.5825663385700289
450 0.2590216387812705 0.1993944915086736
451 0.8613830019279978 0.7847841789030916
452 0.6696266902640582 0.27123162006597945
453 0.28754893649863633 0.8300925980590971
454 0.8318916464318648 0.373694136703977
455 0.8424123726997323 0.34610896523931256
456 0.05905960447892766 0.7301115345420218
457 0.08200255816201862 0.7065443210139368
458 0.5753754887832457 0.5773139336099705
459 0.11442401208483266 0.002242179271995326
460 0.04161327107466539 0.027272951388207067
461 0.7899876348609779 0.5114333187570036
462 0.542690184785441 0.8213357883687407
463 0.3650000833603628 0.3086725781675186
464 0.9349915888149702 0.8547164036157374
465 0.9522513842349813 0.28869651137207175
466 0.30391703084482413 0.2149786157289575
467 0.2337617690795717 0.3215577305472437
468 0.21145919760619603 0.9793108158828774
469 0.015537907315196442 0.7231894209219552
470 0.5382404365246266 0.6390992740967006
471 0.005446230110734418 0.7586940330641081
472 0.032596533709073894 0.882308447731657
473 0.22233854164508893 0.13950539719345145
474 0.20816424370329067 0.22810163268239403
475 0.18088886848160945 0.7924428045761386
476 0.8848465381707027 0.2815617717370029
477 0.924303269959046 0.015803314800124757
478 0.4374033702799818 0.1461342549004866
479 0.5541667609049616 0.7386599611947752
480 0.9956668336381274 0.3431554899792989
481 0.5154739265128818 0.18624943907534064
482 0.9863602523122955 0.9366497334097562
483 0.803837180103737 0.8250634301861102
484 0.7639735875248079 0.8880707879409828
485 0.306909375497064 0.7780106442405871
486 0.06318042737501506 0.4093136724975459
487 0.09184205859463135 0.5086046411171563
488 0.373095406984453 0.8334429237870646
489 0.13756230959907056 0.8638930629299485
490 0.38450310083053796 0.5603422709798743
491 0.20933471298995054 0.44123714599997277
492 0.9350353486929515 0.12102258847897462
493 0.5752483656090124 0.05269012481392621
494 0.9270177828265275 0.5127059861815847
495 0.06795458080681416 0.987284469105295
496 0.9791203175376705 0.11767538980422532
497 0.4926659290649743 0.3719375344590006
498 0.28815646750704393 0.364152338027681
499 0.7143346335673744 0.47114614802046595
500 0.8472160456429518 0.6348681572748186
501 0.3535174192891426 0.666181125897999
502 0.7876893920024658 0.5892471753113686
503 0.024993224360181254 0.49233593904197925
504 0.13580996850400984 0.5010962371586888
505 0.8317812839223477 0.12373370528285066
506 0.5515550768177377 0.3229410100761284
507 0.8526888450569748 0.14776902078013276
508 0.8812474428855395 0.5464056151688061
509 0.19075006477324385 0.701103370023971
510 0.364224114492941 0.69317661046076
511 0.29362794937576786 0.8239842366435286
512 0.49706487776379793 0.511411620888589
513 0.669532160742333 0.9043734329944201
514 0.30042186943591975 0.26599523241682177
515 0.9590477142176549 0.6200202111161203
516 0.5225729207548961 0.5762905610289131
517 0.7633025306353044 0.3483409640172789
518 0.6405729176595595 0.16431098942778433
519 0.02506572161423537 0.30607267652186043
520 0.7281198924284638 0.7021632954907602
521 0.6662372227037312 0.29487020971329847
522 0.915535275192082 0.8884129838555654
523 0.4862681056736715 0.17722477402510506
524 0.015975578746935448 0.2702268080975353
525 0.06160538454277287 0.1645931174588815
526 0.6270051233420509 0.10563308762973567
527 0.16662661810448498 0.265372153735958
528 0.1565302875373663 0.8267487657784661
529 0.42727880439842614 0.4925492937086946
530 0.5682087678400253 0.06713104482269527
531 0.37198054293223193 0.06461452154462122
532 0.19964336781984893 0.6436213424670219
533 0.40806419594485177 0.47315078189175974
534 0.16968468533876635 0.1838692394478466
535 0.24964851319241443 0.27896017429595743
536 0.2523465325024131 0.8943306354187767
537 0.029705459673029067 0.149630213517142
538 0.7746566114173445 0.7325326498429396
539 0.7414817247390411 0.31375152674035267
540 0.2988284365086754 0.5500446702200863
541 0.6369125588290344 0.1467830474210673
542 0.8667778632152544 0.07876773096565515
543 0.9319573173451011 0.7970914160847251
544 0.4552125377100915 0.14789644388784606
545 0.8166325784752269 0.710594669803375
546 0.11940673529344137 0.5269570368348728
547 0.4251390811147042 0.33330407167001086
548 0.04605715522506171 0.21066846204003375
549 0.7417550526450497 0.4816972144255476
550 0.7015271392984568 0.9190916771303769
551 0.05349711732160756 0.23268645232481622
552 0.9301988646878088 0.43855295355406154
553 0.7672292278394341 0.8377905626204413
554 0.4462162600686438 0.6806579027022642
555 0.03615337154146547 0.5442181181127
556 0.37378188105653865 0.04835146867034801
557 0.3806132127050813 0.36301805443129675
558 0.2245261278809465 0.5709808895731527
559 0.6298168774336347 0.7968477768569783
560 0.8435571211561395 0.6842553676296765
561 0.6885181104377284 0.7108179879930416
562 0.9698047051109173 0.5913227652621201
563 0.05505422050616848 0.7576763732667446
564 0.8338032725707278 0.9600210316405725
565 0.7826203307343813 0.5251630303486363
566 0.18449522601298962 0.942168814682528
567 0.7304764531501617 0.09615473773032657
568 0.30072623104620166 0.7163061384986185
569 0.8879671791504989 0.30675882467614246
570 0.7425850382970538 0.7975730170850034
571 0.12462001722404181 0.7869102209178193
572 0.7146027902726411 0.6034298144781581
573 0.04657652195350803 0.5017549412931737
574 0.393628874451474 0.7402155919535139
575 0.39340809953160316 0.16221387173358615
576 0.5040658127784654 0.3747116099609149
577 0.3673877012106145 0.6747185762906949
578 0.33555615513985115 0.6824051286053814
579 0.6534995205300911 0.6796130347364205
580 0.7909488906524184 0.4510333250719286
581 0.03704598646172996 0.6885071683519435
582 0.14727206364908418 0.247174238281342
583 0.26541438165567754 0.37396449863684733
584 0.09329554871282486 0.5145310089993571
585 0.5332190757613435 0.3636315269543273
586 0.21546588371925635 0.07011010632696424
587 0.9492950972071414 0.9089441320679698
588 0.07800482781100682 0.4436203956032524
589 0.4663144306080458 0.45342258892254017
590 0.8502679357572003 0.8525633534733172
591 0.39879377238501945 0.09452235837219347
592 0.013182727755715384 0.8473732911784883
593 0.8107945235405379 0.15143176046412377
594 0.06765734157371894 0.04681378774891232
595 0.9344559357657216 0.9061987368310581
596 0.4740377442720183 0.9045184096720255
597 0.4490838191165585 0.8367401062821186
598 0.49659261023767165 0.7709997050187507
599 0.6438653447890632 0.2267542651121267
600 0.4989750186863178 0.6515587316416586
601 0.13820069565703463 0.8205176343906132
602 0.024486516882168186 0.10088277883900953
603 0.6274643562892727 0.5801740524775781
604 0.15804906971217358 0.3667228552323114
605 0.4136810012457727 0.17760307317730706
606 0.5826861472968797 0.9203243135703171
607 0.4574991659189819 0.7045548827699863
608 0.6408041868314982 0.5633097354433126
609 0.5587118614884302 0.10208227868256026
610 0.4065883816741409 0.5731667128238198
611 0.06500592007541206 0.8170715985321172
612 0.2977271858489573 0.7178403026343041
613 0.1597530104073588 0.5338325917816149
614 0.05951205371349766 0.3510859527724688
615 0.9035166266105773 0.11455664944701871
616 0.1441214433972956 0.8036516611460003
617 0.663958023456483 0.26305313945275033
618 0.011835019283797266 0.5261780517063759
619 0.258382973261568 0.5170456441709503
620 0.003874281398886348 0.3986905037130857
621 0.4227484868249731 0.8273187829459175
622 0.4864043728679919 0.7144132415534356
623 0.21585887027737116 0.974265871835165
624 0.1156943576658821 0.6155921071450052
625 0.7654634027862184 0.15202806136786984
626 0.9472962649330523 0.12641717904169958
627 0.9962473305860707 0.539183263616164
628 0.7895684128310109 0.3363619843880886
629 0.6107313571043393 0.3513835142085504
630 0.3317595832355925 0.7642248252454232
631 0.5143343834538611 0.7235168269212336
632 0.7168455258402326 0.15017967649480457
633 0.10669221335316315 0.9623562971331676
634 0.38582453255499094 0.7333315368495963
635 0.9203210552520635 0.9366744295130639
636 0.7046062821927289 0.34410569910196587
637 0.8275477633932975 0.06142737197041526
638 0.10086453810741391 0.7235379335738118
639 0.25189902284427745 0.881426865082362
640 0.1449785343319645 0.07462061644601159
641 0.07418137190531415 0.5296766577579604
642 0.4973589895897049 0.06012133917327889
643 0.10035031308380271 0.26537970502201735
644 0.5641128398022576 0.041596118459795495
645 0.18712738269766738 0.407796973331065
646 0.1684061041045276 0.3078082656523684
647 0.2314994320424002 0.6323220627178336
648 0.47964128337738365 0.04496583945035526
649 0.9543197302836667 0.76514495826705
650 0.017694000635841367 0.12809338548740623
651 0.32364594032558625 0.3150153223260277
652 0.7827665039796228 0.544509735655442
653 0.24239345353378838 0.7079720582807683
654 0.14274463038937457 0.7455249144827819
655 0.015733270426831703 0.9043759347722691
656 0.38611725215911386 0.5843361192201733
657 0.6930855208926298 0.5705803859334848
658 0.09190229632258573 0.7598352912892118
659 0.24923414140976952 0.754159391127954
660 0.8817575810791128 0.6585183013679309
661 0.29460839108623527 0.6994632751738119
662 0.5871290109745287 0.8971489775428635
663 0.9556956901553295 0.364716697570312
664 0.3963897078527444 0.9241419290860323
665 0.37358673158047484 0.7816974440737303
666 0.06962333595793369 0.7216758820487931
667 0.43279782159477953 0.9534307419899409
668 0.4750604545352969 0.842247926189963
669 0.2759913243822246 0.03665031832416832
670 0.8048969917288661 0.7106550826560752
671 0.05634157124267569 0.11508909306416792
672 0.9135002696172927 0.4359600127336134
673 0.16958210154052067 0.06182487449653562
674 0.9922871161138797 0.6261987054704885
675 0.3847740203335872 0.9253855919150478
676 0.20327986510178875 0.26625414311796647
677 0.21234678994923395 0.8088255561622166
678 0.1576778136545216 0.10468863879192647
679 0.21320151663247056 0.21126616903241568
680 0.8198792646519412 0.2689998036253408
681 0.9427849007776595 0.14206869489082752
682 0.638184826137503 0.14601642864867115
683 0.7822328299919591 0.4115022138459494
684 0.4215184748540195 0.013312795116487308
685 0.4816874376782775 0.5743949727564582
686 0.044223831516023715 0.5313538441612633
687 0.36498635625271236 0.6258997323620274
688 0.010693484837728917 0.5586536793401865
689 0.17833907728550347 0.2764592749647461
690 0.6167451897541463 0.39125597288915426
691 0.3023669452794904 0.7877241015763244
692 0.6816171009328563 0.3151606042660059
693 0.09962448404220525 0.9772009803336323
694 0.6275778110399352 0.9868189042271166
695 0.5506686984295516 0.20833197605039844
696 0.7838148546251857 0.26529925162810164
697 0.6289070259830247 0.486485061502802
698 0.7119115367192294 0.9069028412858898
699 0.4587193235517414 0.8827875956466444
700 0.3136374252980302 0.28869550729107907
701 0.6822543698712625 0.8099403300341812
702 0.7764865642933296 0.5590805751135475
703 0.9563353165743016 0.8044891174537956
704 0.9344594513605974 0.6913626245168872
705 0.574355313644234 0.654018428358023
706 0.5367150208704071 0.41412135381424353
707 0.05835144131171344 0.8385366753953698
708 0.8449101534165192 0.18607313444354967
709 0.9320531650680216 0.7011186003980634
710 0.43870847946180547 0.7462354827642648
711 0.31335017867611503 0.9920135775062676
712 0.3701146251249684 0.5853467367556116
713 0.3396067848110833 0.15368213029338385
714 0.5497084747907756 0.8888454618425323
715 0.08113559537376858 0.2774687350252609
716 0.7218110845645046 0.5153637136851092
717 0.9471435748373087 0.17736023324758488
718 0.820917936263791 0.7810498381996644
719 0.16367072928520665 0.9711282038950281
720 0.35291514691407877 0.30647077214949425
721 0.9758415765174581 0.5342850024912569
722 0.8116601583505412 0.3295406198043702
723 0.31247442083733823 0.22525758350259295
724 0.13355786445245654 0.31144949651817144
725 0.7035930427688217 0.16916119006919106
726 0.37604298809909675 0.7320943801937466
727 0.5192604893715737 0.8292020518793646
728 0.26496789749763705 0.889935843744946
729 0.3882156854089408 0.8348851326147111
730 0.990079062394511 0.7040245118934326
731 0.7842652310953822 0.12723897817738372
732 0.8683450927275957 0.4173191165022636
733 0.6643175671291158 0.7532413734199517
734 0.8964895991726605 0.8667497689006882
735 0.6172432046094364 0.38548070431260795
736 0.5955161516492382 0.5346416082804476
737 0.2863563527389994 0.9558527379270295
738 0.07083695507707621 0.2484169305135624
739 0.08657007919033133 0.06057812819475383
740 0.6067272022820761 0.7811253904611125
741 0.7454051125594506 0.044244619097200455
742 0.8601494803805644 0.8131999630602817
743 0.9368884544621474 0.34010683064445013
744 0.5598829877933563 0.9179045686165029
745 0.6880511681344516 0.5890382492495526
746 0.683111213404318 0.3505988662974414
747 0.19366627013291016 0.06812787855408675
748 0.9254496018581037 0.14485240288214185
749 0.1043906673195627 0.5235388351790218
750 0.399188936585099 0.0768608640161349
751 0.4394301397078666 0.26763020266250515
752 0.5952767949079986 0.11875498617578673
753 0.052027154572778955 0.01795151343986834
754 0.4596253491858271 0.2073613888045832
755 0.19266706476649165 0.3805914629157324
756 0.05453924758426265 0.5615037191908592
757 0.3993653387409152 0.13046898396703654
758 0.4973712286642654 0.09661604324390405
759 0.4961878712068426 0.2102509651180391
760 0.24665750279716736 0.2902334424400099
761 0.24888904016124158 0.6446229630111956
762 0.7635395951483827 0.2528284885145402
763 0.8682648914659835 0.8041007795070917
764 0.7183154940066993 0.5563764052795349
765 0.9900209149882939 0.520538636760873
766 0.4041316000391324 0.0850574581094079
767 0.36128496332384763 0.1447918170987621
768 0.44472467751402156 0.9926166967032993
769 0.7581493414207137 0.979472839012129
770 0.23367581893819422 0.14069109344626385
771 0.3923079928764934 0.18388611180369607
772 0.4096053450628101 0.9259535283734966
773 0.2592541754078763 0.5742172554033605
774 0.865078797220185 0.24065106286650384
775 0.19088059593174456 0.8391039463444919
776 0.23333603808881842 0.6060547589095542
777 0.13419240773056107 0.4932498268625316
778 0.1832759016580997 0.7519820003257142
779 0.7567868721492031 0.8215104724379754
780 0.050323734198437275 0.014100315426549326
781 0.41018471931724787 0.4441689684394584
782 0.1806618049554095 0.8785109887927623
783 0.6962679357096428 0.0560907224055166
784 0.28822939375878964 0.9054540206957158
785 0.6890297514294612 0.10230398812438113
786 0.6967749270050774 0.8643409086046435
787 0.5245358821093 0.6248741187965617
788 0.6158400888180648 0.8625490325137583
789 0.6737712834124975 0.5962133673832029
790 0.0990805148840691 0.7701547156555852
791 0.510354249786237 0.11350525663227073
792 0.27291117847361146 0.967241599477713
793 0.14441924828631447 0.9006048167156723
794 0.6470927998885873 0.7851069706423764
795 0.6551762923092272 0.18169742567059022
796 0.08025532922503587 0.3823452749605941
797 0.2479829111911812 0.5277549969959726
798 0.22158891217482968 0.8691262588266091
799 0.21960626381143533 0.2524212533905994
800 0.5968112206594517 0.5305767478991658
801 0.2945658836133349 0.10128235918825446
802 0.47117821665220483 0.5775834721181509
803 0.8310333260545855 0.23834575761197818
804 0.3150652472452291 0.950682449547612
805 0.19615206542200925 0.20418019169050183
806 0.9254621522639297 0.18635909707049392
807 0.40011926876628257 0.8679384677840807
808 0.11474656800292748 0.34619940428756313
809 0.2551839265233946 0.4887987416825311
810 0.4569799231734485 0.4864007546176019
811 0.3620209494597294 0.14746231519632036
812 0.2851575131229477 0.4574131693468094
813 0.026700839104525365 0.7072786901658272
814 0.9393685614917477 0.12506083100882615
815 0.8936406123252557 0.2972433166405104
816 0.12994034792650488 0.28627200380951967
817 0.9477606980818437 0.02879672941535838
818 0.7396907764511914 0.2177367682841459
819 0.10021214078903473 0.0888693608288389
820 0.6714848806645092 0.8924121284416799
821 0.8384195147451587 0.143992032178074
822 0.0035715587264876225 0.36357079032340256
823 0.03064879530293707 0.2751348623521037
824 0.44332619649902205 0.7849783691221454
825 0.18817041215473462 0.6187516473038265
826 0.07020756254956684 0.9463405699249559
827 0.5475510691361336 0.7000700959099874
828 0.04948972266549978 0.9065847479896981
829 0.6172052833324508 0.5226243478693624
830 0.0766382559651021 0.9903517663140428
831 0.5868024477952077 0.3094090196011525
832 0.5475576034520314 0.5386188916137084
833 0.8825704967556739 0.11561200275194494
834 0.043631955845027326 0.9521121901934342
835 0.9883361340948356 0.5637598494582781
836 0.7544318892327577 0.523198686744941
837 0.81131636279624 0.2878742709506833
838 0.611141202027516 0.2894814066134138
839 0.8135356831353081 0.24123240015530345
840 0.12113214714414333 0.8638359820509577
841 0.8597175878708904 0.6889275114289385
842 0.43186120431044706 0.6966015367531191
843 0.47571664235917877 0.13813849148185298
844 0.6248696656093322 0.8961471415094955
845 0.6566129142394167 0.7607763567396874
846 0.29641440805360597 0.9408237155319497
847 0.4246128359917326 0.8419060392791764
848 0.43223996788012176 0.5280766587828724
849 0.7043933755540724 0.6023023111333798
850 0.02099379703310633 0.5039977719259946
851 0.06945936510718942 0.782218691690055
852 0.6959662674244477 0.9994151365542465
853 0.5576462745397152 0.36295850909035665
854 0.015408339240134294 0.8625572028892293
855 0.8316097410819504 0.33043153048799623
856 0.17812451195076184 0.9207325136352457
857 0.4038298957378893 0.3919031025680435
858 0.526098501433738 0.9529752821513455
859 0.32099844594637594 0.13580888996601237
860 0.18617228211815684 0.3006939947123368
861 0.14703289432799382 0.21158587506515447
862 0.6714928860457917 0.14396757084016
863 0.6832960427600653 0.9197264873526921
864 0.5574128269183453 0.15423291947007245
865 0.44469661893924706 0.7549312776171415
866 0.570809254612438 0.6511903002932397
867 0.986208598850082 0.3869950282720911
868 0.31419065307232685 0.20219683270685385
869 0.3574184336982963 0.7169621026644023
870 0.10554888176581123 0.34326770920992056
871 0.5873564727692238 0.5460713147517775
872 0.7872022122974813 0.803885388568022
873 0.8729749887916022 0.9844244791430694
874 0.9367488269869476 0.05519938437306415
875 0.8316488289194521 0.5562275000455217
876 0.20754520764255702 0.12223023081400419
877 0.8660483386138897 0.7790850688825641
878 0.9790526003556452 0.6118195098627576
879 0.8653305707806478 0.7853654708756449
880 0.12774130486791602 0.9554569676595888
881 0.13479981718262513 0.39889982119066214
882 0.09176768884719666 0.9801584475975765
883 0.5314168207815242 0.24093685233918094
884 0.6345818972942774 0.9973083836942942
885 0.7831262209418521 0.6185812545385464
886 0.5970432338400418 0.9450602584057188
887 0.14687485741314898 0.6044689131663226
888 0.02228160536672097 0.010540271763024522
889 0.2667038914339056 0.15579019807807803
890 0.0555453385726411 0.017106345749146046
891 0.19170417719288535 0.170159750948927
892 0.861994669821986 0.6837656320368745
893 0.4370556538767183 0.8190285704468023
894 0.5177901128345899 0.7400891375315296
895 0.04492583397204075 0.8850102386130935
896 0.6180643264767616 0.3926164284075454
897 0.42761745365099113 0.02270047397698738
898 0.27640541641209604 0.590329992612442
899 0.9574075958914323 0.24230530912972015
900 0.06058369196406754 0.7690261181960248
901 0.250217639974221 0.35037743577562963
902 0.12846484043850193 0.904223906298423
903 0.5708227255722658 0.13697757772680952
904 0.6579263138352992 0.8781131608250703
905 0.36877654340795385 0.511555738192295
906 0.34675286959916185 0.05707911116852249
907 0.8281702325253132 0.25753376495131575
908 0.5187655706346145 0.2468157770749989
909 0.9824019143852795 0.4276528180926542
910 0.8551391924827837 0.13063343314947728
911 0.5529918341361043 0.903688653233058
912 0.9400906175529199 0.8128952469092119
913 0.482148398085946 0.8834316256041954
914 0.8224891847246393 0.3263650822366212
915 0.9716972895743894 0.004905267011560466
916 0.372344293927932 0.5809714838368586
917 0.09087155838636163 0.4085746110859444
918 0.11937376892232554 0.3107612686276857
919 0.5062797979586914 0.7598128209879332
920 0.5654716992742094 0.16532448959976753
921 0.16982769016393973 0.19948309126961883
922 0.07890267409398688 0.39709275857142534
923 0.3024507002020126 0.821713725684453
924 0.9023372623361064 0.9543417873180817
925 0.5481870805317403 0.2777073573209232
926 0.8638241454239256 0.2687498340256934
927 0.47621540134626217 0.009860637419017104
928 0.08654205833856898 0.5358791915611915
929 0.8019812141130266 0.3590906383735284
930 0.7970146272203451 0.25158757568739654
931 0.5965255725552842 0.2940213555196374
932 0.7518942972399884 0.3767585752758875
933 0.790344262155136 0.6850575029142218
934 0.19924270014987777 0.9480334612070465
935 0.45044156244615363 0.8034327598211294
936 0.2261825832816894 0.866432122085577
937 0.5461118196724073 0.6696472284946805
938 0.5489298702237371 0.2973964114249492
939 0.9356452585767633 0.29449955575760867
940 0.5173709039773038 0.9466638275915114
941 0.26388779473061275 0.15771223807431756
942 0.18334125846324545 0.5887921682424996
943 0.4274509939904755 0.6973908861218865
944 0.01806660630867163 0.44782917274463796
945 0.1892397814336345 0.0029779240330753964
946 0.319393481580166 0.9572172748306461
947 0.06363140812454593 0.08064371277250681
948 0.4254895532753272 0.1794770543587515
949 0.9928796296738367 0.32738264866664646
950 0.179547997429079 0.6619309951887123
951 0.011477819601675932 0.12445632712905874
952 0.7621689411024231 0.11427868591099855
953 0.49983816075723986 0.9729576666824522
954 0.0789109827889396 0.9344302290743208
955 0.45865151208899557 0.32911711586373127
956 0.25476590077388117 0.08809411034104409
957 0.7042637374288292 0.6994620662919877
958 0.230522599685257 0.9440209793015829
959 0.8492896340996866 0.6571104177162898
960 0.4328249987669983 0.31193300851232186
961 0.913401807178557 0.1003527168284748
962 0.3018914693442437 0.6692230704884009
963 0.04999071339258454 0.6559761817378656
964 0.904124567779527 0.6399724008651381
965 0.9522002106372269 0.5174625939339348
966 0.3993102801847086 0.20804541997392434
967 0.8080766364812125 0.34763400211070705
968 0.46457710454247547 0.5685888703058529
969 0.2442429411121788 0.2586420648405955
970 0.953368848463097 0.24381697472946173
971 0.537168775320613 0.5756775141243772
972 0.0817172604791061 0.8377802420060693
973 0.23413580263964906 0.7459003253840227
974 0.4938964795231865 0.6746392648662243
975 0.6680102504963548 0.558371111719358
976 0.37744406271268827 0.6187035869903375
977 0.5111362067743604 0.05574329299086611
978 0.025676123427247344 0.6637851138165171
979 0.044437501772632726 0.34656900293947945
980 0.5978149343001521 0.7270950650151261
981 0.9922589347397792 0.2864060928690938
982 0.80596270991925 0.05959697871719549
983 0.7350098120023606 0.5470702973318057
984 0.5382042645301814 0.36453681826147233
985 0.8703734957785066 0.9076908089759766
986 0.2030745818672739 0.8361286849179885
987 0.17438393528510265 0.8796164409030076
988 0.7401244040006414 0.6897827275849866
989 0.33656669017179863 0.006539862989218936
990 0.838559732135303 0.2363859401301176
991 0.7339217568857604 0.7340891813710151
992 0.38352192025140575 0.7479242574529424
993 0.21941728162242802 0.32417246854721404
994 0.2857082497775433 0.5181726211519443
995 0.607013742663932 0.6546370898009445
996 0.8162026355946054 0.365746647425647
997 0.4790568445526512 0.9680681436504595
998 0.9154313142340558 0.8414998308939637
999 0.025318827057913218 0.42215884019432603
1000 0.6997082268739353 0.12554363139506486
1001 0.6477148977074472 0.7840018194416115
DEMAND_SECTION
1 0
2 7
3 2
4 9
5 1
6 3
7 8
8 2
9 2
10 9
11 5
12 1
13 1
14 8
15 6
16 6
17 7
18 4
19 9
20 8
21 4
22 3
23 6
24 4
25 2
26 4
27 8
28 5
29 9
30 7
31 3
32 4
33 4
34 9
35 6
36 1
37 7
38 7
39 8
40 3
41 2
42 1
43 4
44 9
45 5
46 5
47 8
48 6
49 2
50 3
51 8
52 1
53 2
54 8
55 6
56 7
57 1
58 3
59 9
60 3
61 3
62 5
63 6
64 9
65 3
66 5
67 2
68 2
69 2
70 7
71 8
72 8
73 8
74 6
75 1
76 3
77 5
78 1
79 4
80 8
81 8
82 6
83 1
84 5
85 6
86 5
87 3
88 7
89 1
90 6
91 5
92 4
93 1
94 9
95 3
96 6
97 8
98 4
99 3
100 9
101 3
102 6
103 9
104 8
105 9
106 3
107 8
108 4
109 3
110 5
111 5
112 6
113 4
114 5
115 1
116 7
117 3
118 4
119 5
120 4
121 1
122 9
123 5
124 9
125 5
126 1
127 5
128 9
129 9
130 6
131 6
132 4
133 1
134 2
135 4
136 5
137 4
138 8
139 3
140 5
141 1
142 5
143 2
144 3
145 6
146 7
147 2
148 6
149 1
150 8
151 4
152 2
153 6
154 5
155 4
156 1
157 6
158 7
159 8
160 4
161 1
162 4
163 7
164 6
165 2
166 5
167 2
168 9
169 3
170 1
171 2
172 4
173 5
174 4
175 4
176 4
177 3
178 5
179 6
180 9
181 6
182 1
183 6
184 8
185 9
186 3
187 3
188 4
189 3
190 4
191 7
192 3
193 7
194 5
195 7
196 3
197 6
198 6
199 8
200 7
201 1
202 7
203 1
204 9
205 3
206 8
207 1
208 5
209 4
210 2
211 4
212 7
213 8
214 7
215 1
216 4
217 3
218 4
219 1
220 7
221 7
222 6
223 6
224 8
225 5
226 8
227 7
228 8
229 1
230 3
231 2
232 2
233 1
234 9
235 6
236 8
237 5
238 3
239 7
240 5
241 2
242 8
243 7
244 9
245 2
246 6
247 9
248 4
249 3
250 5
251 1
252 2
253 5
254 3
255 7
256 2
257 1
258 4
259 7
260 1
261 3
262 2
263 7
264 7
265 4
266 4
267 6
268 2
269 2
270 8
271 7
272 4
273 6
274 3
275 9
276 1
277 4
278 5
279 6
280 8
281 2
282 5
283 1
284 1
285 1
286 7
287 3
288 9
289 5
290 4
291 1
292 7
293 3
294 4
295 5
296 8
297 5
298 6
299 1
300 3
301 6
302 5
303 4
304 6
305 2
306 5
307 6
308 1
309 1
310 3
311 9
312 2
313 9
314 2
315 4
316 3
317 6
318 2
319 8
320 9
321 8
322 4
323 8
324 5
325 9
326 4
327 8
328 7
329 5
330 1
331 9
332 6
333 3
334 8
335 1
336 2
337 4
338 9
339 3
340 3
341 5
342 3
343 8
344 7
345 6
346 1
347 4
348 2
349 3
350 7
351 6
352 6
353 4
354 3
355 7
356 2
357 2
358 3
359 3
360 9
361 9
362 6
363 8
364 6
365 8
366 7
367 8
368 4
369 6
370 5
371 2
372 2
373 5
374 5
375 9
376 6
377 5
378 7
379 2
380 9
381 3
382 9
383 5
384 4
385 9
386 3
387 6
388 3
389 8
390 9
391 4
392 7
393 8
394 1
395 8
396 5
397 1
398 4
399 2
400 7
401 5
402 2
403 3
404 8
405 3
406 2
407 6
408 4
409 2
410 8
411 6
412 2
413 8
414 6
415 4
416 4
417 7
418 9
419 1
420 6
421 4
422 4
423 4
424 5
425 7
426 1
427 6
428 1
429 5
430 8
431 7
432 5
433 2
434 9
435 9
436 8
437 3
438 2
439 5
440 5
441 3
442 9
443 4
444 7
445 4
446 3
447 4
448 6
449 7
450 3
451 5
452 4
453 9
454 6
455 7
456 8
457 5
458 4
459 6
460 7
461 2
462 7
463 1
464 3
465 5
466 6
467 4
468 9
469 8
470 1
471 1
472 2
473 1
474 1
475 7
476 8
477 7
478 4
479 3
480 1
481 9
482 8
483 9
484 7
485 1
486 5
487 5
488 6
489 7
490 4
491 5
492 7
493 6
494 4
495 5
496 2
497 8
498 9
499 9
500 5
501 2
502 3
503 5
504 5
505 8
506 9
507 4
508 1
509 2
510 8
511 3
512 7
513 6
514 4
515 6
516 4
517 9
518 3
519 6
520 7
521 3
522 6
523 3
524 6
525 8
526 2
527 2
528 1
529 8
530 5
531 1
532 7
533 3
534 1
535 7
536 7
537 5
538 3
539 5
540 7
541 6
542 1
543 5
544 1
545 6
546 7
547 1
548 6
549 4
550 8
551 2
552 1
553 1
554 9
555 8
556 7
557 5
558 4
559 9
560 7
561 7
562 7
563 7
564 7
565 7
566 7
567 8
568 1
569 9
570 3
571 2
572 7
573 2
574 9
575 9
576 6
577 3
578 6
579 3
580 9
581 2
582 6
583 1
584 3
585 9
586 5
587 9
588 2
589 9
590 7
591 9
592 5
593 8
594 8
595 5
596 5
597 5
598 8
599 5
600 5
601 7
602 3
603 8
604 4
605 3
606 8
607 6
608 5
609 7
610 3
611 9
612 9
613 7
614 4
615 7
616 2
617 4
618 3
619 4
620 2
621 7
622 3
623 7
624 7
625 7
626 5
627 2
628 5
629 4
630 5
631 4
632 6
633 7
634 1
635 2
636 9
637 2
638 7
639 1
640 7
641 9
642 7
643 2
644 5
645 6
646 3
647 8
648 8
649 5
650 8
651 1
652 3
653 8
654 5
655 4
656 9
657 9
658 9
659 2
660 3
661 1
662 6
663 7
664 3
665 2
666 7
667 3
668 1
669 1
670 7
671 5
672 3
673 8
674 2
675 6
676 4
677 4
678 8
679 4
680 6
681 2
682 2
683 3
684 5
685 5
686 6
687 3
688 8
689 6
690 4
691 6
692 5
693 4
694 7
695 5
696 1
697 7
698 6
699 3
700 6
701 2
702 6
703 7
704 1
705 5
706 3
707 7
708 6
709 5
710 7
711 9
712 6
713 8
714 9
715 8
716 2
717 3
718 3
719 2
720 5
721 2
722 3
723 7
724 6
725 6
726 9
727 3
728 9
729 8
730 1
731 3
732 4
733 1
734 7
735 3
736 3
737 6
738 2
739 9
740 4
741 8
742 1
743 7
744 8
745 6
746 2
747 3
748 2
749 9
750 5
751 8
752 7
753 4
754 3
755 7
756 7
757 3
758 7
759 1
760 7
761 4
762 3
763 6
764 3
765 6
766 5
767 4
768 7
769 6
770 4
771 4
772 7
773 4
774 9
775 9
776 8
777 2
778 5
779 8
780 6
781 5
782 8
783 4
784 6
785 4
786 1
787 8
788 9
789 2
790 4
791 5
792 2
793 3
794 7
795 3
796 7
797 4
798 4
799 1
800 1
801 5
802 8
803 5
804 5
805 3
806 7
807 3
808 7
809 9
810 6
811 5
812 8
813 7
814 5
815 2
816 4
817 5
818 2
819 1
820 8
821 9
822 8
823 1
824 6
825 6
826 5
827 4
828 9
829 5
830 6
831 5
832 1
833 5
834 9
835 9
836 9
837 3
838 8
839 4
840 5
841 3
842 3
843 8
844 6
845 5
846 2
847 2
848 3
849 6
850 7
851 9
852 3
853 8
854 9
855 7
856 6
857 9
858 7
859 2
860 1
861 1
862 6
863 8
864 9
865 8
866 4
867 2
868 7
869 8
870 5
871 4
872 6
873 4
874 1
875 7
876 5
877 6
878 9
879 1
880 3
881 7
882 2
883 6
884 4
885 3
886 4
887 4
888 9
889 7
890 9
891 7
892 9
893 4
894 2
895 8
896 8
897 2
898 6
899 3
900 2
901 8
902 2
903 9
904 2
905 8
906 7
907 2
908 3
909 9
910 5
911 8
912 5
913 5
914 7
915 1
916 1
917 2
918 2
919 8
920 3
921 8
922 7
923 1
924 6
925 4
926 1
927 4
928 4
929 1
930 5
931 7
932 6
933 4
934 5
935 9
936 5
937 7
938 1
939 2
940 2
941 1
942 6
943 9
944 1
945 6
946 3
947 2
948 1
949 9
950 7
951 7
952 8
953 1
954 3
955 3
956 5
957 1
958 1
959 6
960 1
961 3
962 5
963 3
964 3
965 9
966 9
967 2
968 8
969 5
970 1
971 7
972 1
973 6
974 9
975 6
976 9
977 3
978 7
979 9
980 4
981 7
982 6
983 7
984 8
985 7
986 8
987 7
988 2
989 8
990 7
991 2
992 8
993 7
994 8
995 7
996 9
997 5
998 1
999 2
1000 7
1001 8
DEPOT_SECTION
1
-1
EOF
