NAME : gen1000_004
COMMENT : uniform customers, demands 1..9, generated by bench/make_tuning_set.py
TYPE : CVRP
DIMENSION : 1001
EDGE_WEIGHT_TYPE : EUC_2D
CAPACITY : 200
NODE_COORD_SECTION
1 0.08751260408729167 0.54611654069944
2 0.7293788257422795 0.9727827607365425
3 0.08910391967056597 0.46974553978069933
4 0.72830206541086 0.8993250577563197
5 0.0531159274773082 0.024643699426406984
6 0.3578235828118903 0.9312309612521746
7 0.9269366406375841 0.13545259799811848
8 0.6849825955540612 0.182653334330107
9 0.8556701037705274 0.16145159328879033
10 0.4572020353233742 0.7277282231765132
11 0.7374682108710385 0.4639812356293901
12 0.7039239660351083 0.4187319818178098
13 0.34802579699695113 0.6807495777526005
14 0.4614516732375622 0.8278995294309902
15 0.017864219731932307 0.008052330114206474
16 0.8169181812723506 0.033235173296648046
17 0.04587877074174995 0.8356533077468729
18 0.800805568624694 0.44575180960713856
19 0.529367614505552 0.13154766942971585
20 0.09533895414699955 0.9853902474893305
21 0.5501325456251426 0.37313554205927735
22 0.4434896363676111 0.7359048741014803
23 0.35646144164337434 0.915445118699811
24 0.0861346605959139 0.4567698828476414
25 0.44418539324223216 0.33516991664643214
26 0.45745761014467523 0.29498412220183456
27 0.7692758471769832 0.1492730557334052
28 0.7139069435162484 0.8317868493803647
29 0.7014481709144085 0.286860627798339
30 0.2728788795875873 0.2095323044908397
31 0.0617499092475442 0.6333129517334387
32 0.6940278952641754 0.8969529671577647
33 0.8390307140752344 0.2916619904439752
34 0.3346205339478122 0.9140179739186198
35 0.44928115318703565 0.2563511902876974
36 0.47796267901079736 0.36898855879732284
37 0.953711545386095 0.6906268044632441
38 0.7144047849876223 0.19088711581188356
39 0.6309264164918367 0.43657379866133716
40 0.4451013492285648 0.46517505535965864
41 0.0049926895973405605 0.12947325050188818
42 0.7285436291147773 0.34486378269126194
43 0.45238895516605804 0.5323996384076531
44 0.8299877037117886 0.6969571226413843
45 0.6539785242192135 0.849382102113922
46 0.984992152731836 0.27735141330627466
47 0.7503630622783816 0.06645745147398552
48 0.028905676208220488 0.23349997766620145
49 0.9758260991034785 0.9977500899183169
50 0.5575937534853833 0.6862372371170002
51 0.6999449980130388 0.08860788526527053
52 0.37847870395865824 0.5246084166192361
53 0.44086359907610617 0.8751328971885968
54 0.6229026461379796 0.5412503122478635
55 0.9921188011263896 0.8442604367217699
56 0.5100241607478725 0.15497585297619987
57 0.8944493383190871 0.8810320184987315
58 0.14938760070652046 0.07171683127243367
59 0.953310567701672 0.15901516730411103
60 0.2994627266817801 0.9557418868703347
61 0.12295852673334928 0.3087224742401007
62 0.7748408805645409 0.018069403007674234
63 0.24555576398673307 0.07119004342538582
64 0.3131059282065207 0.3292129219690848
65 0.4826516942755643 0.9535841463580028
66 0.5955639462074007 0.43777936744346746
67 0.27341846061630526 0.9261686677371215
68 0.9263078489747383 0.42281184391509474
69 0.6519745569740086 0.22889829945320783
70 0.9941590853075727 0.22296147829421387
71 0.47396977879128654 0.9243287182565025
72 0.7308218044295546 0.894338702657187
73 0.2494450630438264 0.21507307905136475
74 0.3974973038753111 0.6375521771921384
75 0.8642147708502129 0.17848843095610867
76 0.3450650195960584 0.8855874511043621
77 0.3030807377642779 0.6236125558763365
78 0.9377438378347847 0.20152921556524606
79 0.47108580265883215 0.8687163670456896
80 0.5278592254114274 0.39676432587927235
81 0.7656805154490156 0.024348631854359204
82 0.8435338525760484 0.33808768210342066
83 0.4272690090994653 0.9457138727319765
84 0.27424986997489464 0.6608953754639793
85 0.5453189514098357 0.4215971002976385
86 0.28909489798116406 0.43969970407472647
87 0.41458045684690603 0.13050344960930438
88 0.6693684299768009 0.3858910117537184
89 0.17516877718388368 0.1978123339153839
90 0.044464816159976106 0.8392179073839752
91 0.10385714585562089 0.7124275230509218
92 0.7701669452615328 0.5939283672176292
93 0.2604563765977901 0.08104946709442562
94 0.4713270843412398 0.9618971783820842
95 0.8350461405018962 0.09483810329266795
96 0.011988521150334885 0.7263045795853694
97 0.17201639189936202 0.7651124073594215
98 0.4653513865209338 0.01901819376972058
99 0.37995100256721026 0.7150367081193613
100 0.3672945713286332 0.18014567851564978
101 0.4101339791051397 0.3287722579660296
102 0.4144446042058979 0.3086107132412099
103 0.7682961321688195 0.9419646728909382
104 0.6910305434731314 0.6279695098140959
105 0.4315946849703901 0.895364633398548
106 0.38606320608038025 0.36116413987613105
107 0.7897165058915241 0.4774441651052871
108 0.6704387584934213 0.5015756546656143
109 0.08753277981205809 0.4439480819827727
110 0.4495534891260913 0.7155968925809916
111 0.09350701697106156 0.1445721500086089
112 0.47423148565109396 0.03142629622398918
113 0.3252793128931649 0.6090480611179447
114 0.046310677629527564 0.7533163052016514
115 0.5493287217468182 0.2962258837513524
116 0.3245941945639671 0.826984663102388
117 0.7977171885614334 0.2306112097121482
118 0.9784408933289731 0.14061214662430088
119 0.18312423636807906 0.22805617143750867
120 0.9144639987925265 0.3690123041473611
121 0.9757626915663816 0.7422688989447772
122 0.778439301507576 0.17617341671002618
123 0.33293427022371935 0.26330113656609133
124 0.17480439195785458 0.9728806037178409
125 0.7932147379080369 0.29256775656348877
126 0.11536475403793489 0.6739287369442043
127 0.23237711057864352 0.5601056622012722
128 0.5878356521138558 0.24680269870994975
129 0.528154994322406 0.49271811758838324
130 0.3550004145928507 0.34238888782315124
131 0.3322250443079764 0.3407712729105651
132 0.5329756559931684 0.6240089578679562
133 0.8102188591544657 0.6089489451417772
134 0.8173598580430588 0.8171571807978432
135 0.9072616638667704 0.32060704328241785
136 0.18388984408283404 0.6353145465591307
137 0.054594082101167785 0.16318211708752617
138 0.35635117839277974 0.6380386367230619
139 0.37119537201966857 0.6806558428567863
140 0.1329945667215685 0.7845027034766454
141 0.06093691372741805 0.5386650525775465
142 0.7479752991291168 0.2897409568682957
143 0.17986828948637779 0.7256230319760689
144 0.14296855890185567 0.4975016391156196
145 0.5175295561969795 0.9464766702024816
146 0.5686811735822919 0.29655999478161876
147 0.9946787910770803 0.13251128381871358
148 0.5105927478137253 0.6362958213961488
149 0.25779847187334004 0.8590804701375935
150 0.2750392455585422 0.16519782108191972
151 0.9026827084425453 0.23771476164584393
152 0.11139256016262855 0.7990998891242913
153 0.40769107937224836 0.5465630253895827
154 0.014549297237746117 0.4931676099417669
155 0.9530006013735994 0.47932138781108347
156 0.3157181924937944 0.2916653524605628
157 0.48849073476918126 0.8910266204700484
158 0.7978928190675818 0.5178146516965595
159 0.8209772741148073 0.05379298051617354
160 0.7936406225917906 0.7353252456448017
161 0.08892791537331124 0.6324903236706264
162 0.6986038236220634 0.724338340853336
163 0.0729575472292271 0.5201269336907579
164 0.24980894863305436 0.2317741538636282
165 0.24891622942560376 0.00345248887308669
166 0.13844522033573325 0.2738705175613845
167 0.01899203703117125 0.9643793014472358
168 0.48560602875733705 0.7644079907819289
169 0.7828903618278604 0.23907726050696387
170 0.6981579322349445 0.9059148887979253
171 0.8591565092271065 0.9035482315095964
172 0.39527125470824687 0.20898346622891883
173 0.9976149946638045 0.791210351211232
174 0.37287412668099085 0.6844281241374479
175 0.39579063563625727 0.6672296698584204
176 0.5779157852036605 0.6839130901887411
177 0.8156789653923459 0.1528565357005599
178 0.047517080188603567 0.300874444172334
179 0.45984081910556907 0.760979168874726
180 0.19847966432149144 0.4667764506457047
181 0.6999760080700707 0.48404772487263203
182 0.2747682250741117 0.09060050348094828
183 0.07052368742711224 0.9182046045561849
184 0.8029102970024314 0.7067828086441359
185 0.7874856595219093 0.30184072337329504
186 0.7511425224811052 0.754055685899886
187 0.19018742547555956 0.5895861049249427
188 0.3763792405102676 0.2869100497661181
189 0.14868674897104606 0.546557072270952
190 0.15210238486976746 0.6568117559151844
191 0.24020394014391555 0.6514327305162658
192 0.9968245919352718 0.9587312482585352
193 0.21655279095590096 0.2905627717784719
194 0.4112411862913361 0.9555762003137563
195 0.4005247688225011 0.16377023874746488
196 0.5100035435959436 0.1842071129695897
197 0.22481903658739966 0.9317635097727037
198 0.33691801809474553 0.39402711978619254
199 0.15137432915368132 0.33675285291960266
200 0.0747637116422184 0.14041139627171761
201 0.9528248776334145 0.4157519543321111
202 0.9778328167668148 0.30606680771474515
203 0.8975065932124696 0.0586548676984624
204 0.5534840124639349 0.5485806651328987
205 0.7230462404140523 0.9234229660897262
206 0.5071199477867838 0.13808934810232498
207 0.830650638729672 0.9061129559868135
208 0.43506642451912214 0.9154536393962655
209 0.12475998080199824 0.9001325024753781
210 0.9440060367839687 0.5104888420397329
211 0.39806754307195347 0.13330182902384502
212 0.9514964416911498 0.973031568059935
213 0.19683342564521755 0.06520969815701183
214 0.8835869465895231 0.9824576257803996
215 0.9113708363134976 0.25293285661417575
216 0.5845216473043183 0.24469331499291136
217 0.48344461569420394 0.4762863059578244
218 0.06682926985188575 0.4154901990566269
219 0.8388531095788937 0.8855325765276779
220 0.5438278282838411 0.8209229039473921
221 0.7670556485576656 0.951968677242873
222 0.15629156855025084 0.5383077690561792
223 0.7806218124993048 0.8082465342989062
224 0.3378777409238689 0.3410470877728461
225 0.2983663122434792 0.838617505363271
226 0.3926700786540056 0.47993921680756424
227 0.7789201805188677 0.6050755080741009
228 0.23652087857187687 0.8010699578377
229 0.14240817076255474 0.5980522438249164
230 0.19080634448512201 0.3730808316352435
231 0.6108438964355145 0.36190895980222426
232 0.9534995330672007 0.7298628399539585
233 0.19810414185799718 0.34447942902101114
234 0.09950391375133327 0.39933020011006404
235 0.8672083750273132 0.5010664695653315
236 0.8136948985849033 0.7557615290490495
237 0.9074179645948484 0.627989038945714
238 0.4569983026274361 0.20987063805996642
239 0.720289102077076 0.33050526615878395
240 0.4201084415822265 0.7718491644091484
241 0.042153031705949084 0.5930717111039246
242 0.35503107280782775 0.47836407132553205
243 0.35459809320307867 0.4921254449557019
244 0.1837452269935026 0.20229050167922447
245 0.35549534253191295 0.44117974673930915
246 0.307939633977947 0.18421517181877511
247 0.7511886497560831 0.966961854011774
248 0.7138982249399569 0.17515121791925126
249 0.27639798123135517 0.03643814024771452
250 0.21727835915602467 0.24890588415881343
251 0.4136577470503985 0.3035316300532055
252 0.13402669069446205 0.5703413234606393
253 0.40426899968358676 0.11587837810893731
254 0.47154505387690504 0.1182564218919121
255 0.009435362116944401 0.46812295378943236
256 0.7015909873865906 0.7161754589613941
257 0.5344547720632012 0.9880616451013596
258 0.2506659414435165 0.8150082069849159
259 0.5059537598996561 0.6990072819211941
260 0.00697598274795308 0.6667544504282173
261 0.3140225766250675 0.8820047805347812
262 0.7771914655919903 0.9173024363925899
263 0.45053102673152223 0.8833390248597732
264 0.43534671115088663 0.9875879746293782
265 0.739762333643463 0.5451527474782741
266 0.6502715847500794 0.12440962661326294
267 0.873558036829884 0.9950345817770507
268 0.5164531079627354 0.6935770093403186
269 0.9062744919519641 0.6642906618299566
270 0.19034543532586734 0.6351587403890717
271 0.33964125479176643 0.6579376587023666
272 0.006007858284909462 0.46291806710542815
273 0.8366885545207337 0.3069188892649283
274 0.4377435509734716 0.040962495496831064
275 0.6829753100562602 0.8949033123137742
276 0.49175732536223005 0.4388479074229218
277 0.5640873631540622 0.798510732063087
278 0.2575754277950564 0.4814155283406999
279 0.21704024557807966 0.9990388725125178
280 0.5858119961980296 0.9521515893594191
281 0.727611167831396 0.6664155233914385
282 0.5624601848380342 0.03760427221043461
283 0.514107056571988 0.5887523393795255
284 0.8421770238140627 0.17662411677124323
285 0.9655704291045616 0.7838517789390925
286 0.6236565220280835 0.6590433603119726
287 0.7730241243968813 0.9681972916136088
288 0.5361230303046125 0.8158936125077243
289 0.21632424533500538 0.1769022086812332
290 0.8540708582203612 0.11839954069750125
291 0.03365422845977717 0.2906519819504336
292 0.46466704013875415 0.4362775375267752
293 0.14543617574000411 0.5648913585150697
294 0.11253674719272078 0.9464812294561777
295 0.3271990375969741 0.7412450774916791
296 0.4654539671173321 0.7144117986255843
297 0.7485673710939755 0.5736102702565475
298 0.0949998897027321 0.7211330586795873
299 0.37277019532971845 0.9871951709188796
300 0.8368834946875194 0.8036722118013429
301 0.6969934691692707 0.6178228096821592
302 0.8988773318228686 0.12046237243442925
303 0.5271584290091232 0.7989290404285521
304 0.3801127019411792 0.1969971426707241
305 0.0805873181958342 0.7866572836001637
306 0.09891804325563758 0.02692231841560777
307 0.49306608191014967 0.6948524060449365
308 0.3247989335072612 0.677161051988332
309 0.31769199099497847 0.6356281289160499
310 0.910952161282661 0.5444648193107583
311 0.2914924034999987 0.28579767168394987
312 0.9432892149129114 0.6785284330797228
313 0.8992584160292383 0.25873639964662964
314 0.5562561602732125 0.4577409684020113
315 0.7516547522888491 0.41917105214005235
316 0.4917371116891084 0.09811137288735439
317 0.32051405788783127 0.1877465412342566
318 0.37931443591089054 0.26354588392457756
319 0.9164835663627431 0.6188513436658352
320 0.16510388718733138 0.5436401083402409
321 0.3077861950358506 0.30052866435469505
322 0.4185449337691355 0.25517484245996325
323 0.33767465502651306 0.12796809601750037
324 0.677126373820824 0.7154024796193416
325 0.7708105780495663 0.2111881436540778
326 0.15086632717690562 0.2724881811291755
327 0.2307058638504278 0.3775909713909681
328 0.5959096151108879 0.05106536204928824
329 0.5468459421809853 0.13795290080456857
330 0.7456857324806848 0.2704780003627285
331 0.5452439828173868 0.6776759397276879
332 0.611110517893183 0.22014569061200462
333 0.33763875129864607 0.8430628468632004
334 0.02290695857265168 0.3072398653089966
335 0.03312961670992631 0.2314660961324967
336 0.43471978157634816 0.9876802008971702
337 0.08767417728134785 0.24758352576340947
338 0.208492943284586 0.2576395266636349
339 0.6017745452587967 0.8569433449104957
340 0.7461681798953954 0.477490611284623
341 0.3529534274602798 0.6109167360907294
342 0.38809342628530585 0.6700840500138131
343 0.548696802907561 0.8322037210557278
344 0.07396332293597285 0.5294226848767895
345 0.8376729309255185 0.41468275868498605
346 0.5621790896976565 0.4649762120573435
347 0.5749946607330024 0.6896996540150853
348 0.13751790996577096 0.2025971837881244
349 0.5680515046770341 0.9987482419445123
350 0.27359967119536643 0.15092394066333092
351 0.3197252016806441 0.782673100333433
352 0.6605790654470866 0.15501630199569716
353 0.3585077015934065 0.22247814090845774
354 0.2135559454653666 0.789760871675265
355 0.5129533517556951 0.027501507987549578
356 0.2949626614342228 0.9135229017985956
357 0.05544196532028778 0.6584860472343607
358 0.41750846212256243 0.04385783933396192
359 0.198818895295933 0.09160835599310346
360 0.3173089765408066 0.07046766620443556
361 0.3309653294202667 0.11484372591599101
362 0.3072873109573334 0.7308360466605424
363 0.9183498845986527 0.13320085006934712
364 0.171867710934413 0.5500835708522068
365 0.6619155972584828 0.8464650975015972
366 0.44439208162559607 0.7999401171233159
367 0.9001092615429007 0.8570620864373558
368 0.8467877079896067 0.8441210830861958
369 0.4335738492961829 0.9962227467103445
370 0.2692208152023594 0.7108900934845327
371 0.5543370173390296 0.7060663480158756
372 0.4019171747300183 0.03256405073262891
373 0.17874569402316354 0.1357495516128554
374 0.127915831460099 0.47411715731715254
375 0.010949367715805014 0.2915597868289598
376 0.7694664871191389 0.8063668224860682
377 0.9149507813936494 0.9164437982978026
378 0.5979587762410451 0.7803649306376399
379 0.4225521237401052 0.7730231654443238
380 0.6101164920274753 0.021157433584574448
381 0.9544102539818837 0.85519844878071
382 0.37143977730904265 0.2561241268816211
383 0.8221308677311454 0.7151844021903458
384 0.42846076446812065 0.13847946186419124
385 0.7910137998793718 0.29242075657179323
386 0.2184927401403831 0.1740604123641667
387 0.5100721730354231 0.2069686404718747
388 0.792099254200157 0.6462957345847018
389 0.7554760350951216 0.2246403212628295
390 0.49771845956865846 0.4098125837619525
391 0.1494108281558001 0.05659745409150485
392 0.8009386933212128 0.7999272867495584
393 0.6897053074394032 0.6931283758411642
394 0.3004776873055417 0.45583436650691367
395 0.22911122707874187 0.4886746252396744
396 0.18519930165865195 0.49018188127065354
397 0.32833748536488394 0.7610332451098001
398 0.34427624564852277 0.62328211293926
399 0.13277742771852985 0.5130761886152632
400 0.6918528235936028 0.3615168101630857
401 0.4035727617067735 0.6864548295729691
402 0.6593905091943703 0.4807556108784369
403 0.3083765162348028 0.47066081808810944
404 0.2108100499314961 0.6393553223005449
405 0.5679154361516746 0.7992514426020525
406 0.0711063728521365 0.35273373528836227
407 0.09400072365100232 0.0343728403925978
408 0.5386341725494543 0.38694386165828154
409 0.2689357399860026 0.3655103945427368
410 0.8098926662755005 0.6127237838008468
411 0.8099636271497963 0.8951844366017134
412 0.3262834694606864 0.20118506220944476
413 0.7471785841368901 0.9004053540865258
414 0.49713476533919 0.05438953307768646
415 0.976794997139833 0.35284380079816824
416 0.54229185798096 0.5305352348328052
417 0.47575775621028904 0.4594640576814937
418 0.40642880974535933 0.5202708218760141
419 0.09519749875720085 0.9008977463188752
420 0.9830952516632555 0.2342184318335222
421 0.26646959072407217 0.6625379037451338
422 0.821720790434858 0.18868770786466382
423 0.4220579961685216 0.1823871389691346
424 0.011994965249014444 0.4851278489504851
425 0.01914534822991143 0.940300663453391
426 0.013404101404169588 0.605930766039613
427 0.7718170225165972 0.2878043238667396
428 0.08664096984025149 0.2123210564504744
429 0.26848595257152275 0.10609757936026087
430 0.21594823996151635 0.30157977091332955
431 0.7306911879563048 0.9214352096721388
432 0.775803184877945 0.242479504288311
433 0.8809263502646814 0.13868180595711688
434 0.25073740807243006 0.8706008110715564
435 0.29707194912356105 0.6076790653899204
436 0.9825195336244535 0.8490982414045484
437 0.2953530404479392 0.14726839609245623
438 0.6530285350628486 0.638588462514738
439 0.9696341266109668 0.7414448415936293
440 0.35969120592669845 0.8768887955941478
441 0.8542482863939184 0.754558686057524
442 0.029677615812597424 0.9672108863822347
443 0.0753467296600171 0.7543642266138124
444 0.8956493705403483 0.7764484241986706
445 0.25263300840643044 0.9089561996627766
446 0.02162583253359851 0.4187855698507753
447 0.20646524746460682 0.21107201380823382
448 0.7764664076135867 0.5027109432474562
449 0.8982534793367947 0.4293328538472593
450 0.381716814401899 0.6116380502462491
451 0.6517805139482254 0.2123512932475694
452 0.8575269458669346 0.927723636565056
453 0.9357368117995082 0.6607007285971436
454 0.6164445612096651 0.7634296237503311
455 0.8482961974435443 0.2794763303283483
456 0.45241062789153186 0.24060472093223528
457 0.5495438408411485 0.6336004494683797
458 0.47680467332291065 0.22260354131987115
459 0.9997160608056179 0.08328111074755273
460 0.339888623426724 0.31724434804185164
461 0.8048616720326497 0.2151821487121932
462 0.6352571051285842 0.3282104030734073
463 0.9563380198365219 0.35596948855920796
464 0.8970732823896164 0.5580205809810078
465 0.7700212328820026 0.46343031781329314
466 0.5603141004602503 0.4873570506831655
467 0.25110164467379037 0.7420027777669976
468 0.674142846191532 0.6296676759901662
469 0.10453957252756207 0.921720624624986
470 0.5131255006348842 0.8599585211794919
471 0.49183725124661315 0.5852029077539477
472 0.06713349473451835 0.8068405757408375
473 0.20992983850539915 0.2616400523388236
474 0.13272409334943813 0.017160984945171043
475 0.41300537103117274 0.977827163463883
476 0.4319073067868203 0.9896254115194542
477 0.12614368408286325 0.582565853223238
478 0.7158462755670254 0.04926954549880169
479 0.13775090411337776 0.4530930838470236
480 0.18829018448097667 0.7475429181557882
481 0.9831216030013297 0.8971602709137001
482 0.46980092823714403 0.10486722771719115
483 0.020171810148051028 0.6593850145340574
484 0.840544447953371 0.9962312276708523
485 0.06175412388399515 0.126784039734536
486 0.6966534443761814 0.9936391311095844
487 0.4689427981113157 0.6328044973481668
488 0.21711466986361494 0.7479795907017325
489 0.3306133326006738 0.26506227045595143
490 0.03167901462113565 0.7310074841726444
491 0.9769932558195991 0.9291884619154319
492 0.01040706074449349 0.18708077697596237
493 0.5957426651397637 0.6196840513617932
494 0.6732330904058992 0.1303083874942993
495 0.14147062612809647 0.755399844073039
496 0.16210260512699748 0.2986624661267492
497 0.8379762033703936 0.39061878349405843
498 0.10237080789336772 0.07736314545464917
499 0.19052859458547178 0.11267301736707891
500 0.3297396867351602 0.9073796478581054
501 0.9692409033519496 0.4692917153223304
502 0.15145539791970208 0.5152635254164046
503 0.5134884769313337 0.556179349800789
504 0.9486483806933835 0.8436560925988501
505 0.09160371839183712 0.1657139679004399
506 0.4736331434815423 0.01411879621725598
507 0.39336357560916413 0.7457293414347222
508 0.6332403511520129 0.47959889458574234
509 0.7647551275955734 0.7286751948255711
510 0.04770756414758204 0.6129573317275782
511 0.8640924815654856 0.5237987554065082
512 0.5340190099141728 0.7555003925280384
513 0.9877610070231145 0.41461591810743714
514 0.7497793244039385 0.38883440966880234
515 0.6755876475290474 0.32369383437919375
516 0.4363176212162627 0.9880869276491862
517 0.22363020512690102 0.4603537747210531
518 0.23235223262601468 0.4908704671999877
519 0.6348916409521361 0.49698921172957256
520 0.8644025209257726 0.30796056621061296
521 0.4973994342634501 0.41201082403488
522 0.27418133735726613 0.3576988730974501
523 0.3108614137208989 0.7079018408386974
524 0.8064197724833012 0.15197545197162865
525 0.40527945795452835 0.11340390146022072
526 0.5483829597588112 0.27598182549271877
527 0.3686589364956624 0.9661863638696059
528 0.25768357091231164 0.7926078074494092
529 0.4530283212877786 0.8321458152382285
530 0.16036095110995263 0.3076399367547701
531 0.04868129507326868 0.33369873083853496
532 0.8115251444142726 0.9484601330662212
533 0.8369217203260437 0.9505532800138207
534 0.6509554257901319 0.038035725550812916
535 0.2845814517371803 0.8805224093255899
536 0.4197402379518932 0.4981088119560497
537 0.6959630991619686 0.12890466602124562
538 0.3078805367581554 0.3520303018127806
539 0.43464648265257766 0.6121966926343122
540 0.520174587355845 0.16328304696080498
541 0.765100650751091 0.7804519199914883
542 0.7023638663690595 0.5789537601131776
543 0.35350334589965204 0.21461952798996597
544 0.06324253401470326 0.038493971003447536
545 0.4381692081943608 0.8326055220551332
546 0.9251337798313004 0.060607333661411134
547 0.940755423168884 0.7336960629982361
548 0.9885622697756401 0.6514206769960228
549 0.10840708901061502 0.15623516968801854
550 0.7755784674806091 0.03551991622824857
551 0.24586141838217712 0.028664137379174837
552 0.9032165066282952 0.2411727804586996
553 0.006052187021181155 0.9564356885324821
554 0.5357282974811542 0.26205776994762653
555 0.6902628249355975 0.9317750452661272
556 0.48681215797677646 0.022429371689318578
557 0.49171313414622264 0.35728833179748143
558 0.08814682650218941 0.6211179779770597
559 0.18642071017921613 0.8794404043539097
560 0.6974129692398822 0.9561573547768062
561 0.7886887608969556 0.5185647327510474
562 0.3123163273795906 0.871708943863738
563 0.4678740176047692 0.2043870021781824
564 0.7459046587754131 0.1562832244707122
565 0.6438523242675526 0.5310775038644482
566 0.4053717789936808 0.9713663257521438
567 0.9783033287621856 0.9432168815015116
568 0.9466153035459022 0.1591779573697758
569 0.456109669564818 0.39814377104854415
570 0.9842549087268541 0.4170514279426001
571 0.12352976798487536 0.7197959444932671
572 0.7053872710037407 0.9123670699821208
573 0.51303691127653 0.3249431870015327
574 0.09351334481808737 0.2743920347333946
575 0.23786505818891157 0.6410791776601987
576 0.845636729817967 0.13582940581900071
577 0.022906897530021064 0.36879923024919437
578 0.8158898980181691 0.42507554811654225
579 0.8124629601276636 0.9179004495282443
580 0.909284704380035 0.2341348184038513
581 0.19992957214633633 0.4551035244912659
582 0.8157050513861239 0.16719091537273156
583 0.48888327600284676 0.7017498548980061
584 0.06692580956741478 0.8484128136150706
585 0.43505051154800545 0.9040741155756328
586 0.6459713519225948 0.8505440429287539
587 0.15051746770483376 0.7712049340132973
588 0.08717024511432037 0.8847295380112798
589 0.05761893276802843 0.37459813100044426
590 0.13719936147308642 0.4092624395309177
591 0.07330636490491838 0.8068528112847874
592 0.749766040417889 0.28529038673668006
593 0.7317992681010852 0.30215535923140435
594 0.48844141007583985 0.08894449827543838
595 0.028099657456755578 0.5828968688905237
596 0.7768847423045966 0.9121814157521657
597 0.2861066312307011 0.06783684192960149
598 0.0879206731179073 0.31867744577447354
599 0.7596077057303413 0.3541919399982595
600 0.013269104139930876 0.452931976153479
601 0.8437223895601292 0.9664828429834553
602 0.6811902986978426 0.17542833826465554
603 0.4327524972818132 0.6725311953279064
604 0.103238928326007 0.7773585418513382
605 0.5620388847220198 0.11168057640737017
606 0.13133040963151343 0.543209319583804
607 0.36551105815147844 0.11508708486969554
608 0.08273008622925804 0.3543598050861264
609 0.2698640883434503 0.20258298814511488
610 0.19268196030635198 0.445524932928811
611 0.9344328559764716 0.8421284641859748
612 0.6168881264689161 0.24146580994675693
613 0.5676801118714621 0.9095396456893078
614 0.7635838804850325 0.9713755873695251
615 0.8181193249228812 0.8430672470649635
616 0.11975489191886679 0.32591287458759166
617 0.7419186039015814 0.9103625557141873
618 0.9257176890465656 0.17264215903671798
619 0.1725107735182052 0.7644680937515724
620 0.5924830127113632 0.05408117759274067
621 0.2741521650096903 0.47238795066979467
622 0.17867421362287172 0.3945275928590163
623 0.4665133330852528 0.6746361748788232
624 0.7085874547107464 0.45448779517188
625 0.138675406255092 0.05804214368527716
626 0.5089923255447031 0.9938203100069268
627 0.14119366591352733 0.35166851022589485
628 0.7814932716274677 0.6713761965698806
629 0.2985189709716437 0.22007586594536388
630 0.5746101177376977 0.8065357213010788
631 0.8223107888905192 0.23556100656305112
632 0.4819516480400736 0.21611816668151207
633 0.9162202690947858 0.8311886490491043
634 0.9086461598810486 0.01896594057708967
635 0.7780620580941255 0.20101765639820046
636 0.2204480279344765 0.44365411763474427
637 0.8378977884769253 0.33206610259451075
638 0.35146274369357877 0.9711801027472208
639 0.9808662187218811 0.1286018302807952
640 0.7863768966591291 0.7410604422902475
641 0.38711124757172843 0.3915466062377777
642 0.2189488305404479 0.16425215577986652
643 0.3223132979316553 0.030089280248192463
644 0.6537096917056433 0.8693767425037319
645 0.5569398134085202 0.1872240795030875
646 0.24966059161484844 0.3092471420268085
647 0.2374618072567517 0.9495061224102082
648 0.36802463668171836 0.8387748226085253
649 0.3099836302268383 0.9185040854423329
650 0.4181135061941812 0.8785356215995013
651 0.573009651092053 0.5638476968189614
652 0.3417070758725844 0.23166809949577438
653 0.5226455121970804 0.7697231691891948
654 0.13767801800970347 0.09916354402641958
655 0.6781279232413118 0.6568411899314254
656 0.828221427746484 0.5232052729345378
657 0.9250527858904983 0.3089657079045228
658 0.7961115228955749 0.6856874825379101
659 0.7339143649566284 0.8647810849872806
660 0.6950793027494631 0.8486598067683583
661 0.47974280638779554 0.3701340436757724
662 0.5317746177184003 0.9285781768628477
663 0.18362225051218894 0.3045654549716147
664 0.31643470144658703 0.9825966962375777
665 0.6340844279858013 0.6238913670800235
666 0.7656546940153054 0.03258068093446287
667 0.2834330193087945 0.5962766025061934
668 0.4611855025739783 0.6742138605184397
669 0.8947776622313861 0.5492238964118717
670 0.22514298329667692 0.6439668935145526
671 0.5250843768827775 0.809263088273683
672 0.4457810516947789 0.902605572826247
673 0.24280367648123313 0.49170597747903566
674 0.31369822228965716 0.4706003742547006
675 0.1859460287790029 0.6994437698974995
676 0.0495799181008183 0.9056206455610303
677 0.9724907473972486 0.48091006460044006
678 0.2647859434999307 0.5121319287657267
679 0.9533642217202127 0.8767725909859821
680 0.8889010425827415 0.4695229700555452
681 0.4606248695832691 0.09950318695299387
682 0.8393468019905601 0.47782971814305286
683 0.689637296527911 0.21310970863561451
684 0.1723855181128342 0.4640286601860366
685 0.902994916985963 0.7117279495300739
686 0.19827998021620863 0.3761091738209973
687 0.8613954817876162 0.19954732091532335
688 0.8381986323201158 0.6349727569535404
689 0.16094607721386756 0.6632171332903378
690 0.2582783302383618 0.11873991034360598
691 0.10094752278213137 0.8808310306873711
692 0.5372032526026346 0.8991927698556603
693 0.9541637677653083 0.2035187973757615
694 0.6821443275758264 0.7777481230330179
695 0.914033340377579 0.7645465346663551
696 0.6289252264494117 0.8393650061205119
697 0.05112267041019403 0.7334024983015797
698 0.4899162342158001 0.0028952436592425412
699 0.7050401018301973 0.8297116667428917
700 0.14333903590329822 0.9953103418846496
701 0.9624900715496308 0.6501566278888734
702 0.4094133883585537 0.5380642094523648
703 0.7513846073887482 0.3821076844348077
704 0.7910143430414107 0.501134504812392
705 0.64628064761659 0.5510525349533806
706 0.11549488866202917 0.2691860196415997
707 0.7363551414978704 0.9238538389417705
708 0.9659040492115736 0.55744708786568
709 0.8715037468111386 0.7539780308992372
710 0.23043197667739135 0.8169406031013235
711 0.31211699120609315 0.09732779899141086
712 0.9620714217173805 0.981872305250335
713 0.2930714514157039 0.26195484160218474
714 0.6937377641764302 0.5368797566174128
715 0.08765170519657017 0.07961512595229969
716 0.8955239158327616 0.8294204812869486
717 0.7699926425028499 0.34361255571548754
718 0.421236619876292 0.4829747052841018
719 0.6204688780126739 0.9202140598873239
720 0.11348276566209126 0.053265249317554386
721 0.4093148284783815 0.4770954471432425
722 0.48867460452510136 0.19572277542015115
723 0.012427417947122987 0.5607158904770895
724 0.6974477697772997 0.5546598009476493
725 0.8682609633807546 0.09878736598147064
726 0.5318813061323271 0.9308046863837237
727 0.839472298777807 0.5785674712849949
728 0.860509902927786 0.2278283786879125
729 0.5503148479021922 0.7139063401505729
730 0.6148342211659976 0.8137846659617718
731 0.6555151200180718 0.10205382494297144
732 0.7073782664079875 0.287743664048118
733 0.8547616566344952 0.11154436156278047
734 0.9522233315936234 0.7699193777865618
735 0.22444881759135193 0.9279915615865875
736 0.8176274232780386 0.03132167102343075
737 0.6050274859283444 0.5740073442752646
738 0.4587193400870856 0.10439929322378516
739 0.4294561429745458 0.15923982776125034
740 0.13966574828218914 0.5854016318980181
741 0.4481583109072881 0.21827479378852377
742 0.49207578039873245 0.22886405606416438
743 0.14834784235805398 0.5308000000028156
744 0.35194978362073714 0.12536717216372006
745 0.3584966228897907 0.6397518294661276
746 0.594656350851569 0.4380551278322975
747 0.5814951751010706 0.1813299447237121
748 0.4402219105346251 0.859501609955541
749 0.7400665753225718 0.475746862440263
750 0.9971938563041798 0.03849096815049702
751 0.6058697853952134 0.4884015935138942
752 0.11278537518094378 0.08523205921729915
753 0.4827685780270521 0.5018527972624873
754 0.5836661428041287 0.5312870808778147
755 0.550955266169553 0.9032866316160081
756 0.7074028137726236 0.4081163080974416
757 0.2849874224384875 0.8883698088864372
758 0.9502998918039376 0.7169721482778548
759 0.542574524490423 0.5067063373966804
760 0.5891117064921148 0.7297161849937691
761 0.556872670144846 0.8468104377592266
762 0.353470364088883 0.15453650000063024
763 0.8543314580888663 0.24797624428258147
764 0.27980137580352626 0.2487757756129102
765 0.4059754737380502 0.3471887249308119
766 0.01747629197156797 0.5652525029686634
767 0.0954314795508785 0.760084969531922
768 0.5773894611556454 0.12707449527618797
769 0.6284606040347938 0.6165690938925326
770 0.8175198250190755 0.008387915221975129
771 0.7284557692384219 0.3557384142489217
772 0.7296186675949462 0.7067717061966192
773 0.9540280798519095 0.9667617131110291
774 0.3842627096751928 0.6834371118189397
775 0.09133913269610239 0.7474445219808964
776 0.38089120285465006 0.29512154419642644
777 0.43374049794612857 0.4239533514554811
778 0.6626567933336482 0.11779457825366901
779 0.08273078466683981 0.30625105846083067
780 0.78156750424364 0.38160410422383806
781 0.8929550027238943 0.41522835273904324
782 0.3484737439879657 0.1023459211136244
783 0.5747462745366373 0.09147262484003527
784 0.5785019010266871 0.8237197976008266
785 0.42374298785080944 0.28462639855281546
786 0.9897282379118295 0.732307836295334
787 0.12269185503017832 0.15942770034780873
788 0.48090090653367756 0.671948119869374
789 0.0028584590118675424 0.9025881959713876
790 0.885464865975285 0.5534626178238536
791 0.8699909545681106 0.9966378572796636
792 0.4857563741809604 0.11537236852789245
793 0.765786023619074 0.6168256197211303
794 0.18044200690920875 0.15200862379183844
795 0.3757440344306052 0.12961170231422314
796 0.8187186597032016 0.37387634316938234
797 0.8575335980509832 0.008591103761056651
798 0.2965783876261646 0.09331704177432365
799 0.5559508729910786 0.3248641575851976
800 0.7989108890431642 0.04277193900863663
801 0.3928652297373668 0.5766060741026305
802 0.11110107392773871 0.9417135986559846
803 0.4188122134715493 0.2533007966929788
804 0.7102805123758733 0.9387709201287956
805 0.5723592698981246 0.19237257659065754
806 0.6148557001965097 0.6337565735712714
807 0.4501173803316145 0.26640906823502364
808 0.8829698707012402 0.04058055526692461
809 0.8808493264046993 0.8833655356088957
810 0.5032169321557186 0.9908583094427004
811 0.34159525916566247 0.758472362430585
812 0.17806768310143295 0.8046154266444003
813 0.6599671235408099 0.8660392341873148
814 0.3644894453773124 0.8725864545910452
815 0.6744809541743253 0.12556213556219142
816 0.7543240307769942 0.7607714109922478
817 0.8702752549254834 0.7266324397204342
818 0.050074696526345 0.9306801268925562
819 0.9133145633691371 0.36918206258383457
820 0.24555179377732872 0.3917133176681822
821 0.44679408543902766 0.1415341147120993
822 0.5078677758570965 0.0827098438491648
823 0.03975822126371642 0.9670351214813556
824 0.9972033829241645 0.7347231068470436
825 0.5674303334196176 0.7150909836636115
826 0.9581301897306501 0.9896776073564226
827 0.6604020180569157 0.7596927138858467
828 0.24026715058186987 0.8964135999394522
829 0.5965212809467669 0.03820221868508389
830 0.5065916613771224 0.5796038247475979
831 0.4939638991360831 0.06357152484788353
832 0.42758832736390606 0.6081783160523315
833 0.8686119684092806 0.36635323091018324
834 0.3347503530535183 0.9511723774203953
835 0.7270610875238294 0.40659039505864736
836 0.2040607704318187 0.41513078152496463
837 0.4383751924079645 0.8315198951652077
838 0.15249258006234045 0.09509287333519989
839 0.7066562586128413 0.13806787483697824
840 0.3600736042481518 0.8799069492517403
841 0.46861690115610166 0.4614861345025575
842 0.8462181904095292 0.5579041300670362
843 0.3122971978507394 0.1631457712956883
844 0.5121641080812337 0.8593354517383347
845 0.4697409936746557 0.5173591695848102
846 0.8368609030030015 0.7796010267590152
847 0.8249672513401556 0.08641040967858826
848 0.10268382829526812 0.259283527885679
849 0.8787075953825625 0.6003782354011316
850 0.19281762787061363 0.11967105037206716
851 0.23775896312341793 0.8175233517388459
852 0.6540021932297032 0.5818918189394158
853 0.1531954171083627 0.17007139535533022
854 0.32449681852194656 0.21761134034581198
855 0.2954029424251635 0.37173682736370106
856 0.16358569723187966 0.8053859768487781
857 0.14277500117993935 0.7773268194147352
858 0.9999057215357865 0.9027025428386937
859 0.9124598759825885 0.6797822484621346
860 0.4482342985720609 0.8424167389035802
861 0.011276446035702659 0.1354984694688698
862 0.7952112002656402 0.6982479366392574
863 0.3945977306511046 0.007202067161437897
864 0.1665762882827876 0.9499601990039813
865 0.41421737510522105 0.5863989253339412
866 0.1469729491200269 0.8806396705393564
867 0.738822739045378 0.6732747513397773
868 0.3322132319634379 0.8545506236598244
869 0.41685768723449235 0.48021989653451014
870 0.4097054245765047 0.12970233973033707
871 0.624344183251729 0.08193321892102634
872 0.24148594485916453 0.6738140902130003
873 0.8466725449919964 0.7625468596799142
874 0.35897025762327595 0.3412488580421489
875 0.16670112091295075 0.3891645176171281
876 0.08254788455422812 0.549449037526081
877 0.8752043178118943 0.2423066590115448
878 0.6867892589176365 0.8151551073234741
879 0.6981060265936471 0.4158897738256311
880 0.6635157392759419 0.6046590920496868
881 0.0713904928062915 0.9195640121096846
882 0.4410247416177854 0.18352253736747082
883 0.9223745606967353 0.1500943336132401
884 0.9162146992307246 0.5237383624302718
885 0.9070569432419159 0.47550434375566375
886 0.31233916887335755 0.8906885859826739
887 0.2505648467726076 0.8406598687538072
888 0.9315317173584946 0.9811567156668659
889 0.16074494273812323 0.08208214368873334
890 0.58717539925298 0.31331158405148773
891 0.03623318903538686 0.159693896652623
892 0.8424666548771141 0.1339650061387644
893 0.7340278496796157 0.2752685533876743
894 0.3345336010372222 0.7201855659954485
895 0.23366520885324982 0.2766475323319241
896 0.14654228559980842 0.23023960973255475
897 0.6970229800453185 0.08177180148304097
898 0.8977751315367691 0.42593008413200106
899 0.35138967824193457 0.27933971581909267
900 0.29616761660464985 0.7486327444728264
901 0.01031136242152253 0.1047002330919169
902 0.619023001716218 0.17300994279375514
903 0.6847736817179931 0.5055977000096229
904 0.5882727167905161 0.6378240608814315
905 0.9191966904079782 0.21183264793360845
906 0.8824940214200369 0.2839915527099588
907 0.42517264226955687 0.06125883443105917
908 0.17015515837833017 0.9692000772147531
909 0.44585993164381044 0.21391944535016771
910 0.14209398490402836 0.8664842327480928
911 0.6451753459803041 0.17242954323454707
912 0.2439612322286998 0.6880223972163464
913 0.6109219019377714 0.3444651673667576
914 0.5464178005554294 0.9439988136702736
915 0.949503410586123 0.18067305541459389
916 0.6821529400218633 0.47977377577373326
917 0.1305506798449868 0.4767607652395782
918 0.43605438662335616 0.007543566878125296
919 0.7618272950106911 0.7112870990397638
920 0.6342017682358776 0.47066989934027337
921 0.20597196229302928 0.009222597534437216
922 0.6755142331342308 0.30888169742452887
923 0.3274736281896341 0.7016209364091984
924 0.3976560344151303 0.5457880827080367
925 0.9139239100736415 0.38100481084562554
926 0.6701464673195908 0.046950283623276245
927 0.6152837418769193 0.8916040204496927
928 0.49646641615372666 0.25743660089256404
929 0.2606755444521951 0.5941803726948885
930 0.9839375658587858 0.8611109471728775
931 0.49992483688356293 0.5035020071757328
932 0.9372186105991419 0.779084803617663
933 0.8009748780807494 0.9899629212639603
934 0.9959178098532758 0.517111837100897
935 0.6661352493715386 0.45145999532456027
936 0.0596741827705658 0.388608588010143
937 0.9916737361354035 0.4596273032270495
938 0.3903676037552084 0.7310775879421553
939 0.5690661455647527 0.8905490556677715
940 0.6767060244611481 0.41878750038397994
941 0.5821908785348054 0.6161504015690865
942 0.059630535535598383 0.5564628915064678
943 0.993909138881209 0.8856180842716691
944 0.0613546863133565 0.3900154382866944
945 0.5556877926876138 0.4063963720106121
946 0.3499360755742049 0.8424655736104293
947 0.1723024948321069 0.5774697173532521
948 0.19060779572646525 0.7570776415846401
949 0.8552091563715376 0.014335107540176528
950 0.2628245916265204 0.32390624801527834
951 0.8016127697321254 0.3597685902449047
952 0.2918633499002675 0.5054467315908774
953 0.05905240924768951 0.3960416612564118
954 0.3724125715819022 0.745438668892483
955 0.7435916899346887 0.060127932553646235
956 0.41435112128706786 0.8610601790947288
957 0.3315421254141371 0.9918234629527483
958 0.49640572332251687 0.9964130642724499
959 0.0007995999185447245 0.06841563079165891
960 0.1339998808484647 0.3625426927461046
961 0.5200400979700575 0.2889094524166531
962 0.2010741904418447 0.30816031404063593
963 0.8282045044233078 0.8633400860930501
964 0.9758127373024681 0.20323353805151767
965 0.6753442019756036 0.3973240747984019
966 0.210276543238627 0.04180835934688687
967 0.7867824647745147 0.8433462350212501
968 0.02621177767126348 0.3657394261493996
969 0.8348208563797045 0.6118496834341384
970 0.006377252204558204 0.2748800437153549
971 0.2532869270115282 0.9232240306511834
972 0.6785557130864756 0.5983256847827367
973 0.025137376307774018 0.23806906665013172
974 0.732867334478995 0.9476451728950511
975 0.3540524847225778 0.4536611027121218
976 0.43260764625497916 0.06676108998155073
977 0.6989441018575746 0.6136496807807463
978 0.9615875678456817 0.8563844589805486
979 0.830465858698491 0.34270793160625246
980 0.380977200008243 0.8810302645575073
981 0.5320356350893098 0.07330159345520726
982 0.630769925782276 0.6586535309156276
983 0.40544374432069663 0.09745658925574885
984 0.7547349638417036 0.04265855778681393
985 0.24893351509017037 0.20906428322993154
986 0.9772338832874015 0.5927630199771274
987 0.5206474954683272 0.6957878583501118
988 0.6208282898917538 0.06604349548959199
989 0.5564865908971107 0.856646832739324
990 0.7177047929815891 0.47672662774597796
991 0.7269224286031576 0.39686309845348333
992 0.7270528567015874 0.4691342459837228
993 0.5109403924314481 0.3294420860103695
994 0.7481021805093264 0.9261230996688911
995 0.5619770374736591 0.4839014124617579
996 0.877825449124217 0.5039496440069339
997 0.10989123215685492 0.05810248560863862
998 0.5818807246585325 0.5998112236625682
999 0.4728018860941122 0.2475560926979723
1000 0.001296272023029621 0.6195587835088479
1001 0.865721323007877 0.034168716499566654
DEMAND_SECTION
1 0
2 7
3 7
4 3
5 3
6 4
7 4
8 5
9 9
10 8
11 5
12 9
13 9
14 1
15 7
16 9
17 4
18 2
19 6
20 6
21 4
22 5
23 2
24 9
25 5
26 6
27 3
28 2
29 2
30 2
31 1
32 5
33 1
34 9
35 2
36 9
37 6
38 1
39 8
40 3
41 4
42 8
43 6
44 2
45 8
46 2
47 8
48 1
49 3
50 8
51 6
52 1
53 4
54 3
55 7
56 7
57 1
58 3
59 6
60 8
61 2
62 2
63 9
64 9
65 9
66 8
67 6
68 9
69 4
70 5
71 9
72 7
73 1
74 9
75 9
76 4
77 2
78 7
79 6
80 9
81 7
82 1
83 6
84 9
85 6
86 3
87 2
88 9
89 3
90 6
91 6
92 6
93 9
94 9
95 7
96 5
97 5
98 6
99 5
100 4
101 5
102 1
103 5
104 4
105 1
106 3
107 3
108 3
109 6
110 1
111 4
112 3
113 5
114 3
115 3
116 6
117 5
118 5
119 2
120 7
121 1
122 1
123 9
124 1
125 8
126 2
127 7
128 2
129 4
130 4
131 8
132 2
133 7
134 3
135 2
136 2
137 9
138 6
139 9
140 8
141 9
142 2
143 2
144 5
145 4
146 3
147 2
148 4
149 8
150 6
151 8
152 3
153 9
154 8
155 4
156 7
157 1
158 6
159 7
160 1
161 5
162 7
163 2
164 9
165 6
166 1
167 6
168 9
169 5
170 2
171 9
172 6
173 2
174 1
175 2
176 6
177 2
178 2
179 4
180 9
181 4
182 7
183 9
184 7
185 7
186 9
187 8
188 6
189 9
190 5
191 9
192 4
193 3
194 9
195 6
196 6
197 2
198 2
199 4
200 8
201 5
202 3
203 8
204 4
205 1
206 5
207 8
208 4
209 6
210 5
211 9
212 2
213 8
214 2
215 8
216 9
217 4
218 8
219 8
220 4
221 4
222 2
223 1
224 6
225 1
226 1
227 7
228 3
229 1
230 3
231 4
232 9
233 4
234 9
235 7
236 7
237 2
238 5
239 4
240 2
241 8
242 9
243 9
244 7
245 6
246 3
247 8
248 4
249 7
250 6
251 2
252 5
253 3
254 1
255 2
256 1
257 6
258 5
259 5
260 1
261 5
262 4
263 3
264 5
265 2
266 3
267 2
268 1
269 4
270 8
271 3
272 3
273 2
274 6
275 7
276 1
277 7
278 7
279 1
280 1
281 7
282 6
283 5
284 1
285 9
286 3
287 4
288 8
289 5
290 3
291 9
292 3
293 6
294 5
295 8
296 3
297 6
298 2
299 1
300 8
301 2
302 5
303 4
304 6
305 1
306 6
307 2
308 5
309 6
310 9
311 4
312 8
313 5
314 1
315 2
316 5
317 6
318 3
319 6
320 8
321 5
322 4
323 7
324 6
325 1
326 2
327 4
328 5
329 3
330 3
331 7
332 7
333 1
334 9
335 8
336 3
337 2
338 6
339 1
340 9
341 9
342 8
343 2
344 2
345 7
346 2
347 8
348 1
349 6
350 5
351 8
352 6
353 2
354 9
355 4
356 3
357 6
358 8
359 5
360 4
361 7
362 9
363 2
364 7
365 1
366 5
367 9
368 4
369 4
370 9
371 1
372 2
373 8
374 6
375 3
376 9
377 1
378 3
379 4
380 2
381 6
382 4
383 1
384 5
385 4
386 7
387 3
388 9
389 3
390 1
391 4
392 2
393 4
394 4
395 3
396 7
397 2
398 3
399 6
400 9
401 3
402 4
403 5
404 6
405 5
406 6
407 9
408 3
409 3
410 3
411 5
412 3
413 4
414 5
415 3
416 9
417 6
418 9
419 1
420 3
421 1
422 2
423 1
424 6
425 6
426 8
427 8
428 4
429 5
430 4
431 9
432 3
433 7
434 8
435 9
436 8
437 9
438 5
439 3
440 6
441 3
442 8
443 2
444 1
445 9
446 9
447 7
448 6
449 2
450 4
451 2
452 5
453 1
454 2
455 1
456 4
457 2
458 4
459 8
460 3
461 9
462 1
463 4
464 8
465 4
466 7
467 6
468 2
469 9
470 3
471 3
472 7
473 2
474 4
475 8
476 9
477 7
478 6
479 9
480 4
481 8
482 4
483 3
484 8
485 5
486 2
487 5
488 5
489 9
490 6
491 5
492 9
493 9
494 3
495 1
496 8
497 9
498 2
499 6
500 8
501 8
502 7
503 2
504 3
505 4
506 5
507 6
508 2
509 8
510 7
511 4
512 9
513 3
514 7
515 7
516 1
517 3
518 3
519 9
520 9
521 1
522 6
523 1
524 2
525 8
526 2
527 6
528 7
529 3
530 3
531 3
532 9
533 2
534 9
535 3
536 4
537 6
538 6
539 7
540 5
541 9
542 5
543 9
544 9
545 6
546 3
547 6
548 8
549 4
550 5
551 1
552 3
553 3
554 1
555 1
556 1
557 1
558 9
559 7
560 1
561 6
562 4
563 2
564 3
565 9
566 2
567 7
568 1
569 7
570 7
571 3
572 5
573 2
574 8
575 9
576 4
577 7
578 6
579 4
580 2
581 5
582 9
583 3
584 3
585 4
586 2
587 1
588 2
589 5
590 7
591 8
592 2
593 4
594 7
595 8
596 5
597 8
598 6
599 3
600 4
601 7
602 7
603 2
604 3
605 6
606 8
607 4
608 5
609 2
610 4
611 2
612 5
613 3
614 8
615 6
616 8
617 3
618 5
619 3
620 4
621 5
622 6
623 2
624 8
625 7
626 1
627 8
628 6
629 7
630 3
631 6
632 9
633 9
634 7
635 2
636 7
637 1
638 7
639 5
640 5
641 6
642 7
643 1
644 1
645 5
646 8
647 5
648 9
649 6
650 5
651 5
652 2
653 4
654 2
655 9
656 9
657 6
658 6
659 3
660 6
661 8
662 7
663 7
664 6
665 4
666 8
667 2
668 2
669 7
670 9
671 7
672 2
673 2
674 6
675 8
676 1
677 8
678 6
679 1
680 2
681 7
682 4
683 6
684 3
685 5
686 1
687 5
688 6
689 7
690 3
691 2
692 8
693 8
694 2
695 1
696 9
697 8
698 6
699 3
700 5
701 6
702 9
703 6
704 2
705 5
706 3
707 7
708 3
709 9
710 6
711 7
712 6
713 6
714 3
715 6
716 6
717 1
718 9
719 5
720 1
721 7
722 4
723 7
724 4
725 7
726 1
727 7
728 5
729 3
730 5
731 9
732 2
733 8
734 2
735 2
736 7
737 8
738 8
739 9
740 3
741 2
742 6
743 6
744 8
745 8
746 3
747 5
748 3
749 7
750 7
751 5
752 1
753 9
754 9
755 9
756 8
757 3
758 2
759 2
760 2
761 4
762 7
763 7
764 6
765 3
766 8
767 8
768 7
769 2
770 7
771 7
772 2
773 4
774 2
775 9
776 3
777 8
778 2
779 9
780 3
781 8
782 7
783 5
784 1
785 7
786 1
787 8
788 1
789 2
790 3
791 8
792 4
793 1
794 5
795 2
796 4
797 4
798 2
799 5
800 7
801 9
802 5
803 3
804 7
805 7
806 9
807 3
808 5
809 4
810 2
811 4
812 6
813 9
814 4
815 9
816 4
817 5
818 4
819 5
820 6
821 5
822 6
823 5
824 8
825 4
826 3
827 3
828 7
829 2
830 5
831 9
832 4
833 8
834 4
835 3
836 7
837 1
838 8
839 1
840 7
841 1
842 1
843 2
844 6
845 9
846 8
847 3
848 8
849 5
850 9
851 6
852 9
853 4
854 4
855 8
856 3
857 1
858 6
859 4
860 9
861 1
862 8
863 8
864 8
865 3
866 3
867 2
868 8
869 9
870 8
871 3
872 7
873 2
874 8
875 7
876 7
877 4
878 2
879 9
880 8
881 7
882 6
883 9
884 6
885 1
886 5
887 1
888 6
889 9
890 2
891 8
892 2
893 4
894 5
895 2
896 9
897 1
898 4
899 9
900 9
901 6
902 6
903 8
904 5
905 6
906 9
907 6
908 2
909 8
910 4
911 6
912 3
913 2
914 1
915 1
916 1
917 9
918 8
919 7
920 2
921 9
922 6
923 1
924 6
925 4
926 6
927 4
928 8
929 5
930 4
931 4
932 4
933 1
934 5
935 8
936 8
937 6
938 1
939 3
940 1
941 6
942 3
943 5
944 9
945 8
946 9
947 8
948 2
949 4
950 2
951 6
952 5
953 5
954 5
955 4
956 3
957 3
958 1
959 9
960 9
961 3
962 7
963 5
964 7
965 5
966 2
967 4
968 1
969 8
970 2
971 3
972 4
973 9
974 9
975 9
976 5
977 4
978 2
979 3
980 8
981 1
982 5
983 9
984 5
985 4
986 4
987 9
988 4
989 9
990 8
991 8
992 4
993 4
994 5
995 5
996 5
997 8
998 6
999 3
1000 6
1001 8
DEPOT_SECTION
1
-1
EOF
