NAME : gen1000_005
COMMENT : uniform customers, demands 1..9, generated by bench/make_tuning_set.py
TYPE : CVRP
DIMENSION : 1001
EDGE_WEIGHT_TYPE : EUC_2D
CAPACITY : 200
NODE_COORD_SECTION
1 0.9137317212258681 0.3446086942689547
2 0.9051878038293419 0.7161449115156325
3 0.0731545565822197 0.982260911289529
4 0.8987756389059534 0.8656404097522545
5 0.27897022653252224 0.9792154091553223
6 0.826175273003252 0.13001138219655184
7 0.7003171651549791 0.5126858782970909
8 0.4356035809048916 0.9148209743053091
9 0.40928792948853665 0.9171379066742489
10 0.631422037478716 0.4450019046940953
11 0.7607179050822854 0.5946597194564814
12 0.40389940757887666 0.35690993497043755
13 0.7457839264907054 0.5940228918665935
14 0.3823262571264662 0.596425893444602
15 0.7155886056916699 0.8650613347380031
16 0.2905485065770913 0.4092907630371386
17 0.3929264444522821 0.597194057164012
18 0.07683716717265276 0.7015049510295281
19 0.378831746788849 0.721728116529334
20 0.24575178944106668 0.9471279565035307
21 0.9396422408511774 0.03151723164209708
22 0.38471696675265177 0.9470647972987338
23 0.6877320817392099 0.5380001224767372
24 0.6692203908130316 0.3464851028780833
25 0.8193251766429651 0.1361661947763415
26 0.34088901922961445 0.7728026065196978
27 0.15184058017692903 0.7176570525626583
28 0.22485346072026802 0.6495566553993881
29 0.8276048993088897 0.7254613029240532
30 0.7939738239194822 0.8544515696012752
31 0.004580925317754003 0.4356444749303163
32 0.00653381350858806 0.4299961024100807
33 0.57370749454023 0.09498885333668983
34 0.43592553312236626 0.06436207314663189
35 0.9591040730739973 0.12802356687648442
36 0.13992464972884988 0.2920201083712559
37 0.48362536979323634 0.0692685581307162
38 0.010886674894426962 0.9201717987383168
39 0.03983442873399523 0.8378248984296276
40 0.59226895151038 0.8816223825087749
41 0.8547143133627725 0.0818533941668379
42 0.9435989502021386 0.80357638273845
43 0.32403439145309776 0.2439617530447563
44 0.05767400757913632 0.7041350323064053
45 0.8846358253306481 0.3202978043825928
46 0.0021817952180357425 0.7186012103015225
47 0.9197337374346367 0.5767041490181277
48 0.9744254161894312 0.561815325973447
49 0.5914596694053467 0.2588851275411854
50 0.15190383525838957 0.18209720294694232
51 0.18109575947684342 0.1012053589501617
52 0.5680996793739547 0.9766153808418944
53 0.004168172242045798 0.48857983527234683
54 0.920529480094122 0.4719257122998183
55 0.7921603862518879 0.16173852801717425
56 0.03267225572006249 0.7136080342460892
57 0.7862567566769579 0.6237181556002686
58 0.35489623864398967 0.36869931314149706
59 0.7056366917296814 0.1358085452103207
60 0.05207931987556569 0.10357032052895254
61 0.9365745119107101 0.4126940062407216
62 0.605469650080829 0.8786008333783653
63 0.3682521361887463 0.3667388725403026
64 0.4824446885179968 0.0258757080472497
65 0.9941748615338842 0.5390687917390856
66 0.5831992943409671 0.9660393447520066
67 0.6086806634263833 0.4350986522216427
68 0.1856278260367028 0.7560925821680612
69 0.4103460516094616 0.19564434736262426
70 0.8745822989272567 0.8192063771042556
71 0.6346427708192667 0.5161195657945042
72 0.12525666484517184 0.07188418473051861
73 0.9240172729142354 0.24546655024920827
74 0.9955252055384799 0.04241512954972826
75 0.3832446437975845 0.17633948104711084
76 0.5221434007698619 0.33561412654844447
77 0.04214167895275722 0.3740546455111252
78 0.7547689929435591 0.9566861073944396
79 0.17329191558365054 0.6212796723606334
80 0.8164032507298834 0.2236891542613365
81 0.4856196186946591 0.5168338773156529
82 0.1322359613101196 0.5624796563541032
83 0.2941758345521466 0.3662275799706882
84 0.5455866518384997 0.19432099827600113
85 0.7234931142296485 0.04442975121644166
86 0.11506426644087453 0.010557597816363229
87 0.423778107041208 0.5024262688413622
88 0.12758455887418596 0.582400763629917
89 0.13862872824528916 0.5143856628760646
90 0.4819755129268032 0.268726939652836
91 0.4538934287409916 0.7510855524909205
92 0.28168857916212653 0.6841992622768441
93 0.4639985854333033 0.7081336149492536
94 0.19059450039915815 0.10420457470610689
95 0.9210936756521984 0.6608827143956086
96 0.8143547459977711 0.2629514403638734
97 0.04800263897516932 0.4699430974345622
98 0.705026310177712 0.16445127782893276
99 0.5002256685750371 0.5132015323500975
100 0.05206565377861683 0.15981381981585174
101 0.6149573370096141 0.34766858425572156
102 0.7338335024251501 0.7756854649721416
103 0.7487822642447548 0.8905405689170828
104 0.7246000743486883 0.35400531066108953
105 0.953096799486349 0.76463628152943
106 0.7494113665354382 0.08722349012078234
107 0.5977690925699444 0.07923998948089606
108 0.29382300619304913 0.628550685790363
109 0.20704065375030734 0.9853093393731291
110 0.5265688516558784 0.4624145489268717
111 0.7094056439368416 0.696010904113525
112 0.9728020753122081 0.13848375781054467
113 0.10815785155102542 0.2701803117902679
114 0.7805922247106297 0.025559455056175295
115 0.9572673590996978 0.5557683091807345
116 0.11586723484600148 0.7246674748252633
117 0.058076290351519844 0.005419978782294277
118 0.5313997717438756 0.04420883767295836
119 0.7698466427603816 0.9534454383576245
120 0.2592170574356102 0.43711457184615254
121 0.30611327266271304 0.32178895687080333
122 0.4765656202583729 0.4241916450759079
123 0.705194801258042 0.6549634004313268
124 0.6575289116425141 0.1435440959699643
125 0.8977306537481333 0.3291815155514938
126 0.2914741747426952 0.9735748933195307
127 0.6429705911621911 0.6732923041378098
128 0.04106746256377436 0.4500720433577814
129 0.533062270335478 0.6712744452813356
130 0.03521092938544912 0.15458807215568005
131 0.3534863141278244 0.3285562886265003
132 0.05186078064045385 0.8139099654760781
133 0.411915489966166 0.9235861400128409
134 0.10318700787341706 0.14179866821436515
135 0.8551848918826293 0.5191165158953309
136 0.46919262463350486 0.5172175114001043
137 0.04260249467554267 0.5464495529729965
138 0.9280814219082423 0.6835235884520331
139 0.2793139388121576 0.8825460191101618
140 0.8913535478089759 0.4442457453783951
141 0.5137966462926512 0.39767169067094466
142 0.42613848673731614 0.1604986131911329
143 0.9603830050643118 0.15213757283449714
144 0.8094692975111369 0.9592859638684328
145 0.6652106207541614 0.20576601949064688
146 0.39683487271159523 0.2721371796371371
147 0.6428374694622943 0.06199267359452154
148 0.6044321925600457 0.9118949212129505
149 0.16870118443495752 0.6622396176457288
150 0.22331772091410995 0.969272248160589
151 0.23593515016757494 0.9444417335965567
152 0.06634530267193306 0.2959936592611443
153 0.5856770884742255 0.2292053609419772
154 0.9345220043586592 0.8730900744463624
155 0.030720988683165196 0.04106951545073467
156 0.7576254013404807 0.3598336998626649
157 0.6603397216657327 0.3730714547099975
158 0.254332146775054 0.13763936369814855
159 0.7621159265951111 0.8740870343681971
160 0.7390909055302237 0.6120984078573922
161 0.8387298544632477 0.453849111450112
162 0.6359975558617174 0.792445848841203
163 0.40357788207797574 0.7375936627889166
164 0.018434875370867854 0.7274031647488433
165 0.46974032172920044 0.9699097151430687
166 0.7677814754403294 0.7704559450934612
167 0.0020041572489105652 0.9061032277117919
168 0.6797853456123667 0.34759416756454287
169 0.5970136879945414 0.8362308415256786
170 0.5193075704569444 0.37260781718204494
171 0.2464371736772747 0.8431977350300429
172 0.3447153432859549 0.6816836818353388
173 0.22549730748333552 0.28441563783607193
174 0.5235741305534476 0.7752140585870542
175 0.5336570719562145 0.5357853867709527
176 0.17983235714643053 0.7229784395295245
177 0.47463317742620814 0.9105414873234088
178 0.865283802367696 0.17565703067351401
179 0.6999274440494404 0.7231448374292235
180 0.10940972008662009 0.48117635607651355
181 0.23511899823945293 0.5418674981316222
182 0.9059705969555574 0.08016333792561026
183 0.7605293504089419 0.9473293594755509
184 0.9211769812604506 0.5315919339983833
185 0.22487813249170918 0.20609012996545995
186 0.13674900080513852 0.7710461778430377
187 0.4939193203417023 0.6863923766569764
188 0.23311599777402725 0.1948930892155324
189 0.6263463452971346 0.4019434429447136
190 0.2824218410424676 0.33912566860082616
191 0.7904881892001384 0.9958249233754084
192 0.877743272426593 0.08428546128688108
193 0.8975278795414166 0.2158560508376447
194 0.975340090262812 0.7891832362650734
195 0.5409312177967953 0.630178127909788
196 0.8179262975490365 0.5148105379461665
197 0.7191205743387173 0.6416533673673483
198 0.47192002773683794 0.8256509082825363
199 0.9947425100783999 0.8442370815314
200 0.5194933673225005 0.4002524985219922
201 0.22944532599535594 0.6724594624682098
202 0.9378860515063853 0.07428814878948298
203 0.6687478534328294 0.2180586175375997
204 0.6398365571344486 0.6790133651836443
205 0.23457306797352906 0.33209586187224727
206 0.6821840676645203 0.4211734013901053
207 0.38932536440048116 0.6242236304690283
208 0.20819114863898402 0.49979740334564515
209 0.03106997027892855 0.8772662437194281
210 0.9416686584190364 0.5806696890715425
211 0.2191216938580819 0.04398839728077086
212 0.26231570314683184 0.2502467786521929
213 0.5513934834394979 0.8425123275042276
214 0.3758118973645752 0.2533736674940499
215 0.07510743806302767 0.782797343007764
216 0.87444765735771 0.6498463577143525
217 0.9153905597822323 0.7162187897220186
218 0.2783651691440341 0.268876707611154
219 0.29580282100579547 0.6882185273209217
220 0.02018727407047849 0.4559004457703507
221 0.5569143285297513 0.9570183968005649
222 0.04484485182526232 0.44941238766532965
223 0.10450998071015494 0.3370306372667675
224 0.12138761784454855 0.6728807086680426
225 0.2110679375077228 0.8731476489174994
226 0.006981373488413878 0.9220033284829509
227 0.10561615407137825 0.5533162585536961
228 0.0118254768851489 0.07509490530098462
229 0.9213416455914492 0.24815342109925942
230 0.5148171521262113 0.9696199944702029
231 0.23092073482238573 0.6308703665853053
232 0.3699070684338932 0.6308584636898191
233 0.7923703282563939 0.2916119301226764
234 0.5884620804858289 0.9462391101173184
235 0.4303036109856846 0.4751121192262998
236 0.3944832204799368 0.2757280666799171
237 0.9188541093633419 0.8894045533878046
238 0.9746049328546711 0.04425765574946516
239 0.3371295644056419 0.22922122210499485
240 0.46884118547018383 0.34666173153077273
241 0.5571981633770888 0.6074231054416941
242 0.5039235600059213 0.5041261525757209
243 0.4101964472114109 0.7991904342280814
244 0.5251184890590448 0.44966831710503397
245 0.05743509904565991 0.8043057579659623
246 0.19066635061474546 0.5922393020882641
247 0.05831579224030092 0.776635190691439
248 0.055570461294994766 0.49924722548717315
249 0.3868190858678008 0.9692399804955473
250 0.2800456672407643 0.6974627254593844
251 0.4883535935955753 0.7960828467956275
252 0.6985353867158428 0.2654272286453002
253 0.6356318911596525 0.3361449929415945
254 0.39083920382118764 0.7121858720809471
255 0.062478366410580466 0.004755120029133475
256 0.7357227652018844 0.7918784264194333
257 0.6842275496867005 0.5363741183642906
258 0.20508578634879593 0.5217894107547915
259 0.8670968933467964 0.6789830036158567
260 0.6109649314634366 0.4711301303332206
261 0.21265442582413663 0.3945764295120675
262 0.4501362231465401 0.7886526307341637
263 0.21320071304051724 0.6651421591566115
264 0.3638282545587781 0.5626395650451245
265 0.243843148485539 0.34928948108636415
266 0.5790569740138009 0.9421558910857272
267 0.4324049005091559 0.9757414271898496
268 0.22242994736857236 0.126514558379067
269 0.035217649682764085 0.2753923447780876
270 0.6419876465653626 0.15240723134055145
271 0.7502116443874092 0.8265314882481232
272 0.23065155668697124 0.3564764723095679
273 0.8574456449380407 0.4661594807388204
274 0.0376092111182873 0.9008301575396684
275 0.8980980307437895 0.6338087943863256
276 0.7199778524508726 0.916678790828396
277 0.6980373415589421 0.9863357860840778
278 0.40390159939437353 0.5896546492953046
279 0.5112002506300145 0.46379616402529256
280 0.589447142611565 0.42786165971698076
281 0.12254914078684132 0.47913194238042855
282 0.841387613514076 0.8840874702476617
283 0.7961894014804953 0.7231534461778735
284 0.6447852837571001 0.4720951469743597
285 0.5055232194509135 0.0406201684745745
286 0.4663424191463592 0.37359722254324823
287 0.886506731860036 0.8135232643088935
288 0.14207933742026446 0.8827545445689113
289 0.35945535930069317 0.3367657040462204
290 0.1364634637501171 0.1487651510761976
291 0.5356835448546476 0.5749616282671026
292 0.24408375638305124 0.7687427434595674
293 0.2657676354546772 0.6891536540782339
294 0.6004566576743822 0.7715192652504189
295 0.02547924431955939 0.6516304036612873
296 0.9480065051138823 0.9905118946287059
297 0.6162149231031513 0.734501354050277
298 0.3483987759462952 0.1537999045921301
299 0.4637569772916713 0.7717713092099828
300 0.41504436606650774 0.8335077103546338
301 0.8951870167159638 0.9807905591575691
302 0.8092024865862955 0.1017736376808358
303 0.23469391995207156 0.1092524098489257
304 0.681101076238754 0.3659664259390748
305 0.9851361437087368 0.5623995619169366
306 0.5244153748430123 0.4996926949573338
307 0.08933691462167526 0.4609445610458133
308 0.2084437794238354 0.2351917026892465
309 0.6456632644345323 0.17383644729231884
310 0.6701806765434843 0.39838794122694954
311 0.5804160785194897 0.5821481363144849
312 0.24782922350019587 0.7065248718107677
313 0.9759898185365751 0.7072630296861778
314 0.39533851657754593 0.49561960671195626
315 0.30925512472836914 0.5697584009597478
316 0.42233130577024114 0.5798006421474414
317 0.08230812284710864 0.7484529125169832
318 0.8824663322914871 0.8925425641954008
319 0.7375728099423469 0.4082973324492384
320 0.9985987620789092 0.2550200188248223
321 0.5807207346119538 0.7556116857595311
322 0.9359662593522226 0.7674905834946629
323 0.919486716587904 0.06803826185819017
324 0.7264838526436481 0.21806537718919383
325 0.0023897782552076974 0.02897437871552111
326 0.048992860678149674 0.27533051009357157
327 0.7688264591449328 0.038612845576484145
328 0.9013231021678749 0.21743211097521675
329 0.9359727120803571 0.12397019587886182
330 0.47354505178181705 0.8639197300727393
331 0.18854003089956295 0.20608737210928818
332 0.844071897247281 0.4114845392930776
333 0.9853415207937734 0.39959313071241975
334 0.7902935843531422 0.3219288421941634
335 0.4772000311776359 0.581934710231721
336 0.6587312505717419 0.5614330162855529
337 0.19292493502715813 0.8328969316745239
338 0.4246801580384906 0.9813297238615201
339 0.4783696166990128 0.13277838582551682
340 0.044569238370729014 0.07948787440076566
341 0.5279911261425273 0.30098262715226753
342 0.9868390803107663 0.16909555907162443
343 0.37123288133829124 0.26792290394947593
344 0.6418876396469438 0.3918531207887337
345 0.3299847392278581 0.9046692465705917
346 0.865873392462737 0.534565171566391
347 0.5654212747047035 0.8255421333454149
348 0.3040427064035137 0.5314098125413476
349 0.9142090988352661 0.9321769585275971
350 0.25545200080900377 0.9790577615208272
351 0.7250091618002716 0.10878356420448432
352 0.2654505928550479 0.7617991081234042
353 0.5966870628666514 0.6877196633752126
354 0.13267578725812268 0.7596108373758924
355 0.06091411772164179 0.7727917901621117
356 0.6120753844218015 0.32269229181392056
357 0.8255689353251683 0.7006224276646973
358 0.18252899567309533 0.8788187571369284
359 0.9159562096856719 0.7816620356674964
360 0.16571626568749676 0.6497116391707992
361 0.48919459490217343 0.7475768049400214
362 0.2984255324204361 0.377119844295286
363 0.5576420866653957 0.5348648504987368
364 0.2628095451829213 0.8004484756653497
365 0.3642401218691287 0.8660036800908323
366 0.19021402472921567 0.6207509303780044
367 0.8223262738767454 0.06970124001972289
368 0.4522377979185962 0.13742592754140726
369 0.66368885792171 0.7974420296997242
370 0.16920797945564747 0.9483295644079133
371 0.08184440094253198 0.7897341860243479
372 0.2720369952356596 0.14388205130075982
373 0.5050715531665347 0.3680688954579442
374 0.6298102472985029 0.3881268083700291
375 0.35212324453081556 0.15729512582226668
376 0.32498623050932085 0.6995144020977264
377 0.2354076199466023 0.21889986678833695
378 0.9666100842870471 0.16883203427485427
379 0.34950326543836296 0.9729417782736751
380 0.3993543816686398 0.11115748385842761
381 0.477362850858953 0.5723997621923399
382 0.7010127520649998 0.26019738280579563
383 0.7003862286220135 0.23587748042851675
384 0.8803898437995361 0.3303327576933095
385 0.0959144300084539 0.49155979846552544
386 0.570931023909159 0.45098593750926064
387 0.5181848760825477 0.8181777249085184
388 0.397167837306428 0.2979621004625258
389 0.35140362201677566 0.11378681402413737
390 0.7051882173638903 0.3868942543100109
391 0.9979318639907038 0.3852534767885448
392 0.11430536650162171 0.4210458179020067
393 0.0529431420420472 0.15863344974159033
394 0.010339069647791965 0.2092791056322414
395 0.7064790051452375 0.37758625345769947
396 0.38022271126936924 0.38239928866952666
397 0.03274770835319851 0.631065089986313
398 0.39009959969169217 0.31231655593117225
399 0.7005828632489588 0.05491889390821769
400 0.38565545628280185 0.8380891577037003
401 0.5569448350075323 0.20593018752181558
402 0.5614744591050763 0.20573915442424073
403 0.054161706428138445 0.759141882232235
404 0.878744157739458 0.18286427893924417
405 0.7350777203441615 0.683005456444614
406 0.3640329193170514 0.7551788553592137
407 0.9706021851783584 0.4344783492911779
408 0.291647438184212 0.4766401404842454
409 0.5202871260500537 0.6858815057022865
410 0.4219471133796575 0.3989085633874778
411 0.33934363209788365 0.7491563998327873
412 0.7171772656142938 0.8470106251662083
413 0.21834522200649398 0.7690408289885251
414 0.5841832813710383 0.31130648486472057
415 0.08430277936040831 0.10888600779632329
416 0.250354302460591 0.9140676959282741
417 0.8739351916302006 0.590885299044256
418 0.24173131405688186 0.3012514897534866
419 0.815877931652938 0.5243370635636143
420 0.4417082673105296 0.17683443643772268
421 0.17886753356706175 0.4632831087531629
422 0.9950117703807321 0.8314208013525533
423 0.34091772637200757 0.16695278321233264
424 0.03908092659009621 0.4210144377997236
425 0.18938064126874476 0.45565256781056884
426 0.6877792053358674 0.8938056187545124
427 0.1570585717458568 0.6676488547678266
428 0.9530426996792352 0.7827763852260512
429 0.538493834064961 0.950750387043345
430 0.9327952955363706 0.6770451940411913
431 0.8856964408390674 0.7169745529089242
432 0.18279245025890511 0.5612910941084263
433 0.6562054654174929 0.681995774769195
434 0.12370212755375354 0.4909468860062044
435 0.027434165623118623 0.5523568917880289
436 0.763878221137682 0.7133335317636946
437 0.04196221749496232 0.1393262035839956
438 0.21642700785790814 0.11622438563867177
439 0.8105450277149638 0.5956632311715504
440 0.1053889816351743 0.9942847514968981
441 0.7727780425619837 0.9359514969897821
442 0.27921910847268905 0.7548362112293769
443 0.5690268613420691 0.025980418512326575
444 0.2975881593817562 0.7837538013470152
445 0.04191287868410842 0.875578475817296
446 0.40752158655217174 0.510674253126936
447 0.5002588893457802 0.8956431171010051
448 0.30270678820055175 0.021391688348113447
449 0.532810578945715 0.3801570591117187
450 0.032239689028669805 0.9522982320494441
451 0.4013913702081021 0.2947913698743543
452 0.3315317858387494 0.3034681490125348
453 0.3934254071331206 0.9834595282333363
454 0.8337552643378662 0.13544314414548175
455 0.18285987634240752 0.3003693423846109
456 0.33730618549306335 0.18251453771211368
457 0.12111115082496338 0.86466689825849
458 0.742004575943166 0.8781894270122776
459 0.7118396744068487 0.6393086497396776
460 0.5443020206595698 0.9054618795417729
461 0.5450502611888388 0.6263047711320419
462 0.8961647068810201 0.37017198745956714
463 0.13309993502479212 0.3620340970077568
464 0.5176868560934808 0.5521489806100656
465 0.6088744283428614 0.06898281287998043
466 0.2061653779288426 0.2591242742199973
467 0.723732514746546 0.6894211475793716
468 0.7530075084969797 0.11118287810929084
469 0.5719827131699295 0.7813695911564978
470 0.022483970592560354 0.6354020490893451
471 0.7347308089775975 0.5440727947211573
472 0.1434342024986487 0.033353716604159866
473 0.4404107484893317 0.861416572698569
474 0.7963036063642664 0.8256429469332298
475 0.762111628613919 0.7744713592366153
476 0.9126120234843662 0.9581732344678452
477 0.25121679154696175 0.695731318249835
478 0.05398967774487451 0.8222696530408764
479 0.5503673766339061 0.06606311519215913
480 0.9647687020561707 0.21985816560912674
481 0.9090105993185617 0.647785027722874
482 0.002966515385344981 0.8319977358531543
483 0.10608900910514052 0.5623752248139541
484 0.18839735370249866 0.12988547963494057
485 0.5119998192860592 0.863367529662698
486 0.12636077595295847 0.23829578307318044
487 0.33148507085710566 0.7334720115610157
488 0.30816326426277485 0.546643978930842
489 0.45808326139690914 0.1364290809069536
490 0.5883636918984163 0.7620202107013662
491 0.04904243957077259 0.849999934302455
492 0.18349873639941117 0.15230061998706235
493 0.3447566046349937 0.7043751028059706
494 0.9250567357348134 0.058264752768822814
495 0.43391100104206126 0.3738292278202864
496 0.1865342979750776 0.8153742232908054
497 0.7821338691202637 0.8595621757076339
498 0.8237878716019912 0.6816369716367621
499 0.8921463487918042 0.27199777746064524
500 0.09637003058493832 0.13876092143899987
501 0.3732952715632727 0.17301139340057436
502 0.5066767580918277 0.877110393208984
503 0.3341176257543721 0.5581083431837973
504 0.42109088719094456 0.06442908907408218
505 0.08476736921644656 0.5899275636470444
506 0.05129381751048212 0.6397850026846207
507 0.46071610088399295 0.5626555504866125
508 0.39808316845974845 0.31661415462717923
509 0.4742784682903558 0.13482048757845766
510 0.046329646636222854 0.6883186430824454
511 0.6774278558947329 0.8535529085005633
512 0.6117783657967604 0.14093151806142523
513 0.8907072430378211 0.16851508817475602
514 0.2187024255336154 0.8508144585629677
515 0.05599860255986833 0.4155979523606095
516 0.8257266812082936 0.7433836946369436
517 0.7664491122736811 0.44972098723118314
518 0.13740591966656368 0.6392573191733922
519 0.647558583875164 0.08405126558937914
520 0.37269535974658463 0.11120745173014324
521 0.9321419871318253 0.21993455253169658
522 0.6191121917632806 0.974530834238982
523 0.7443913115031885 0.8945802617484839
524 0.9219047052750058 0.6599751451188755
525 0.0009791685387751103 0.5549511232614598
526 0.43803329600129637 0.4653067714998962
527 0.5566844477167946 0.05483834176221558
528 0.18850693357796833 0.9967740837688536
529 0.7982924081653574 0.2695071866333598
530 0.854208870773112 0.3759900463514084
531 0.7063036090701629 0.4603023729766925
532 0.5824377740982348 0.7058312731232333
533 0.6539772425680327 0.9084165864462558
534 0.31784305540209035 0.8672323302646525
535 0.20396451816379657 0.5398507947817186
536 0.46494785166747754 0.14897392882026173
537 0.08327897316041755 0.6567502446274034
538 0.3029021752879991 0.058414203812191534
539 0.11346726367007598 0.8919949231745123
540 0.35703480344780725 0.09080002039785928
541 0.39781969927073146 0.05945734008757542
542 0.22680315496395864 0.14296062776561558
543 0.7496489206157009 0.3630846452003865
544 0.4282992504825822 0.5032092855303313
545 0.8857830641792023 0.19560507843424368
546 0.3637322493740106 0.06114646058877449
547 0.2900371702403304 0.7973542740392164
548 0.7604113085487513 0.6878490414268351
549 0.7054762237467331 0.9941863731555742
550 0.19210048954932646 0.2495131667759578
551 0.30185968542388963 0.965465584195238
552 0.7878801057346785 0.4736987000368532
553 0.09117096688919823 0.538662085069916
554 0.7847000335618955 0.43440500851875763
555 0.6220962286147523 0.9602825831419803
556 0.7826413639251659 0.5404997685301686
557 0.7888467650798002 0.23601370048686365
558 0.23480067495692847 0.509774684873482
559 0.9740857511155994 0.2383908376952033
560 0.7385592662923026 0.7928766969411003
561 0.7855622393265591 0.28091166059960027
562 0.4173864796429254 0.9106703133740838
563 0.11539396661020085 0.5787530970610566
564 0.17472018221274277 0.5384726382491526
565 0.21006660360654283 0.20193451329332124
566 0.37333297071494465 0.3057900782257147
567 0.478346741254559 0.31862047838524343
568 0.8587162818178367 0.8363243094285969
569 0.02147226740038133 0.26065867002303844
570 0.5701505390101782 0.4067094035838501
571 0.5350529015360196 0.451982415788275
572 0.6593792027407404 0.4599583165463209
573 0.09065805458881793 0.7888048096564487
574 0.9776172368957323 0.6359663534609971
575 0.20530140475114667 0.6141417617151838
576 0.8768829264503682 0.0908581314912178
577 0.7624680563114765 0.5882236452600882
578 0.6491591078644133 0.6580219587757714
579 0.41798601753671594 0.36897371898923303
580 0.013399967483152753 0.5211065172863271
581 0.33039880826233115 0.5115536716601038
582 0.5303773876462452 0.9774699550723851
583 0.46911609919249664 0.38115122618275377
584 0.7781900745820862 0.0015339392179186673
585 0.6133923275891543 0.26811313151658067
586 0.32973811079179793 0.08561949348237197
587 0.08876438583133062 0.4931454036066011
588 0.092700645993821 0.8038542614597817
589 0.3823392751606447 0.26053371931517433
590 0.06659041401133936 0.2824346510354968
591 0.779789811498471 0.8698706899213376
592 0.077559032399389 0.8939344896250326
593 0.9800476902696568 0.3173449073203507
594 0.4764433827257518 0.7510233877257503
595 0.7462823320594167 0.7442527952937398
596 0.8814448784755853 0.30871725392751004
597 0.862321476273044 0.3383865400782392
598 0.6709555549129921 0.6240951420628963
599 0.5836943075459055 0.10876449242919695
600 0.05923858382837044 0.7232154158650631
601 0.9028455147327541 0.4949324199057621
602 0.5308466675574388 0.05820618696317692
603 0.843481812806332 0.1401924626923322
604 0.4361638026646596 0.8940011606202761
605 0.9945801598024381 0.5187124926494646
606 0.677898527077769 0.0408403162358979
607 0.5564700201804696 0.1094540681701941
608 0.0721698458993385 0.6911233659780309
609 0.45314999072964435 0.5081683080925106
610 0.5203867865633544 0.9032475066272987
611 0.836854467805979 0.5643912709042659
612 0.3105762403787665 0.7838352125753731
613 0.6375701821756222 0.3469914462670095
614 0.9199998279921874 0.6860539706335966
615 0.9619395487577337 0.9925236081693447
616 0.05148638836608277 0.6494200288985115
617 0.3374840511996722 0.10460337614379811
618 0.9727931685734462 0.6189651785564971
619 0.11167418101411286 0.5788990248905037
620 0.7664221637382711 0.6185409060306566
621 0.8242124274389139 0.45525482071790435
622 0.820974256426847 0.48735202154665236
623 0.7152552251211203 0.0399133134028582
624 0.10050123429285585 0.18017713253323142
625 0.6972244082697541 0.7768144808143398
626 0.5672254151671106 0.772594883623388
627 0.5007944750784425 0.7360044529710386
628 0.9931908772497268 0.0681650317551673
629 0.8038511145040349 0.3014375640296023
630 0.5804018082197807 0.21912208917906706
631 0.34595399481201494 0.17214444806392626
632 0.06678493367373617 0.11570144458093756
633 0.852852060381396 0.277478290813131
634 0.6518345214850613 0.7829728401691108
635 0.5885182352035846 0.2543792491871397
636 0.6247962869200301 0.19595254524702455
637 0.822446770587136 0.26925563067534286
638 0.10016244756137416 0.36389086285583694
639 0.8993130217956519 0.7997609686159771
640 0.4083646051918056 0.2785636209731205
641 0.9748743092455295 0.8532459707813277
642 0.2123923730685553 0.9496478283078423
643 0.6974816515154257 0.6159448594681033
644 0.21361350829882497 0.5368868050447656
645 0.31722182380442343 0.4209141078004991
646 0.9506543978519597 0.532137108617482
647 0.21773681413106372 0.7200865545433444
648 0.5514165298829944 0.3384532883864676
649 0.14529965984876325 0.9703355186621865
650 0.56017999380687 0.07776387157229636
651 0.6341209256961676 0.6329245820839833
652 0.40424432698726276 0.20660772965407692
653 0.28446220743930106 0.08538695650952943
654 0.14441843913040808 0.8347810567806093
655 0.7879088742881702 0.5003712404986472
656 0.9420060763550583 0.49610217506475973
657 0.6187542765449737 0.7381776251428219
658 0.6824227946515344 0.03531124295387267
659 0.05846603105470127 0.6724302303804163
660 0.7904475214432145 0.8938080316633731
661 0.868477269501959 0.12460897646350866
662 0.31483242606858963 0.031741108174405785
663 0.032179682836781076 0.32192149757204014
664 0.30098074651341344 0.757760534140979
665 0.28990625628650213 0.7235583646255724
666 0.1424874151022395 0.9993227849607582
667 0.4769679780611158 0.3982564683241425
668 0.2055560546930023 0.43723692419240034
669 0.8346621686710703 0.8958250901814336
670 0.2208176485322414 0.2829700400303128
671 0.7641473137730315 0.28984082517841925
672 0.14688834007703533 0.8111703132445838
673 0.4385735420180189 0.6903654792677596
674 0.29810313899044816 0.8704632630214932
675 0.9803434327351025 0.79963383967988
676 0.03802657960532507 0.2035198385888306
677 0.1293174949109419 0.28588886958915427
678 0.6900938931862185 0.6693969211697636
679 0.691841343160346 0.3226738358547854
680 0.6524489927535656 0.37850165994460216
681 0.47711418180234544 0.7114056755151705
682 0.15233140638939557 0.7875870066008837
683 0.19937476189255232 0.3998873585156141
684 0.34521068910919783 0.13193598439895005
685 0.6663921287358505 0.3905785724754073
686 0.10845499217048371 0.16604929824323122
687 0.7956827355878658 0.7140285755222104
688 0.2619540247363634 0.16540131303798344
689 0.6435070222187258 0.44614907174698604
690 0.9637948131167607 0.45617378327801883
691 0.9735691466241683 0.38900699306728337
692 0.21649169631988974 0.30113113298468486
693 0.17360421360908707 0.4392497816255806
694 0.7697955429408846 0.9733407123167858
695 0.7794906835449944 0.8928299320601776
696 0.8095750997618258 0.1460082661714186
697 0.02727701030221652 0.546364513559262
698 0.13740248365461938 0.598882107520647
699 0.718446012928046 0.5206212418810192
700 0.7337618383424503 0.18809819795493343
701 0.04556008662112243 0.8035744040058163
702 0.5907981020305999 0.3887900775369688
703 0.6323930744536008 0.7404980552050429
704 0.8891978882483095 0.949562765208852
705 0.8895898871591625 0.4474381607179072
706 0.7846757854187537 0.23913229757315235
707 0.9032613090237191 0.06235824639456666
708 0.5151908922418565 0.36673795565655
709 0.08382816923531922 0.5868500022153382
710 0.8844234222519928 0.18815255435307665
711 0.24372946914386118 0.6750138354817445
712 0.4695630677055421 0.5042953190652327
713 0.41228402226909666 0.13363883877829907
714 0.052360725553397436 0.8840260723433322
715 0.9509816283504601 0.15925195192384434
716 0.2991443505376159 0.8999686288550454
717 0.12330157398816155 0.7345731805840817
718 0.04319488276760908 0.4287368009646546
719 0.08379561355681053 0.7845131320681501
720 0.08108842454596243 0.23861015320557666
721 0.3869090479726486 0.39380140956190635
722 0.8014816373171088 0.8198515260776486
723 0.2745207682602657 0.8804988005998038
724 0.021373394558240055 0.20155815571408375
725 0.8480304475625356 0.8523951676727601
726 0.6523561221015204 0.20840154879392792
727 0.8463395664303676 0.559651795606449
728 0.7463207801130788 0.10941621178158178
729 0.9919502608249302 0.10577607874864947
730 0.7689737368217601 0.8666991501674147
731 0.4656010007996082 0.8535225797494947
732 0.6165939984394088 0.8302916883736702
733 0.4744714033684966 0.9568169624392867
734 0.09126429495215405 0.961837562454263
735 0.49332598344623857 0.7826815360821215
736 0.21567019991721215 0.5644567258403728
737 0.047817956481158275 0.6743419642924694
738 0.30582523125565664 0.3821913113930384
739 0.7658706375311342 0.5723536236385963
740 0.690632651601432 0.005610443069590354
741 0.945891429928444 0.15552686010405992
742 0.9518323947180981 0.6178941903729525
743 0.0866435695051081 0.45229852918308033
744 0.9963804174492823 0.3149084194764945
745 0.7221365379653039 0.2356683914967439
746 0.22929691510206174 0.8045975415520139
747 0.4444491329072693 0.2796052731599319
748 0.3281728183047228 0.25866067609900145
749 0.6778384105498203 0.534752158200797
750 0.5195619170098298 0.058314723642168165
751 0.8314626787323002 0.16560462444601565
752 0.833657216142917 0.3604003739480003
753 0.04106173869805585 0.419432656140616
754 0.4920631406928557 0.6863890924044282
755 0.2685666283126463 0.9253224580670824
756 0.13346267706408876 0.08518733822342772
757 0.7260842174184348 0.662478882695073
758 0.7563058869605932 0.3195761089624767
759 0.4956725048847147 0.5468037364321864
760 0.8207079953682347 0.35958271758851146
761 0.49839314199905815 0.8149227336581117
762 0.11668955680246484 0.07895440859070069
763 0.9948405471260077 0.45929189452573604
764 0.9741123674989499 0.13334023867417555
765 0.8618351793628864 0.1248561670032412
766 0.30802830591845676 0.2692051866644506
767 0.5415039465938808 0.4512685822642881
768 0.4949193769265341 0.9236105875715694
769 0.6745324077897502 0.339885060947135
770 0.9778104011795363 0.5794617854944737
771 0.5876667464337866 0.8390289245705559
772 0.39792160984144054 0.585541873563242
773 0.34768767464959216 0.5414070811752036
774 0.32862494261294206 0.3718270708212519
775 0.31086319514187777 0.834431974725788
776 0.5777112157386634 0.44055552309489954
777 0.6333127099982401 0.17999101448506982
778 0.7077029900960247 0.8160247616743419
779 0.49427120868359997 0.0776564014629253
780 0.9202441499765807 0.1179507166528081
781 0.04763854497143982 0.6859573320762882
782 0.8404628722020823 0.7080828177801088
783 0.5489806531473042 0.3288448470417318
784 0.9033777588544605 0.4484318652484476
785 0.9611206651462366 0.1703902477872502
786 0.13924518347387382 0.879703176086455
787 0.43247424790403344 0.18534838525309016
788 0.38795689713764625 0.4809214044900749
789 0.9643604204848697 0.8429967965492692
790 0.06843647817189413 0.9876292826980193
791 0.3931069337044607 0.41126496581791294
792 0.4087331220624102 0.053607776530729456
793 0.8377287217862938 0.22684656041704743
794 0.05093149395297625 0.48936803523144035
795 0.31395204776675867 0.33206506919500833
796 0.9027159863522548 0.0012032632706323598
797 0.09384112951248147 0.5131260651988568
798 0.17046260447318262 0.20859169802867705
799 0.9742970146089074 0.7324523697406992
800 0.5402171962239579 0.869299006174783
801 0.2835485762799441 0.4108192576988464
802 0.9899083808677323 0.9284721223594982
803 0.7346600197175291 0.9275089910291936
804 0.9528539847116934 0.7265302896938213
805 0.23987610291251682 0.7935799669240914
806 0.7608226504777332 0.7782396261667947
807 0.039637825752298905 0.6868333827377439
808 0.9416214294012804 0.9377812896894245
809 0.09272397057726112 0.214717998445352
810 0.7224342347741002 0.5949576512902552
811 0.7858187831249114 0.18384693634697735
812 0.3657927456699205 0.918547997330469
813 0.4408236984084867 0.42964049978652474
814 0.5621665025404302 0.6658206667189568
815 0.5591468055564967 0.6170109300373502
816 0.6304276945169129 0.6675642838628232
817 0.1376537467784099 0.7122966080580325
818 0.9080643462897465 0.21628969801287035
819 0.3681244517912615 0.6662888856418794
820 0.88348482784442 0.3519741915757806
821 0.6100447541743625 0.07579043274223685
822 0.05961615079865845 0.1487133968872142
823 0.7517070266567027 0.7300744018067985
824 0.03581189629522041 0.6246657573661265
825 0.07348899280242482 0.31082779962644946
826 0.48572862605606404 0.0961645285863888
827 0.7210194341364139 0.5964943028497427
828 0.0793237804187853 0.8499787819015393
829 0.4453049940800681 0.3951014749929147
830 0.6449671794473669 0.9841004303935399
831 0.38548681837119736 0.9728161115930524
832 0.8906606071361317 0.7469543346961618
833 0.8193499701293472 0.4952603171554666
834 0.5793365302089775 0.4154794748256533
835 0.3439222729656497 0.830871982531526
836 0.2416111343232945 0.5351223222200348
837 0.34794499132647405 0.03799202182911332
838 0.8386751278876442 0.14963427832183862
839 0.9276890051635469 0.9055197568757934
840 0.999878659281916 0.9845653828442958
841 0.8732312485695678 0.8310650307632095
842 0.9158502926618854 0.26481852251560256
843 0.7619416944859484 0.1702164155910385
844 0.3751022403858494 0.23024991638888137
845 0.08292000222881712 0.11124823842232323
846 0.41053218314807205 0.014884466872738034
847 0.03527560813664432 0.3631452326002007
848 0.3558619900262937 0.02482386978750739
849 0.7568457405551394 0.49607007613517096
850 0.7658991458204064 0.2204174890309325
851 0.4814022650795763 0.6376922655707457
852 0.7333434303848926 0.3216366225655335
853 0.8501192864622557 0.4355457070185893
854 0.6727754311802685 0.300290269426445
855 0.4599438819320857 0.871607836312588
856 0.6404588429344973 0.011694135979191222
857 0.42204310875988893 0.13326341918005924
858 0.7168361227013306 0.6947652914126622
859 0.5126723479099224 0.4036391531112974
860 0.1530463911515586 0.6092254265696061
861 0.32562251740980364 0.10709774858635757
862 0.7667462711982062 0.738421729310326
863 0.2041137052570713 0.7548400052462104
864 0.5393221266189634 0.16779261055904904
865 0.952353508027302 0.7743158848356515
866 0.011973306049489651 0.22286421793137445
867 0.3952811256699108 0.586801011946777
868 0.9729969268057542 0.9685354425985843
869 0.304794688949124 0.7108023321848782
870 0.590640879841778 0.0416511635606579
871 0.7814853319594153 0.7169342918125676
872 0.2773772198674399 0.3790408396472431
873 0.0020864572271300785 0.8383951047149915
874 0.8579848964779674 0.1047020162200164
875 0.8093758624335269 0.215382945344345
876 0.91748562013417 0.8376164393813128
877 0.8348915153452687 0.7487095092187259
878 0.28780564496827 0.6421572190792437
879 0.646607242296233 0.3854745759711006
880 0.5676496078953508 0.34822595084435515
881 0.5642267495697845 0.9497576770917847
882 0.8980644860779683 0.13407043445720634
883 0.5070565579900355 0.7302797113927184
884 0.5374739278501253 0.7876748054752764
885 0.6503809010844739 0.12179105163842008
886 0.44756753464019905 0.6914652631358326
887 0.13426839309975103 0.7012316731234408
888 0.004483256024692794 0.22185516405568484
889 0.4510608192274195 0.9187705200029073
890 0.587567858854186 0.5745694904576477
891 0.30465393701088883 0.5971950792785466
892 0.1723399855539145 0.18308094678791031
893 0.6859220579297526 0.9287914242903633
894 0.4126176316352773 0.761970005749888
895 0.2154682667016391 0.3639508043538061
896 0.926901344731166 0.5502795161851322
897 0.6500552279246131 0.2204080787940379
898 0.5032350694337603 0.2925937097776764
899 0.7625463711763724 0.899706208457629
900 0.9844366689886485 0.33325326083706
901 0.6582251863806095 0.6176645682093748
902 0.10860262427957224 0.3435254834544984
903 0.0009191730851839663 0.22555816981067578
904 0.14520227921491913 0.04757069429143479
905 0.6506427638186337 0.9263694594424275
906 0.22689136049603587 0.7087907503521433
907 0.8957320350748116 0.407647997679496
908 0.2098141640755763 0.30763266832640646
909 2.4619605578091175e-05 0.9746533748877318
910 0.974352670268143 0.7297641720500587
911 0.6726509860726261 0.8915406395336372
912 0.017011903798198613 0.5332009379735885
913 0.30722461449056115 0.3180621811388781
914 0.05279131118869451 0.9509963692620954
915 0.27581707999394367 0.8793191466920993
916 0.7561781365833601 0.3977224246184665
917 0.14105494693143106 0.1732149913572688
918 0.2587063642886531 0.7015121921267211
919 0.4496142816065525 0.6262767727263792
920 0.12358788258525844 0.4063508090722395
921 0.7777981799873523 0.8561416263580232
922 0.06382693748464174 0.5659405537365768
923 0.15416163054287857 0.7434371844770722
924 0.4934732035525583 0.8323701884858768
925 0.27222197415048466 0.03741086844246455
926 0.8483053389934206 0.6881209660820213
927 0.009305144487479988 0.1832597907615765
928 0.36315395658312166 0.845133390941394
929 0.2913639967877678 0.7900343888133691
930 0.9980551215609731 0.8213773496737841
931 0.9491418190837826 0.26171167975654297
932 0.04185546673686602 0.08750450672889665
933 0.1330172745936351 0.8532133134293318
934 0.771116667224043 0.12754372149147342
935 0.5740195478584723 0.4227956445373309
936 0.49766956913892557 0.1339994176740521
937 0.4192048432621578 0.11048757884430427
938 0.22117108325334878 0.5403971247219964
939 0.5671758260800992 0.44666891615595117
940 0.9119404518714613 0.24825495456110314
941 0.7043620596644059 0.6884047467835195
942 0.8823018412733098 0.27197484358650426
943 0.9847085547861605 0.5983974584302493
944 0.9005690232912683 0.04163642390230682
945 0.8652487888378206 0.3941719728822164
946 0.793639047450021 0.20667301810522265
947 0.9356620732299571 0.4089930931876061
948 0.9032907822362753 0.1654693608846256
949 0.49893849933961487 0.4868772944919354
950 0.6716604955276844 0.47325466540180017
951 0.6115728447370802 0.47084314513121106
952 0.3707100778666995 0.5081802160335264
953 0.4248327315644288 0.17722320652863632
954 0.8116123911135342 0.5814982110769343
955 0.30179957071144803 0.8130074163827792
956 0.19173947727123408 0.76227658660201
957 0.10637288889317431 0.8287934188903366
958 0.06472001903713176 0.44018083963905896
959 0.9903824838426842 0.20482715432795073
960 0.6879437944931368 0.8163283220978128
961 0.53676794169851 0.9676335950218273
962 0.10349046010769303 0.1515502686454686
963 0.6247741340062992 0.10760451196909737
964 0.19828188040682415 0.9289949768129012
965 0.7618930088447177 0.9862190746516092
966 0.7553608173371346 0.049563452296315536
967 0.6883284164579562 0.9250197089050617
968 0.5520539052221685 0.6124249705056787
969 0.16939547324827786 0.3262744192188489
970 0.48915930519420314 0.8539059936270947
971 0.6197178346069356 0.8309882480958578
972 0.11855384135268576 0.45834772040939487
973 0.2363094080007485 0.7913985082050986
974 0.07316378185836625 0.4695507939085034
975 0.7011393629068596 0.3273406322220337
976 0.0343872049368692 0.08085874291198114
977 0.13626976169049576 0.2044980071626965
978 0.0241913780772417 0.009684674842743046
979 0.6827784362359284 0.7842465250911921
980 0.8886527491993053 0.822056711268026
981 0.36499389162139306 0.3972644450756684
982 0.26385928928184743 0.11740426414310401
983 0.14039376835552086 0.5870324891629052
984 0.3508219099971295 0.2666807727686493
985 0.04255053760049943 0.35771480801444566
986 0.3527149377052967 0.11659937291304612
987 0.18807983805732698 0.16497910993396525
988 0.38663135185630504 0.42718500513650726
989 0.4732808286539997 0.3160163578685674
990 0.07340437275084943 0.5674509359082613
991 0.2585602451035921 0.49610168566159196
992 0.4050035618371287 0.20587048893795712
993 0.33267533515899983 0.7630111125362357
994 0.5873104283084585 0.37693282397629124
995 0.856422529722431 0.2634224162945352
996 0.5760026547414135 0.2819129259188664
997 0.7782063050476116 0.7643453479132434
998 0.21567007227687096 0.6296881798627877
999 0.6238157928320701 0.5853176943963816
1000 0.8467212177891125 0.33705733343101096
1001 0.21066556341412435 0.5725564214304197
DEMAND_SECTION
1 0
2 9
3 2
4 7
5 9
6 4
7 4
8 7
9 2
10 9
11 3
12 5
13 9
14 3
15 5
16 4
17 8
18 4
19 6
20 2
21 2
22 7
23 3
24 3
25 3
26 6
27 5
28 9
29 7
30 6
31 5
32 8
33 5
34 3
35 4
36 9
37 3
38 1
39 5
40 6
41 4
42 4
43 9
44 9
45 3
46 6
47 1
48 5
49 1
50 2
51 8
52 7
53 7
54 6
55 3
56 1
57 8
58 2
59 7
60 2
61 6
62 7
63 4
64 8
65 9
66 3
67 5
68 4
69 2
70 7
71 1
72 8
73 5
74 1
75 3
76 8
77 4
78 8
79 3
80 8
81 2
82 2
83 8
84 7
85 2
86 9
87 2
88 5
89 2
90 3
91 1
92 5
93 1
94 1
95 2
96 3
97 8
98 4
99 4
100 7
101 5
102 8
103 8
104 2
105 8
106 6
107 5
108 3
109 1
110 5
111 1
112 2
113 3
114 3
115 8
116 6
117 6
118 9
119 4
120 8
121 6
122 6
123 4
124 1
125 2
126 5
127 6
128 3
129 4
130 5
131 9
132 2
133 9
134 1
135 6
136 1
137 5
138 5
139 6
140 4
141 8
142 3
143 7
144 3
145 5
146 3
147 8
148 2
149 8
150 1
151 1
152 8
153 5
154 1
155 9
156 1
157 8
158 8
159 1
160 6
161 5
162 4
163 3
164 5
165 5
166 2
167 2
168 1
169 9
170 6
171 1
172 8
173 6
174 9
175 7
176 1
177 1
178 6
179 3
180 8
181 3
182 7
183 3
184 1
185 3
186 2
187 6
188 8
189 1
190 5
191 7
192 6
193 3
194 2
195 5
196 9
197 3
198 9
199 2
200 6
201 8
202 6
203 7
204 4
205 4
206 8
207 5
208 1
209 4
210 7
211 6
212 1
213 8
214 4
215 9
216 8
217 6
218 5
219 2
220 7
221 6
222 6
223 4
224 6
225 1
226 5
227 2
228 3
229 3
230 8
231 5
232 3
233 1
234 7
235 1
236 5
237 4
238 4
239 9
240 6
241 5
242 6
243 5
244 5
245 4
246 3
247 7
248 9
249 6
250 5
251 9
252 5
253 5
254 3
255 7
256 2
257 2
258 5
259 7
260 9
261 3
262 7
263 9
264 7
265 3
266 2
267 1
268 1
269 5
270 5
271 1
272 2
273 4
274 2
275 3
276 1
277 7
278 3
279 6
280 1
281 9
282 2
283 1
284 4
285 5
286 4
287 6
288 6
289 3
290 8
291 5
292 9
293 3
294 4
295 1
296 2
297 9
298 7
299 4
300 1
301 3
302 9
303 6
304 2
305 5
306 6
307 5
308 4
309 3
310 6
311 3
312 5
313 2
314 2
315 9
316 1
317 7
318 2
319 5
320 1
321 9
322 8
323 5
324 9
325 2
326 5
327 3
328 6
329 8
330 4
331 5
332 9
333 4
334 7
335 2
336 4
337 8
338 9
339 7
340 2
341 1
342 4
343 3
344 5
345 6
346 2
347 1
348 4
349 1
350 8
351 4
352 6
353 5
354 3
355 1
356 5
357 2
358 3
359 8
360 8
361 3
362 2
363 9
364 2
365 2
366 8
367 8
368 1
369 6
370 1
371 3
372 9
373 3
374 7
375 5
376 8
377 3
378 8
379 5
380 8
381 2
382 1
383 6
384 4
385 6
386 9
387 7
388 6
389 3
390 7
391 9
392 9
393 4
394 6
395 7
396 7
397 1
398 6
399 9
400 1
401 2
402 2
403 8
404 6
405 1
406 5
407 2
408 9
409 4
410 4
411 1
412 7
413 1
414 3
415 8
416 4
417 4
418 6
419 6
420 1
421 8
422 2
423 3
424 6
425 6
426 9
427 9
428 3
429 2
430 9
431 5
432 6
433 3
434 9
435 5
436 7
437 2
438 9
439 7
440 9
441 6
442 1
443 6
444 1
445 9
446 8
447 5
448 1
449 4
450 6
451 8
452 9
453 7
454 1
455 4
456 5
457 4
458 6
459 3
460 4
461 4
462 6
463 3
464 6
465 2
466 2
467 1
468 5
469 4
470 7
471 2
472 2
473 2
474 6
475 4
476 8
477 2
478 2
479 1
480 4
481 1
482 8
483 5
484 4
485 2
486 1
487 7
488 2
489 5
490 3
491 8
492 7
493 2
494 1
495 1
496 7
497 4
498 4
499 2
500 4
501 9
502 3
503 2
504 7
505 7
506 4
507 2
508 7
509 3
510 9
511 8
512 1
513 9
514 3
515 4
516 7
517 5
518 6
519 6
520 9
521 4
522 3
523 2
524 7
525 9
526 8
527 7
528 3
529 5
530 3
531 4
532 4
533 2
534 2
535 1
536 1
537 6
538 6
539 9
540 1
541 7
542 9
543 4
544 9
545 5
546 4
547 9
548 6
549 2
550 4
551 8
552 5
553 5
554 5
555 8
556 4
557 3
558 5
559 7
560 6
561 7
562 7
563 3
564 8
565 2
566 9
567 9
568 8
569 9
570 8
571 2
572 8
573 1
574 9
575 3
576 9
577 8
578 2
579 7
580 4
581 3
582 7
583 6
584 9
585 2
586 8
587 9
588 9
589 4
590 4
591 2
592 4
593 7
594 5
595 7
596 6
597 3
598 7
599 9
600 8
601 5
602 6
603 7
604 9
605 5
606 4
607 4
608 8
609 6
610 3
611 2
612 1
613 9
614 8
615 5
616 1
617 1
618 3
619 5
620 6
621 6
622 6
623 5
624 4
625 8
626 7
627 2
628 8
629 2
630 8
631 5
632 5
633 2
634 8
635 4
636 2
637 3
638 1
639 1
640 8
641 3
642 8
643 4
644 3
645 4
646 8
647 2
648 5
649 8
650 9
651 3
652 7
653 7
654 9
655 6
656 6
657 5
658 4
659 5
660 9
661 9
662 1
663 9
664 1
665 4
666 4
667 9
668 8
669 5
670 7
671 9
672 8
673 1
674 9
675 3
676 5
677 8
678 4
679 5
680 1
681 3
682 9
683 3
684 7
685 8
686 3
687 7
688 5
689 8
690 6
691 8
692 3
693 2
694 3
695 9
696 4
697 5
698 5
699 1
700 4
701 7
702 9
703 9
704 1
705 2
706 5
707 9
708 8
709 1
710 8
711 6
712 1
713 2
714 7
715 8
716 5
717 8
718 4
719 4
720 8
721 7
722 2
723 1
724 1
725 7
726 6
727 5
728 8
729 4
730 5
731 1
732 6
733 7
734 9
735 4
736 3
737 4
738 7
739 5
740 4
741 5
742 8
743 4
744 8
745 2
746 7
747 1
748 4
749 4
750 5
751 7
752 4
753 2
754 6
755 6
756 3
757 7
758 4
759 8
760 8
761 4
762 1
763 4
764 3
765 7
766 4
767 2
768 6
769 3
770 5
771 1
772 7
773 5
774 5
775 6
776 3
777 4
778 9
779 9
780 4
781 4
782 3
783 9
784 4
785 1
786 4
787 4
788 9
789 8
790 3
791 8
792 7
793 7
794 4
795 8
796 5
797 4
798 5
799 1
800 5
801 6
802 2
803 8
804 1
805 7
806 7
807 1
808 1
809 6
810 8
811 9
812 7
813 6
814 2
815 1
816 3
817 5
818 2
819 7
820 4
821 1
822 3
823 1
824 5
825 9
826 8
827 8
828 8
829 9
830 8
831 4
832 2
833 2
834 4
835 1
836 8
837 9
838 4
839 6
840 1
841 5
842 8
843 4
844 7
845 5
846 2
847 8
848 8
849 2
850 5
851 8
852 4
853 9
854 5
855 7
856 2
857 3
858 3
859 1
860 5
861 9
862 2
863 7
864 5
865 9
866 8
867 6
868 7
869 3
870 4
871 2
872 4
873 4
874 7
875 5
876 2
877 8
878 6
879 3
880 4
881 4
882 3
883 6
884 8
885 7
886 7
887 2
888 7
889 7
890 4
891 5
892 7
893 3
894 9
895 8
896 7
897 8
898 6
899 6
900 9
901 3
902 3
903 2
904 3
905 9
906 5
907 8
908 6
909 9
910 8
911 5
912 3
913 9
914 1
915 4
916 2
917 4
918 2
919 5
920 4
921 5
922 7
923 1
924 4
925 4
926 7
927 8
928 8
929 5
930 4
931 8
932 3
933 5
934 2
935 7
936 4
937 6
938 4
939 4
940 5
941 4
942 7
943 9
944 5
945 5
946 6
947 6
948 2
949 5
950 1
951 2
952 9
953 1
954 9
955 2
956 1
957 2
958 6
959 3
960 4
961 5
962 2
963 1
964 5
965 1
966 8
967 5
968 9
969 8
970 2
971 9
972 4
973 9
974 5
975 8
976 2
977 6
978 6
979 1
980 1
981 2
982 7
983 5
984 2
985 5
986 8
987 5
988 2
989 4
990 8
991 5
992 1
993 9
994 2
995 7
996 2
997 3
998 3
999 3
1000 5
1001 2
DEPOT_SECTION
1
-1
EOF
