NAME : gen1000_012
COMMENT : uniform customers, demands 1..9, generated by bench/make_tuning_set.py
TYPE : CVRP
DIMENSION : 1001
EDGE_WEIGHT_TYPE : EUC_2D
CAPACITY : 200
NODE_COORD_SECTION
1 0.5671855469103473 0.9609288728167188
2 0.9328136819437245 0.5616012873306944
3 0.721468722293191 0.03302217874137858
4 0.9359493888587753 0.7466051091104644
5 0.8481814048622776 0.8123319934635821
6 0.8951771655147747 0.5328459859130438
7 0.37577101771672283 0.22081785867860293
8 0.5842764168916547 0.7458315732824151
9 0.46836155149424263 0.44423485032579246
10 0.47606916127656995 0.6495568180916743
11 0.3502833433317958 0.6506207452750926
12 0.7982383628241687 0.5735536318562446
13 0.5080432949006588 0.9190369746425114
14 0.9781759092525478 0.9746468080637125
15 0.8631634061734794 0.6501985104844875
16 0.14175477624709265 0.2544976556896017
17 0.7463935400464353 0.44133546004210633
18 0.6172107522210876 0.5999293820998151
19 0.4085160923032065 0.09529046510522221
20 0.8428914625982149 0.5449782277315719
21 0.6999648449077289 0.6402457919571454
22 0.7462350276488323 0.5220635980078121
23 0.1444507594601787 0.4659811458316988
24 0.17369161678020695 0.43839988309738975
25 0.6201092864676805 0.861294602385883
26 0.6363169207181326 0.24567079020533267
27 0.894190767042641 0.2633233680726683
28 0.5257702589779097 0.5737160106540081
29 0.5949830407050485 0.16754042675080538
30 0.6659168217338262 0.4675086912558041
31 0.9554636189175141 0.6704350267609724
32 0.19391454076008474 0.6715580982689353
33 0.3551615287844154 0.6104122550437124
34 0.5392233977635947 0.0908358652212794
35 0.6216169975451713 0.3492993113113241
36 0.2640893991254556 0.79910415508583
37 0.7526914382955033 0.010127750785979273
38 0.5991432523038883 0.3907973653487469
39 0.9609698476884252 0.4119457744598175
40 0.677836211916964 0.8368414868974386
41 0.4761095024316899 0.7761447546955479
42 0.10581943288320483 0.37919096997851187
43 0.1996881995761529 0.9438994069137238
44 0.7372802305665166 0.7107164439433462
45 0.5188460032716617 0.7123016557835289
46 0.7844840926958107 0.5905576878050969
47 0.808750171406595 0.06432263689927853
48 0.9337971129811953 0.2779846581485206
49 0.8637652148766641 0.3026626371800416
50 0.0068779501723291725 0.8978155990542448
51 0.014086074226176915 0.9204877581930834
52 0.36044215248498634 0.527804481264219
53 0.03787146926843754 0.7251954852591913
54 0.7684290522355233 0.08413272099188562
55 0.20428204327034127 0.17603046638583253
56 0.2499028019687024 0.0606428468543897
57 0.6304617259063835 0.13349007619843123
58 0.4141101491766187 0.8664885379507126
59 0.39990442963877293 0.5097561088161859
60 0.8401394963473223 0.27386316297141167
61 0.609270723786308 0.2918345648577859
62 0.034515000567107657 0.9700704708005194
63 0.8962462092662532 0.538688137802193
64 0.40704149904471143 0.7373064937859162
65 0.47550964260875805 0.13982057299305972
66 0.625760149423291 0.3863713398941617
67 0.3583619855169552 0.39873582511657457
68 0.49611962774787 0.628790409779958
69 0.33875493118121913 0.4170804821449575
70 0.938596424247457 0.985281077073638
71 0.8318170556462089 0.2927395195693935
72 0.5449291028691707 0.4812352053174025
73 0.6970926445249335 0.7448016176659984
74 0.898131558479835 0.7122988685258403
75 0.8418191428372871 0.0835510321448043
76 0.5740206886293969 0.06609653495414469
77 0.05118675956155383 0.5412695266829396
78 0.3199809635824836 0.15538907782353228
79 0.7962352412556415 0.13025835371548855
80 0.6842690194385502 0.40238296165950316
81 0.9314399163117336 0.62002263551962
82 0.33301034310893785 0.17982600041159968
83 0.1116027859742047 0.9953615763737742
84 0.40204393033361063 0.012609298061640906
85 0.860702000798888 0.9648011878927027
86 0.7937336670497419 0.8776041981807672
87 0.2796849000286722 0.3877537325279732
88 0.7526909150988085 0.08411125971582589
89 0.05425429507850954 0.7483484826723615
90 0.19833308951782158 0.2576202416861013
91 0.9742279068350268 0.48625570256486583
92 0.8291575392182473 0.08592150035954238
93 0.20807731081287295 0.927317243860715
94 0.9844806844535028 0.38633698324014887
95 0.594453217548503 0.21100341425209967
96 0.520738488699796 0.011167693349920738
97 0.11553250555260675 0.04479033993172099
98 0.09023207016905954 0.3690330699143858
99 0.5293672455720074 0.2810440140706819
100 0.11056273982540432 0.8243416569084941
101 0.7458694267515598 0.12006874169966752
102 0.3530707907859544 0.3668119931195376
103 0.016690237845655598 0.5353051377534018
104 0.6641142309527663 0.4864977063477487
105 0.23012342352859783 0.5896610763386609
106 0.22941738406824785 0.2428187809996617
107 0.12050456341079152 0.6944745598749266
108 0.4614278626164131 0.7995115657668477
109 0.760921815890046 0.8229277824011525
110 0.26842430834048703 0.014925638576790079
111 0.09367723756955948 0.6981909035725108
112 0.9482324869409768 0.6190724506618406
113 0.18560151231429833 0.14900291537754418
114 0.869858101111226 0.6810831974392348
115 0.16820935613900012 0.8132566829828826
116 0.4095406786463255 0.08525676779211877
117 0.810885774136295 0.8449855003821769
118 0.21615378648875516 0.16990894170939197
119 0.9305218909060321 0.9623632706446759
120 0.8730580018020856 0.6828282968501604
121 0.6746205858726141 0.292581364020561
122 0.5285657618221038 0.8218268774170804
123 0.4036467836726454 0.6861780767697719
124 0.5104797045414204 0.6268252116332581
125 0.9877017908143724 0.49639740567104906
126 0.813101300184894 0.9807297314967891
127 0.7337344920407164 0.3672892407348156
128 0.8044357570201747 0.6649366359389522
129 0.6300348737439128 0.6425643923771822
130 0.9588423665862983 0.9695964208361231
131 0.2825183800445423 0.37224408978415724
132 0.8204073281649921 0.9517965555922091
133 0.8325853868345483 0.8902449507800667
134 0.9942820831073513 0.5174721001287659
135 0.48155932698217196 0.8573002913783906
136 0.7710383467423783 0.06096478122854987
137 0.2911717970137664 0.3082586966566777
138 0.4562646545949599 0.2728796520154001
139 0.25002555929163606 0.8425575408130975
140 0.5551638482349234 0.9324185105606477
141 0.4904991846719714 0.6323423058074552
142 0.05848574066589163 0.6230915884691346
143 0.28609884362628457 0.4811667857098878
144 0.3802258251051497 0.8386050488030792
145 0.19767306234943827 0.511086978513302
146 0.5053377135848154 0.5967828713868273
147 0.5395059375132681 0.16586443188439004
148 0.5461267190265993 0.16335531604107278
149 0.32872738674785984 0.3166373793607081
150 0.3937929264604054 0.12414239195781496
151 0.9826833126869523 0.8679243578123574
152 0.07486344973088155 0.9756486242728641
153 0.6270873872062813 0.3580266973889218
154 0.6651123654924672 0.7645080549740377
155 0.9046975170439291 0.9560521692809728
156 0.8795981290700973 0.3931000850369989
157 0.5991359385252799 0.9854550718978521
158 0.19552314773906332 0.7581978224603213
159 0.9655072997831439 0.8278640160841412
160 0.5012705034481629 0.7202477549861558
161 0.7169114668029174 0.17216837430912457
162 0.4711609110441678 0.5461694165581926
163 0.5861319652458461 0.17999860617088714
164 0.7970918303582487 0.7572535556138965
165 0.4017986184440133 0.5019092867123794
166 0.7998409913347141 0.44280589443156193
167 0.5646295552382303 0.36367120970942246
168 0.6692783986431524 0.03817352157003706
169 0.17253224331903472 0.16529009797616145
170 0.3874529610834472 0.8688489564271912
171 0.705646530976755 0.5702804968660585
172 0.10904666146980102 0.9800556636048895
173 0.2415267988867157 0.1464760535204318
174 0.23181184775772268 0.47642966732039294
175 0.05131390612895792 0.19646738335319203
176 0.8137950093481543 0.3415959769496618
177 0.7138540800957218 0.3725242804476021
178 0.8441865997829445 0.5454825251173878
179 0.3894655619911287 0.8229240292056033
180 0.01092921963358795 0.7828218283916047
181 0.8254242966684558 0.40278229181030256
182 0.6828217971162386 0.6583823257739531
183 0.8361205531830072 0.08032395687383609
184 0.05964540321080347 0.6143905412594416
185 0.17707043975315562 0.728056931194411
186 0.18406862769447818 0.8560186731297678
187 0.22151799866701494 0.7914497504326762
188 0.8805204657950758 0.4838881672080828
189 0.318523492036207 0.5975126985734162
190 0.4915006037504447 0.31196607822671973
191 0.1317503319168678 0.10504149150951292
192 0.9526534839580979 0.47027835277862173
193 0.8745717858300208 0.011402374133392845
194 0.8411978008480375 0.2636236748338677
195 0.0360487669446401 0.6842582148558882
196 0.23215769186984636 0.7356563935584597
197 0.38117033322983107 0.194802504390591
198 0.9816916558370279 0.07615269256921953
199 0.16664547361557736 0.18135811978121286
200 0.17556849735962965 0.0756296325060164
201 0.7536579806442234 0.6176335689091155
202 0.6698334112121481 0.1715411153966524
203 0.34841194052422864 0.255695485888199
204 0.6763795675021033 0.08755260988786373
205 0.7916881014811523 0.8218993812552856
206 0.7787810665144904 0.17258117241732807
207 0.23517119428038202 0.835050364184455
208 0.987547702335692 0.9269736173963924
209 0.1740713182379494 0.19636303472597327
210 0.9260889955762984 0.6006637797089844
211 0.47675918942955076 0.4820432782287353
212 0.32127755530205326 0.6488900796708578
213 0.8909355408144197 0.14471223964515567
214 0.24414225158405878 0.2791408683144315
215 0.186682330658122 0.03379596347729985
216 0.8257671327175266 0.32281910483198906
217 0.418925984110463 0.24176080253072307
218 0.20685631563794282 0.9874413803363582
219 0.31301482808696546 0.4151850456971523
220 0.3687890144819401 0.9539134188496357
221 0.20940024939554636 0.6481859032569225
222 0.5021800665470428 0.26158347883539756
223 0.25387325275186734 0.7850450411730217
224 0.5965577055280231 0.23757427974983358
225 0.46342932579389373 0.5283555120345064
226 0.32840651887822536 0.4083340249341567
227 0.8021708507896849 0.6425753083598408
228 0.7758691391390591 0.910375417721199
229 0.3099004806780137 0.7251505008839046
230 0.5962667702930139 0.2993465229993667
231 0.2060018151806604 0.9870828414659742
232 0.11769939364221249 0.3355549490759421
233 0.2751165390752175 0.0798914769698198
234 0.8676415986656971 0.10333847935683127
235 0.13547829510138687 0.10963505983524313
236 0.9159910895285787 0.2904303861810187
237 0.3689077553248856 0.8406747103624344
238 0.4518771141867576 0.7813920762671274
239 0.2900148332535829 0.3822516443076609
240 0.5846980257202785 0.2385470765478629
241 0.5983834383761072 0.2881669964893633
242 0.9020291282156762 0.3016575172094541
243 0.9617141595252052 0.05550688812605731
244 0.05315758627388989 0.4859091247651788
245 0.1376988837176465 0.6022869320615508
246 0.3910096709688349 0.19305152795580927
247 0.8622401634498249 0.7789178707513583
248 0.2773701711217841 0.6624244067187893
249 0.7198646824634993 0.5226400300172358
250 0.18625273319735713 0.581958734709591
251 0.41630450499495375 0.2937087961729322
252 0.17678407921737216 0.5213216509145132
253 0.9670344391411987 0.04395250051451782
254 0.9651421813093266 0.6836241576173119
255 0.8135370362762308 0.21771983958684804
256 0.6900951990115008 0.6357470841193411
257 0.583326095549044 0.8598616202517748
258 0.7797433226267722 0.1361707445060618
259 0.4324550502945359 0.6370227483849099
260 0.46984866557731697 0.4156556080999271
261 0.4616117684347225 0.8634638391316034
262 0.010499683679212723 0.8055930278626307
263 0.0794120937770515 0.04875404310853293
264 0.5145782056695238 0.34146581684122235
265 0.20718534128936938 0.12214734530408777
266 0.5097487191401893 0.5536555569536314
267 0.6079703693273881 0.5467164144065664
268 0.2065279700754974 0.6578924926075994
269 0.7525801421633251 0.07918996248684973
270 0.7832648339742918 0.9298479727328405
271 0.5510561963815293 0.727351258468369
272 0.16984870221171855 0.4743148856685566
273 0.4800332137506972 0.7123918881767356
274 0.6221126111698356 0.8790678804697499
275 0.7902133694387583 0.39254628636899014
276 0.37492759641687745 0.7739310936109477
277 0.44952415100296916 0.5809304975875813
278 0.3890858760360244 0.7428216070914513
279 0.5289361699330031 0.5641432456144392
280 0.14072711560308337 0.027616802819171893
281 0.5593108564012879 0.6911088570129684
282 0.6424741463090946 0.18362878380895686
283 0.2290292755136688 0.2873909472287519
284 0.31435427566290264 0.25908778243634956
285 0.7252145746027205 0.6749190723235048
286 0.5768561519751886 0.1901837082449479
287 0.6185839655380243 0.01520610832847269
288 0.40144246498803127 0.618080347248088
289 0.16259193491527446 0.9729286514023968
290 0.5540154549395329 0.14009493167898945
291 0.7933062657511373 0.15194461396640002
292 0.2696342388957894 0.9014077975343803
293 0.8873149484293511 0.9296430963030218
294 0.3822917969141648 0.061972907475852934
295 0.8202946235853993 0.5216254626951817
296 0.10898327112481054 0.39041471635787706
297 0.945933356280784 0.5199487304099717
298 0.3600096099841066 0.33792607478655035
299 0.8893461651566418 0.5408952338854002
300 0.6689930246801441 0.8360233930540408
301 0.04947410413873177 0.9078790358891833
302 0.3349866702841807 0.04352656547447531
303 0.8825648258140648 0.9156257331553571
304 0.33923591380362683 0.7488424992221049
305 0.05872030707215903 0.9225226382494186
306 0.3247447134451903 0.6339284116510575
307 0.8325042296946366 0.19750545964353572
308 0.17267306166681518 0.6934915615948182
309 0.19742143551100755 0.1522252164346064
310 0.5903904418872733 0.9342739678744317
311 0.22612475245952746 0.7580825474233015
312 0.19836492601281452 0.1328073201415062
313 0.4095710597750115 0.5214527779168386
314 0.5270213328800873 0.7251850508749276
315 0.5572024959723308 0.5702163020043811
316 0.5064421044580877 0.04755096035954243
317 0.43017833954584694 0.10422221188353997
318 0.2626787043998887 0.11334826438415058
319 0.8998867923846469 0.6414328324199102
320 0.5256303008929152 0.49889112239941613
321 0.7741495341071204 0.1359227043087159
322 0.04788195195066558 0.2909494049491511
323 0.9080497889205289 0.17968909389391285
324 0.9498153063582523 0.600431237751212
325 0.18822531235369544 0.9652259036447852
326 0.6542365002263321 0.2988201309334124
327 0.42930995766008584 0.5545552366973967
328 0.2092806268842623 0.12234681315437024
329 0.1811333779705575 0.796338575892769
330 0.512546886193532 0.24978904769747423
331 0.8215731490783722 0.15350085471960706
332 0.6257635733925319 0.8087647655000197
333 0.7954375986526057 0.34681172932041615
334 0.22087747055161522 0.8245817639148135
335 0.9976984420862054 0.5335483370637472
336 0.8510287567294389 0.774302938093029
337 0.25064255086442544 0.898805397891312
338 0.9562585604741525 0.768803484029499
339 0.6043273476179782 0.33663104006747613
340 0.4260025405758915 0.6661445995409259
341 0.19767872735576064 0.723281756737053
342 0.7501074299283218 0.9048810607687082
343 0.6210228477032969 0.9181141336360947
344 0.7024657014801151 0.6333592488323861
345 0.9205742962875589 0.9517128652582613
346 0.8192190629148937 0.6689630934558012
347 0.028430456822038708 0.8584433872573921
348 0.5054217904212758 0.2251271943742189
349 0.9512772866913367 0.6955088621138755
350 0.27322728327443535 0.699058359528519
351 0.8758291151616798 0.6670127866766183
352 0.17243073327043534 0.6005914038757391
353 0.27477900744541695 0.8188412759676924
354 0.2893544589076662 0.34866197722899983
355 0.14530399999940435 0.9709719068249866
356 0.2651745615002481 0.13745262189767204
357 0.0274050541121712 0.21376193973705593
358 0.7433505768887145 0.738411133627421
359 0.8285023247703828 0.14301689612460455
360 0.9145926550647612 0.27395359253184093
361 0.24998079554193553 0.16476366452667301
362 0.6420312819662939 0.0047497163209787585
363 0.37531148987048846 0.6786919469011076
364 0.4207726466538593 0.5755698980652085
365 0.7549380971386461 0.10547508644384773
366 0.09068557305361957 0.8401145267797637
367 0.536852952885256 0.9115482771988763
368 0.1166870002643603 0.14235553332213646
369 0.8296711730429653 0.9299014515518669
370 0.2349565167881369 0.3416180481166391
371 0.6939079148761714 0.18154086929897328
372 0.7066664238230439 0.17697084115426998
373 0.16397007325033353 0.779594136972242
374 0.9566602445458129 0.8020702109437058
375 0.1574126329216271 0.12298864353019512
376 0.38303307866721836 0.5184434445633416
377 0.906565981255411 0.07047076423516074
378 0.5972750775290085 0.9632275316012345
379 0.3902963367304595 0.927568475958014
380 0.12402412660343132 0.6500907786428579
381 0.18063831983569822 0.5462355168940531
382 0.1712633589621816 0.41360908543072317
383 0.3521617278544038 0.390375801965009
384 0.4965031936095444 0.9697946885390724
385 0.7603321843462791 0.7748073710208895
386 0.00796505196845776 0.42544454487766137
387 0.5901137895260997 0.6466828585288694
388 0.1220068313574244 0.49948950478869625
389 0.7104694285038045 0.4407709462538242
390 0.9034874139456813 0.6563451643437348
391 0.0025935436281216973 0.6690523439321127
392 0.06184176971696165 0.45348543215272563
393 0.5698544237386177 0.5643839456175256
394 0.2588992347842599 0.6222134224053223
395 0.03635592529028853 0.5009268658701309
396 0.09493133799719755 0.2950602217737667
397 0.8085604483354152 0.0331216351442537
398 0.0021742097567947205 0.33750719145800157
399 0.5685058550471639 0.7862387995628229
400 0.04736348369839838 0.19059274951274585
401 0.9094183430218974 0.18519668693093472
402 0.6778771805125088 0.8084604039244204
403 0.3654433340666764 0.770146981034748
404 0.21660237164097984 0.013650699357676599
405 0.13388506568866754 0.7936082418187058
406 0.645713501807208 0.08124456146140369
407 0.1440153796413458 0.23529287443609515
408 0.889716211753748 0.6109110767180918
409 0.7007206603249296 0.2431487869576754
410 0.2613312812830575 0.4639039265718603
411 0.9088160476837521 0.7522326516190421
412 0.38502456037432786 0.510865037054465
413 0.3504221587042641 0.6145576407852574
414 0.2760293909059691 0.6468513193208403
415 0.15037787444424355 0.7541864558339394
416 0.8560569301410483 0.47142463652237354
417 0.5445472413301665 0.49991658453279275
418 0.43489574883275095 0.8532480266097323
419 0.016280609798824397 0.8178593512185075
420 0.9422870781155409 0.9828758472758933
421 0.32518828398175104 0.0568087926525076
422 0.9807300053846124 0.36873276065482075
423 0.1468433443834165 0.10049835528750373
424 0.7875426117390673 0.4732706882705435
425 0.4027048637375932 0.2547787609987021
426 0.6926352451458011 0.37898905206740996
427 0.736229287698204 0.8134806192197513
428 0.009180105396951466 0.6246177296962122
429 0.5410085933624982 0.7321471890559921
430 0.8377125289419238 0.1744444559629541
431 0.3195564340745598 0.6615711864579673
432 0.1524967521277255 0.01046102955871031
433 0.6858493979771765 0.365565304330133
434 0.8222601953956771 0.7180851060751737
435 0.8198640889592579 0.11442715462090025
436 0.9000154191866041 0.530762276952192
437 0.28799663432353995 0.5624303156766074
438 0.42751958021282854 0.5271091339823661
439 0.6511235255078481 0.36154810692671446
440 0.9589250566266087 0.5290822730632999
441 0.9312963951540847 0.42276648480817014
442 0.1298231841873384 0.907689950599119
443 0.0002690042849253782 0.14663663840730146
444 0.8758057206379131 0.6751232711247688
445 0.7144277955605522 0.1169817761499029
446 0.03603374952514715 0.7610927090805228
447 0.5809615118096687 0.17903647362913822
448 0.6898810447915275 0.5893472661356852
449 0.21143224752377932 0.12797091201119593
450 0.18142858079331403 0.7235763616753528
451 0.1258114502502682 0.8825461895113202
452 0.4013765979016606 0.4228940315660903
453 0.7961647812442582 0.048238680688971525
454 0.14955602806088442 0.4317214777359346
455 0.9991169383483317 0.7826961009519006
456 0.5861955914167288 0.3641392123786732
457 0.6289319127023023 0.16453502982752766
458 0.41981283768404587 0.8334572814921504
459 0.6516896009541536 0.12975860294933705
460 0.2661383289431595 0.44954611977651127
461 0.27663355839342385 0.05445374362176314
462 0.547977935186312 0.7202704447672754
463 0.9901421561486295 0.03235720310036461
464 0.5461745691292995 0.18505232288261908
465 0.8674578274486479 0.8450937641193889
466 0.5750195644509737 0.7582681829150784
467 0.6507334367906598 0.96648333771107
468 0.3327669163813295 0.950605446584742
469 0.4220063673097779 0.6420564356934616
470 0.43731757660793247 0.5992219657517868
471 0.9217045924465941 0.40211902633877494
472 0.6169066654314376 0.04153214678453565
473 0.6107404695480642 0.09300157622869265
474 0.8247090770385826 0.378253951326734
475 0.8281293828894584 0.6297898326149456
476 0.19176888255107638 0.5107006384170354
477 0.04775306221303932 0.7874956388473008
478 0.9462244428469468 0.3544941978815761
479 0.8048770758067647 0.09738397475147009
480 0.16360879709949494 0.5870794891856355
481 0.7257200807372739 0.020279983143876135
482 0.642381432326208 0.28840318446027113
483 0.43727415883399634 0.24961869085873833
484 0.7557342347736978 0.6250182040477551
485 0.8459610056243806 0.010907402373224517
486 0.04338618975344455 0.5825988390451237
487 0.5898431524994728 0.7079530525081426
488 0.05698424912679867 0.31712231514162437
489 0.48461561859057134 0.5856529695406665
490 0.04749896036999712 0.3941001625969528
491 0.6172602196930896 0.2089541425088315
492 0.4917376614746609 0.2656333206567302
493 0.10835985005948023 0.4866674802655908
494 0.15497171114996733 0.10154521353603163
495 0.7233348585586615 0.09605784951043916
496 0.4699631825686339 0.16924858488956562
497 0.49228227102969413 0.2766289881059082
498 0.5207983197364426 0.7059675198469161
499 0.9628049442509176 0.20049985539275528
500 0.24515322597692935 0.2897214355587602
501 0.4458973470309874 0.6241017473665471
502 0.42905313584096405 0.050369211002226355
503 0.6071205275666253 0.21716016749315437
504 0.24251850949205156 0.7618773828778175
505 0.33221164909585343 0.8460443318309808
506 0.8696670644426376 0.018994193458542252
507 0.33526893023217375 0.28607608572670407
508 0.2182572311891363 0.8627064403197543
509 0.19600959989279587 0.7210173767902132
510 0.020514198207676304 0.5931634045133523
511 0.5635809520667995 0.3746673431215293
512 0.6708204678366302 0.9585953756205426
513 0.693138015902737 0.552917907870869
514 0.5319704083710729 0.13136234266387248
515 0.837255816059121 0.8053583276437327
516 0.7064050342887989 0.02527203977560133
517 0.44842386546297563 0.7090813418988857
518 0.6266599174083085 0.8347472064671295
519 0.3323013526967803 0.9231626343965754
520 0.3104446864061092 0.8920877913324885
521 0.5798693437236838 0.6471224439459674
522 0.2736656782742307 0.8169507642859958
523 0.9537664034168746 0.3602330306180722
524 0.5469397588247965 0.8807444227137371
525 0.32887634065645543 0.6861889617788843
526 0.36554619730031734 0.5381522640791359
527 0.002148981213363599 0.6824362311887466
528 0.7807368546882766 0.7743134253700326
529 0.4818536991128568 0.8706147841484402
530 0.5935385828128407 0.476652451294994
531 0.8511916337800817 0.3175035182786373
532 0.3590382993643476 0.665452577842259
533 0.08529267441650801 0.18679490300786916
534 0.4957008395919934 0.4324263567168771
535 0.15132779943864272 0.22876957836325418
536 0.9990085641456158 0.9014759192291338
537 0.13433116613134355 0.2899711310051979
538 0.07533699433005536 0.6641302817665916
539 0.9926822864078295 0.9530070367388997
540 0.5188667010833561 0.7638232165056433
541 0.3233689733505919 0.7312693042074765
542 0.7725293534119619 0.6430209807595895
543 0.26408974151179665 0.2168616466143478
544 0.04193417530195709 0.003621122987855885
545 0.8124790524581078 0.8402230860688437
546 0.15093305891313769 0.33662633610889303
547 0.9183651902618466 0.27251923123911415
548 0.2871585430023341 0.6770601554804366
549 0.9941918889045066 0.8247244891779469
550 0.3518547264463132 0.2074154687389389
551 0.8154765012175609 0.7447735512170695
552 0.22890291088248305 0.10297046412052535
553 0.8987659202656997 0.37378318677670885
554 0.3744435705293683 0.5172161843455999
555 0.27056772605349355 0.648497339095103
556 0.5297477171336629 0.9686205595390437
557 0.9904164503122637 0.3871058360850649
558 0.8906301345071569 0.3503751329471686
559 0.12526166199197608 0.012123864551078944
560 0.9031127726600606 0.12856856932668104
561 0.0194888186620622 0.8478438251426487
562 0.7839715966055858 0.19010150481519017
563 0.6247509091751237 0.3681283977490726
564 0.5249473500282528 0.5532452002349085
565 0.742608877009314 0.958952082073704
566 0.14537815197164927 0.2957570406214668
567 0.27074740973121714 0.8043298346408009
568 0.44505613102381836 0.6082544405630566
569 0.28784734659504563 0.7336205546156597
570 0.6717970271879429 0.45445713474350913
571 0.0159692411481831 0.8728658190353136
572 0.04154203233235554 0.05083038647281857
573 0.06803131154618214 0.9377282437455078
574 0.9351209277624976 0.888055349900592
575 0.1815242319252468 0.24055049785279725
576 0.01566840273583192 0.212099472985662
577 0.5426404534724171 0.7711295970415042
578 0.8033000143064095 0.6958867833685216
579 0.34181309905754265 0.9597291864228001
580 0.8234970690391162 0.15458679713116652
581 0.34567395799958356 0.22322594255400408
582 0.04456665270836757 0.17717293224402875
583 0.22533479794093358 0.8181170980911889
584 0.5608455801305079 0.4546270883373552
585 0.744332321037732 0.976244000971573
586 0.1564538131126867 0.3546089302691203
587 0.7941217850658101 0.4651085920455753
588 0.5225725622329725 0.14490252708319784
589 0.5678600212495394 0.864778769046937
590 0.7239172608651271 0.6311734221891121
591 0.9199900277958596 0.2211553360674453
592 0.5558877997343025 0.13242787151229185
593 0.9256567571994908 0.43163448267675175
594 0.011568797440189904 0.05198438725220067
595 0.3318596533856305 0.6495140242720951
596 0.3701240235266924 0.7868616506480612
597 0.45791919998099817 0.5750177098722927
598 0.11358370721083322 0.4468428308871125
599 0.011608291479887733 0.8754280760290668
600 0.7408594483754672 0.8783309464134462
601 0.1306437207858976 0.3293271664404853
602 0.10949530774827887 0.540838330073085
603 0.10174458525182128 0.2481953526763241
604 0.38310903659283946 0.8773623827695711
605 0.2121806040704537 0.5450660265584394
606 0.12562781977273008 0.6500804401736563
607 0.675977859381693 0.1957250185952204
608 0.9442012785742687 0.5282101061463461
609 0.8103972460151576 0.4220806387864149
610 0.21524257837789806 0.3573565990206117
611 0.7235741426191822 0.3292964273590896
612 0.6620873054695301 0.20901973310237754
613 0.9946392322168189 0.005488291343080265
614 0.12281987418471763 0.21525637560484
615 0.2745711074764339 0.9979856786188338
616 0.7751008720556272 0.15618648779253064
617 0.0032408604593160417 0.9607199573569878
618 0.8831080693032852 0.44051482726946
619 0.9297888178177564 0.6852912905691185
620 0.8543632949657798 0.8699456321074497
621 0.4235564956459832 0.15143677571620096
622 0.772607664174071 0.07710216491543986
623 0.25641196853892334 0.18775244287685988
624 0.5384389418275847 0.17571280651536425
625 0.9836288440146848 0.6606929053191718
626 0.8493878450078255 0.1213306725469635
627 0.7696111987647553 0.0375236674481505
628 0.43938530620721494 0.41741889272780663
629 0.040083616874355354 0.19589546576528938
630 0.14192869352601156 0.24601582434074976
631 0.0023848004327580163 0.7370214266692939
632 0.9363057622276337 0.07598049254312866
633 0.2093404195345976 0.8369225931557536
634 0.8471337247716604 0.8621333844689767
635 0.5766971390533058 0.6154494630125394
636 0.5370469649420121 0.17027931556018694
637 0.5657411670915126 0.7980930517216326
638 0.5509792794545777 0.2746498935417885
639 0.9582401103008518 0.751759605870678
640 0.3766304452272974 0.31072525857789124
641 0.5274106876960498 0.6200372944821354
642 0.6574528154097506 0.44039408589926676
643 0.4254887691243011 0.9964828475006439
644 0.8373969843487841 0.6202323519495431
645 0.4821310265793981 0.03713978268226781
646 0.2457172840421482 0.6798681665913039
647 0.5066041130920313 0.15281991822557572
648 0.13435324559792705 0.5297478293183245
649 0.06329215493478657 0.9492746329744848
650 0.3612592881961768 0.44172702566166167
651 0.2944941181753139 0.3152280827881969
652 0.9984214487899076 0.025903717961948014
653 0.8580572487696873 0.9625186462542762
654 0.9737072287489588 0.6071318699590535
655 0.42245820705065285 0.41032933118334847
656 0.5148895764770883 0.5623653147810008
657 0.6753818191354362 0.5578735465309645
658 0.5151570514657496 0.10248219067087261
659 0.35906075323631315 0.793190119226172
660 0.8062751325705262 0.580643802680544
661 0.8677241423528843 0.03821835556746489
662 0.5402119192709663 0.15710748375742078
663 0.7034107846429302 0.6831164160915704
664 0.732740002939232 0.38347554437356945
665 0.26643527025060587 0.3028871032156969
666 0.10526872783434404 0.30206330539718507
667 0.7223654416947427 0.7753477931686673
668 0.7467425322228126 0.12453146048117925
669 0.935358199630816 0.31047014185629385
670 0.9284081203207728 0.27692267909906065
671 0.9745377013212927 0.6561232799091029
672 0.08148377696316833 0.1855133743933458
673 0.048017035372688754 0.5049098427343147
674 0.14049758136444812 0.5403228988171754
675 0.272333945735059 0.1252095258763749
676 0.6441844004892058 0.23903913256308185
677 0.49125374986960235 0.4515582827583354
678 0.0613714865714623 0.6826481122218743
679 0.6501200432883397 0.05960809650266519
680 0.06475261529686116 0.3523441495384353
681 0.3594251249613839 0.16300219641587643
682 0.4540769223599307 0.7515151696752198
683 0.22732768058778907 0.8665730231784298
684 0.3929564667211447 0.40429571792110675
685 0.2958344084934934 0.9945060038944522
686 0.3868870281191854 0.7549494595772357
687 0.3181238514484691 0.47709520797413274
688 0.025776720808815656 0.13602255216281145
689 0.7261859531247129 0.48694961080271826
690 0.5493726393913824 0.6351528478096512
691 0.1579368720566685 0.334795968076236
692 0.5483493994259431 0.05653771500362814
693 0.28245212618775617 0.6477329344077044
694 0.12020660136879702 0.27254637724690356
695 0.06050852228840975 0.8278625375083046
696 0.30529310740262605 0.039974067075743136
697 0.7841289096654199 0.8175374912421918
698 0.21329894760297663 0.2965262194564219
699 0.6958973130745716 0.5658026948654096
700 0.3686912270143742 0.03761259355216395
701 0.7839186667517013 0.11691888503224634
702 0.6660320835242152 0.9532184756544895
703 0.4777820200392512 0.6889313007593271
704 0.13814362075504716 0.9217512343484902
705 0.5961413343589547 0.6203972937919404
706 0.7585088470897625 0.48686152732312393
707 0.06972566435129346 0.2467970960282201
708 0.8017035760954986 0.8449131332238229
709 0.9555489322532036 0.828118726418252
710 0.5713353956219552 0.6329741109419988
711 0.3821247393504944 0.5910291283023799
712 0.9423530578068572 0.19684861741019188
713 0.9917446307315922 0.5884270332244512
714 0.5772154202537705 0.47531074986341404
715 0.43343863946613015 0.9536552957729268
716 0.9516619596366086 0.2710732188296747
717 0.9249148883332109 0.2982328145826688
718 0.48712670384803125 0.8376761075299541
719 0.38909510187947305 0.4243762889774241
720 0.5501800998180946 0.9669303039348377
721 0.42093803703327315 0.4072310993556717
722 0.010434455532158715 0.25885986383013726
723 0.5458527429559483 0.2053426691482284
724 0.9939940058540799 0.6499408116359212
725 0.21343540876622036 0.5857882358030015
726 0.09889438037722553 0.7698960183801882
727 0.9044574123515686 0.30082561772999794
728 0.3433534296614821 0.4664231297519774
729 0.8843213694571752 0.0168109841407299
730 0.8695592895568601 0.1193978069006848
731 0.12400776097109556 0.3697194218270765
732 0.8946078424518124 0.2257018662994147
733 0.9457563578119017 0.9109425269294694
734 0.9295653295113486 0.5270814356621746
735 0.7636493396643362 0.373539254030647
736 0.07111752138486704 0.5003724636242659
737 0.9215069089268195 0.6172030499280666
738 0.3247351895559486 0.10743623244377698
739 0.9504869854030316 0.10519138359472635
740 0.25633178377504406 0.4650149975012563
741 0.5678688219260736 0.7550364845396378
742 0.44254295484780115 0.6712969389956215
743 0.5263378291992473 0.16842521316714865
744 0.11945987085769649 0.23142136562359017
745 0.24227706906148316 0.1511530609645212
746 0.21167579424746452 0.02754234200811778
747 0.5028541226553845 0.3978581084397209
748 0.39220363064799546 0.9447510506704812
749 0.3896408972814249 0.6480104289612054
750 0.633614622158266 0.9523676480342628
751 0.3666263136635456 0.08988053943235974
752 0.8095382169460242 0.11999627365916066
753 0.2149124554127314 0.6373510198324077
754 0.2818413031107332 0.8519360187984966
755 0.8563175849774307 0.07041736130914888
756 0.6987354813913016 0.5720942781440018
757 0.06348397551155471 0.6906929344882722
758 0.20011953501280466 0.39424546815239836
759 0.7526179900696668 0.47250973591038214
760 0.6344098474714138 0.03422604830926712
761 0.9510011516127264 0.323152054993213
762 0.9889710451342393 0.7587925729370619
763 0.09123656169195149 0.5808263011680699
764 0.17380438544672105 0.2591103041655304
765 0.8735297623756367 0.9602168563755054
766 0.8818322735974723 0.26596319662636825
767 0.619545528481635 0.5009736824517171
768 0.10490467003722803 0.7226626713676281
769 0.8382380010129723 0.30180331014038186
770 0.1927407678665547 0.36417136685557416
771 0.8170084401087006 0.6420513485365911
772 0.9829504157818628 0.0949740674259455
773 0.6993744294942479 0.8390126171901386
774 0.7396632215255621 0.05386560747644209
775 0.395235409754783 0.7556428870560998
776 0.7255493082050577 0.21273907392043778
777 0.81659816915597 0.452167087782713
778 0.3911966860898288 0.6354462235445533
779 0.10072942595761325 0.41303998766232786
780 0.970577067747591 0.5522000156831571
781 0.5963280766957039 0.5839112139290836
782 0.16982313205585353 0.7965375920751553
783 0.013403105114944691 0.9056485014205913
784 0.4203625415629759 0.5062915552309234
785 0.13256478922580728 0.27032433377795195
786 0.07332249418520631 0.6003711015174293
787 0.6951986953394547 0.4493978905439745
788 0.12967373724793785 0.38170218649666643
789 0.5725484386092932 0.8907528686950464
790 0.3603499117851495 0.8650178457410704
791 0.9727976820272813 0.4023050570566914
792 0.44444270032259414 0.8034226436754462
793 0.6786094720093806 0.333161024220914
794 0.3480769482144165 0.11062735291134329
795 0.8836340623038665 0.6209681881677818
796 0.0310397327415044 0.18024525012078285
797 0.7014756410064492 0.07785210053494007
798 0.14986903538267393 0.4321993146733223
799 0.9153851709986932 0.555424459772778
800 0.6600567170621613 0.22037655637109865
801 0.32579964630048475 0.2934497743427805
802 0.0379402709807114 0.5242545602044731
803 0.7769658841168777 0.3259828835556692
804 0.7160245509041332 0.4696051051489256
805 0.22236746336964242 0.8587894995254978
806 0.4005843953359248 0.8469740510356935
807 0.644274365942925 0.008547838269247876
808 0.31422811492521985 0.36432360588957124
809 0.8366292573153696 0.7310625658014687
810 0.3602174398715049 0.23805588990006332
811 0.31213387774283896 0.5946900093001272
812 0.04865597264044175 0.7357259698328481
813 0.2601478543853205 0.7825741125553715
814 0.11928343616222625 0.16687938585786777
815 0.7398452241219867 0.8240582033333744
816 0.6888651304805917 0.7377521567170958
817 0.1346104305617154 0.7782794578318425
818 0.6068479655486011 0.8480866768236058
819 0.10812780099301733 0.13941631580265745
820 0.6644969085412351 0.5615428136426494
821 0.31957508213320907 0.5196801951441137
822 0.522497686656991 0.11408175751182825
823 0.6185470590497089 0.6138561444010423
824 0.07754878125687559 0.2261638894678446
825 0.6759403618039239 0.022481403848843562
826 0.8780983525454245 0.07140230618165544
827 0.5738496534941091 0.42770613511028244
828 0.8874663335118979 0.1103771470899495
829 0.22063342066077363 0.8721599616478635
830 0.5525135103532895 0.8501213599431245
831 0.9760789054679395 0.9905115307016027
832 0.08887469274950899 0.9012241685179075
833 0.6200794343730721 0.8674286659905555
834 0.46369264783726116 0.2584089164339787
835 0.19574260666153687 0.5854525777706383
836 0.5229705027666716 0.8253517555975224
837 0.9569055635007522 0.8058911964184811
838 0.5992604768071337 0.6589600101797651
839 0.250549956736818 0.5152477797934989
840 0.9875013997286315 0.6351432202215351
841 0.9463132547256883 0.8542866031445979
842 0.4784253414494952 0.7668188423882805
843 0.8336623580616932 0.4001406153256971
844 0.2888643763346701 0.38051322304320856
845 0.2716520335210716 0.28051033653772706
846 0.3886488523077033 0.5499802413000584
847 0.41815113663671744 0.8155830781600252
848 0.9953067455137729 0.21813286374969154
849 0.10812770441768782 0.8923957727508679
850 0.3249578801775085 0.2731118512029467
851 0.6133718111823697 0.2901020094604274
852 0.9723843540801743 0.02316237351193784
853 0.7554073348379063 0.7345329935150231
854 0.29242021392962414 0.6619363014564487
855 0.40966706921940665 0.7430780928018479
856 0.750198206006332 0.2003473920772253
857 0.2909306505128556 0.2956095777608656
858 0.39459773874993387 0.18679314058519958
859 0.43202217123525966 0.5770113544858979
860 0.8674678293218036 0.9914584006677317
861 0.526258145765732 0.2431118185054093
862 0.06564367517740544 0.7002785181158573
863 0.32223809001039805 0.5239137384312407
864 0.7723559096593283 0.20093597282005715
865 0.7303914182482094 0.15175468651740875
866 0.06700128042363862 0.2858867357896666
867 0.9562671446020522 0.46816902471018973
868 0.7669761134383084 0.6216248758543541
869 0.23977268143135178 0.6524183457816339
870 0.774362943090987 0.010087225929625632
871 0.8434121140897768 0.22087661944497217
872 0.5040209270867745 0.9429938473602849
873 0.1236767822355963 0.90788109479594
874 0.47878823721324304 0.9581780788214693
875 0.1252229548191971 0.34173694105264385
876 0.23277197119453463 0.6492138216526034
877 0.34723053121293834 0.8826502555644518
878 0.9929028131336832 0.1460490657421306
879 0.8964129470923231 0.8169187466133213
880 0.3665103850572733 0.6891284286894852
881 0.5242085248680631 0.24658491717417064
882 0.6432455763352635 0.13717696585008776
883 0.5259073865811745 0.5603435931661825
884 0.656749748504024 0.680291814691599
885 0.7791973531677923 0.30887432854662444
886 0.5167379264559468 0.24032588182316095
887 0.7503902201529872 0.8608137686619426
888 0.2761233375764619 0.8901519165193829
889 0.9789175233693612 0.16056800519346115
890 0.1598525670148735 0.5340327863804156
891 0.5983680840684374 0.9475120928289349
892 0.8905820299656214 0.4445479416925039
893 0.6151251909725973 0.03339468689415381
894 0.678129413494247 0.08129668255670763
895 0.793393221271927 0.6055669564657343
896 0.8613693318722113 0.6509544739461164
897 0.9095674214243892 0.026434685211213282
898 0.437860171949208 0.617931208713878
899 0.8597418528348321 0.6301402027627785
900 0.4127439309680373 0.4061744261470627
901 0.14111877212267898 0.09463610264873634
902 0.2102575652690205 0.8978049923947339
903 0.8509314017966721 0.9207950121882662
904 0.7554713369836631 0.5936934524010913
905 0.6506785178325962 0.7945822332764689
906 0.469724499790253 0.9378422174067002
907 0.9549074716778271 0.16001597414462188
908 0.3623016217248881 0.644845654315949
909 0.2852380471339997 0.007672370275878526
910 0.9201378091349997 0.01812298367729004
911 0.23415774107868936 0.35675916501145344
912 0.06229890053439979 0.7678553349390224
913 0.8760717399584407 0.7920837035999757
914 0.42391989167474997 0.8770166844105157
915 0.57085528592957 0.9898218499993534
916 0.9986488538573358 0.13752086334325964
917 0.9200354078952172 0.5800179370747516
918 0.9717170390952826 0.40294253339998953
919 0.3124103085233122 0.13439031982140226
920 0.6759636858625699 0.1398055578299654
921 0.31112742858994935 0.4353090393449488
922 0.8433746431774929 0.43958522370534003
923 0.9243776729107809 0.4572571199051749
924 0.5860214720912306 0.5247100511918161
925 0.6430693686751424 0.5739131440268226
926 0.07956498024059633 0.49817724768183735
927 0.7958295215539412 0.7664356493887757
928 0.6278897720477187 0.42416726435063423
929 0.0014046852157687528 0.144075176699607
930 0.779140187793307 0.7333399594772214
931 0.5799228514691639 0.01630401155241501
932 0.4666062924210487 0.987684086579101
933 0.10031614085091822 0.6841836224922141
934 0.07275548287490785 0.4723483087348176
935 0.05636953816167023 0.5541851483673611
936 0.7614136549623258 0.7707017019659846
937 0.7376620636606832 0.7381959151405161
938 0.09029111455742456 0.18437910108365663
939 0.1001818089872557 0.42422851688137664
940 0.024964640725200105 0.47398535598207914
941 0.008529686979049766 0.12435990290775223
942 0.06956650611004633 0.8211855779003582
943 0.6973525550151451 0.2948263590852269
944 0.26372673990111617 0.21587699758415946
945 0.40392903819541504 0.36594679085771153
946 0.48925310817496515 0.5261120465191746
947 0.4246664927292091 0.3986552887174041
948 0.2994642806837575 0.11095427538857272
949 0.6989567140719125 0.6396900740727045
950 0.24561560403802452 0.6126281930523757
951 0.9512782854946014 0.501825478212681
952 0.6010805388076388 0.3280407686479747
953 0.07627095793373673 0.6873365634549985
954 0.5017853794318553 0.21135554036374904
955 0.8007211951029457 0.2729102316434231
956 0.24436974091723618 0.5115478595296392
957 0.35796448591335606 0.3045167407758004
958 0.615530000179108 0.4010039515042263
959 0.6182819574482487 0.8864716411138586
960 0.5119451600542404 0.7271211658867217
961 0.568700163002594 0.017434156879343465
962 0.8788988610903313 0.5549137271867278
963 0.40631795217310795 0.9211025793268283
964 0.6647076910366336 0.7628184548320451
965 0.8218542825934099 0.31214580243206
966 0.6845597284460931 0.24507879880712868
967 0.597561099731552 0.5028189084145057
968 0.961723013185281 0.4681817978146353
969 0.3284866753960378 0.07712526384322094
970 0.8020197438337409 0.48645292561681175
971 0.2536867628785595 0.8558508905065927
972 0.9759073302091081 0.8393254801101241
973 0.5103423477606758 0.9164091517219622
974 0.7430634707659646 0.4486850621293803
975 0.6632223951074888 0.5118342460477141
976 0.480796074062136 0.1846417546592405
977 0.020712125195487707 0.4294857403486202
978 0.055241210840520805 0.45048150553160615
979 0.6315031750425795 0.4257709258990595
980 0.4378159163797627 0.355368771033174
981 0.4594672682197425 0.10294326707785528
982 0.7185099145286472 0.78783939463588
983 0.23866050110999193 0.048607779216386815
984 0.23230581356629942 0.17925929421314635
985 0.8486769308956524 0.028883392823332965
986 0.7601613658662411 0.13552931217573128
987 0.9943542477221006 0.9870597316022086
988 0.2799521783938991 0.16577528086641258
989 0.30250719858582686 0.31219815031856935
990 0.5829205654251884 0.49358826720690263
991 0.8884937075329618 0.7856147565245081
992 0.7814763640525957 0.8445574361387339
993 0.17151506253587268 0.9799511244893038
994 0.25587988753728264 0.5373440823964794
995 0.7572062988465226 0.6128463003100874
996 0.8650381804731141 0.8267104516673346
997 0.5295873057458451 0.36891437668312366
998 0.6243548332549266 0.5310226423415455
999 0.484761825813963 0.6522555362677867
1000 0.7365098163328372 0.17755452313832754
1001 0.27741860465486734 0.10373642599707411
DEMAND_SECTION
1 0
2 4
3 7
4 6
5 6
6 1
7 7
8 3
9 8
10 6
11 5
12 9
13 8
14 5
15 8
16 7
17 5
18 4
19 6
20 7
21 3
22 4
23 7
24 9
25 4
26 4
27 6
28 6
29 7
30 4
31 9
32 5
33 5
34 8
35 1
36 5
37 3
38 5
39 5
40 1
41 9
42 7
43 8
44 2
45 3
46 5
47 5
48 4
49 8
50 2
51 3
52 1
53 1
54 6
55 9
56 8
57 5
58 5
59 7
60 4
61 6
62 5
63 9
64 5
65 6
66 8
67 6
68 6
69 9
70 6
71 4
72 6
73 6
74 9
75 6
76 3
77 7
78 6
79 3
80 1
81 2
82 4
83 1
84 6
85 4
86 4
87 8
88 5
89 6
90 6
91 3
92 5
93 3
94 7
95 5
96 7
97 8
98 9
99 3
100 8
101 1
102 2
103 7
104 7
105 4
106 7
107 4
108 5
109 3
110 3
111 6
112 3
113 2
114 4
115 5
116 6
117 9
118 2
119 3
120 2
121 3
122 3
123 9
124 6
125 9
126 2
127 6
128 7
129 3
130 1
131 4
132 9
133 7
134 3
135 7
136 9
137 9
138 3
139 9
140 5
141 7
142 9
143 7
144 2
145 4
146 2
147 3
148 9
149 3
150 3
151 6
152 2
153 8
154 7
155 2
156 9
157 5
158 3
159 1
160 8
161 5
162 2
163 8
164 4
165 1
166 9
167 6
168 2
169 5
170 7
171 3
172 4
173 9
174 2
175 8
176 5
177 8
178 1
179 2
180 9
181 5
182 5
183 2
184 1
185 9
186 8
187 2
188 1
189 5
190 2
191 3
192 5
193 6
194 2
195 1
196 1
197 6
198 8
199 7
200 5
201 7
202 9
203 4
204 8
205 4
206 1
207 6
208 4
209 6
210 4
211 6
212 8
213 6
214 5
215 8
216 9
217 5
218 3
219 3
220 1
221 2
222 8
223 4
224 7
225 8
226 4
227 3
228 3
229 1
230 6
231 3
232 5
233 8
234 3
235 4
236 3
237 8
238 5
239 3
240 9
241 4
242 6
243 5
244 3
245 3
246 1
247 7
248 2
249 9
250 5
251 4
252 6
253 6
254 8
255 3
256 5
257 1
258 9
259 6
260 2
261 9
262 2
263 8
264 3
265 6
266 5
267 3
268 3
269 3
270 1
271 8
272 2
273 6
274 5
275 5
276 5
277 6
278 2
279 1
280 8
281 5
282 4
283 2
284 5
285 5
286 1
287 9
288 1
289 1
290 6
291 2
292 6
293 8
294 1
295 3
296 5
297 4
298 5
299 8
300 2
301 4
302 9
303 5
304 1
305 1
306 9
307 1
308 4
309 7
310 6
311 2
312 9
313 1
314 4
315 6
316 9
317 2
318 2
319 4
320 5
321 7
322 6
323 6
324 2
325 7
326 4
327 7
328 9
329 5
330 7
331 3
332 8
333 7
334 2
335 8
336 2
337 1
338 2
339 6
340 8
341 4
342 7
343 8
344 2
345 7
346 4
347 6
348 2
349 9
350 8
351 7
352 3
353 9
354 6
355 9
356 9
357 3
358 8
359 4
360 9
361 9
362 3
363 3
364 6
365 4
366 1
367 8
368 6
369 9
370 6
371 7
372 9
373 5
374 1
375 5
376 6
377 1
378 2
379 8
380 8
381 2
382 4
383 1
384 4
385 6
386 9
387 3
388 3
389 8
390 2
391 3
392 8
393 9
394 5
395 1
396 6
397 6
398 7
399 1
400 2
401 2
402 3
403 5
404 8
405 3
406 3
407 4
408 5
409 1
410 1
411 6
412 4
413 5
414 7
415 2
416 9
417 3
418 9
419 4
420 3
421 2
422 3
423 2
424 3
425 5
426 4
427 9
428 4
429 9
430 6
431 2
432 1
433 7
434 5
435 5
436 9
437 2
438 8
439 9
440 9
441 3
442 3
443 9
444 2
445 3
446 5
447 8
448 1
449 7
450 2
451 5
452 6
453 5
454 2
455 4
456 1
457 1
458 3
459 3
460 7
461 2
462 9
463 3
464 6
465 3
466 2
467 5
468 7
469 4
470 7
471 4
472 7
473 8
474 5
475 7
476 6
477 9
478 8
479 6
480 5
481 9
482 8
483 4
484 1
485 3
486 7
487 4
488 5
489 5
490 7
491 2
492 2
493 4
494 3
495 9
496 5
497 6
498 1
499 4
500 1
501 3
502 2
503 7
504 9
505 5
506 4
507 1
508 8
509 8
510 4
511 9
512 7
513 5
514 5
515 4
516 7
517 6
518 2
519 3
520 4
521 1
522 3
523 9
524 6
525 2
526 7
527 6
528 2
529 5
530 8
531 9
532 8
533 3
534 9
535 9
536 9
537 4
538 8
539 8
540 6
541 5
542 8
543 2
544 7
545 2
546 2
547 4
548 6
549 2
550 2
551 4
552 1
553 2
554 1
555 5
556 6
557 3
558 7
559 1
560 3
561 6
562 8
563 1
564 4
565 4
566 3
567 1
568 6
569 1
570 6
571 5
572 2
573 7
574 6
575 1
576 1
577 7
578 1
579 6
580 2
581 2
582 7
583 8
584 4
585 4
586 3
587 3
588 8
589 1
590 8
591 3
592 3
593 4
594 4
595 1
596 7
597 6
598 2
599 5
600 1
601 2
602 8
603 7
604 7
605 6
606 6
607 2
608 3
609 7
610 2
611 4
612 8
613 3
614 8
615 5
616 8
617 2
618 3
619 5
620 6
621 1
622 2
623 3
624 9
625 6
626 7
627 9
628 1
629 5
630 4
631 7
632 4
633 2
634 3
635 1
636 5
637 2
638 7
639 6
640 2
641 3
642 8
643 5
644 9
645 6
646 8
647 7
648 9
649 2
650 8
651 8
652 8
653 2
654 1
655 7
656 1
657 8
658 1
659 2
660 7
661 7
662 7
663 7
664 6
665 5
666 3
667 2
668 3
669 4
670 1
671 6
672 1
673 4
674 2
675 4
676 3
677 4
678 4
679 7
680 4
681 1
682 2
683 9
684 5
685 2
686 2
687 3
688 9
689 8
690 4
691 8
692 3
693 4
694 1
695 3
696 7
697 5
698 4
699 9
700 5
701 8
702 3
703 9
704 2
705 7
706 7
707 3
708 5
709 5
710 5
711 5
712 5
713 7
714 9
715 8
716 3
717 4
718 9
719 5
720 6
721 1
722 5
723 8
724 9
725 1
726 6
727 7
728 6
729 3
730 6
731 9
732 9
733 8
734 4
735 2
736 1
737 7
738 8
739 8
740 4
741 5
742 8
743 6
744 6
745 5
746 2
747 9
748 9
749 2
750 4
751 8
752 7
753 4
754 5
755 1
756 7
757 4
758 5
759 9
760 9
761 9
762 8
763 2
764 9
765 9
766 1
767 8
768 1
769 9
770 6
771 4
772 2
773 9
774 8
775 7
776 9
777 8
778 7
779 4
780 1
781 1
782 4
783 8
784 4
785 3
786 5
787 7
788 6
789 5
790 4
791 6
792 3
793 9
794 3
795 6
796 5
797 6
798 7
799 6
800 4
801 4
802 8
803 4
804 1
805 2
806 8
807 5
808 3
809 9
810 8
811 3
812 2
813 8
814 5
815 1
816 6
817 1
818 3
819 8
820 3
821 1
822 9
823 8
824 3
825 6
826 5
827 9
828 9
829 3
830 7
831 4
832 2
833 3
834 9
835 7
836 4
837 3
838 4
839 7
840 7
841 6
842 2
843 8
844 5
845 1
846 8
847 6
848 8
849 9
850 4
851 2
852 7
853 9
854 8
855 1
856 6
857 5
858 8
859 5
860 3
861 2
862 3
863 8
864 2
865 2
866 7
867 7
868 1
869 4
870 7
871 5
872 1
873 8
874 5
875 8
876 7
877 6
878 8
879 3
880 5
881 8
882 2
883 2
884 4
885 2
886 5
887 9
888 6
889 6
890 3
891 2
892 6
893 3
894 3
895 5
896 4
897 4
898 7
899 2
900 9
901 8
902 7
903 2
904 7
905 1
906 6
907 8
908 6
909 8
910 9
911 2
912 9
913 2
914 3
915 6
916 8
917 2
918 8
919 7
920 8
921 7
922 6
923 5
924 6
925 4
926 1
927 5
928 7
929 9
930 7
931 1
932 5
933 7
934 3
935 9
936 4
937 1
938 2
939 4
940 5
941 8
942 8
943 3
944 5
945 9
946 9
947 8
948 9
949 9
950 1
951 7
952 4
953 5
954 5
955 2
956 8
957 6
958 6
959 9
960 8
961 4
962 8
963 2
964 4
965 3
966 2
967 5
968 6
969 2
970 7
971 4
972 9
973 7
974 4
975 8
976 3
977 5
978 5
979 9
980 9
981 5
982 9
983 9
984 7
985 2
986 3
987 6
988 5
989 1
990 5
991 7
992 7
993 5
994 9
995 6
996 9
997 9
998 9
999 3
1000 6
1001 1
DEPOT_SECTION
1
-1
EOF
