NAME : gen1000_010
COMMENT : uniform customers, demands 1..9, generated by bench/make_tuning_set.py
TYPE : CVRP
DIMENSION : 1001
EDGE_WEIGHT_TYPE : EUC_2D
CAPACITY : 200
NODE_COORD_SECTION
1 0.14088266767352375 0.9342902596065119
2 0.6644141301738353 0.6547677467620723
3 0.9971327977256886 0.08318762435603455
4 0.8467390986344558 0.6520533853407666
5 0.41096767126878964 0.3421513608046871
6 0.357240876873405 0.8223459897386898
7 0.055009761091225906 0.7597516996535335
8 0.6363939605735296 0.547873142987092
9 0.22885426870847558 0.6490862559527908
10 0.169541038872695 0.8947440663431311
11 0.7491786523441379 0.7665273770118983
12 0.7048838747365318 0.7882214588237038
13 0.1709627321899867 0.3485465955801481
14 0.4342923195530406 0.7795913233435334
15 0.4045328392889491 0.9800125414783276
16 0.6454679426492691 0.23164753444063213
17 0.20940795928670308 0.2956412735505959
18 0.7669688976318599 0.8877374591149807
19 0.13518191318982287 0.4668925876493726
20 0.054006971107708246 0.11682607880356244
21 0.48118339706413016 0.21851901913176863
22 0.6885981274097295 0.2121196759663595
23 0.9714289051637273 0.6621863433402065
24 0.6831115509116176 0.8454287766670053
25 0.336098161668129 0.6785170400421604
26 0.6727083510049552 0.1418217404020491
27 0.5768861026957016 0.6459759481596284
28 0.7846541630347602 0.9867746406862327
29 0.8937061878945377 0.00953069510998572
30 0.8449943700894115 0.9864753501765958
31 0.2229010988042367 0.20034788716785434
32 0.6923995396534138 0.545911101174685
33 0.7585142303496266 0.828204793954296
34 0.7442985591948236 0.1529215612611552
35 0.596258966767391 0.5859755500963651
36 0.9065198643715493 0.3360552332035375
37 0.2889428229276719 0.6621354468031361
38 0.20847850029976578 0.8173841357434877
39 0.564224014164785 0.18305579235951186
40 0.848488110053553 0.629543526900409
41 0.3766566663000225 0.08421039456240809
42 0.6933280535173693 0.17542434625589987
43 0.18351796657775732 0.522035597609366
44 0.025139371128425014 0.6668425270635447
45 0.8903902377322193 0.7809613972441364
46 0.010251281865826467 0.7327392216799766
47 0.2844318745333154 0.8890978474583868
48 0.14312850155844103 0.5931011754507598
49 0.0898155584313457 0.02782418739190795
50 0.182900004209127 0.6780804867285721
51 0.4934424325034732 0.3359339980506596
52 0.8979394515494122 0.8754979813432165
53 0.6659868755875279 0.21744206960820323
54 0.16502598325862183 0.6889948200055633
55 0.9182025972337277 0.028637765559501593
56 0.2727108650192679 0.695662951070852
57 0.33497843042617204 0.8440252998556173
58 0.02542058401158398 0.81683337603955
59 0.2940300354988765 0.6867003151399609
60 0.13646863778519203 0.480341406013856
61 0.3241107229063065 0.1657384179228344
62 0.018846071520010943 0.05842399159232381
63 0.185787982198788 0.23351155396887102
64 0.28037987426442357 0.807289642792406
65 0.37805449402905733 0.9957379895525628
66 0.6610918838884884 0.8274664219891088
67 0.5790440551705531 0.8321552221332124
68 0.39186446954827614 0.9712033126320858
69 0.5906877947420444 0.06624944212284034
70 0.12105379489741974 0.2711110279068102
71 0.4239529771357805 0.9803012633758873
72 0.6768079516875989 0.15256229515012898
73 0.5652434405887813 0.4160921868111731
74 0.014884554865207233 0.08644953562534907
75 0.6862316147285964 0.7083072564667166
76 0.26622144156585204 0.3563806588775944
77 0.43943793211307824 0.7951729700693977
78 0.34527627250300164 0.06295794109206865
79 0.9647212150487571 0.5365425373304779
80 0.21795716298629142 0.40558651314442795
81 0.020374040158516404 0.8013900729668781
82 0.2103770883671875 0.45352269622602437
83 0.39373920675637786 0.860754559561465
84 0.01926638998240826 0.12183009108068743
85 0.6792377786151362 0.5499799439461498
86 0.6463278614403949 0.8283098293934774
87 0.9627463563643763 0.7246448892321025
88 0.3460209650017525 0.31910731089426214
89 0.9577266816962796 0.38022300415796717
90 0.3080273335538334 0.5769264734464847
91 0.43099278664857643 0.37972701722505475
92 0.7997313898857872 0.019338777749711156
93 0.43480570937190055 0.26739914749325844
94 0.4805757388655659 0.33395561621906444
95 0.2892882210165829 0.15897539076086253
96 0.27191108235306893 0.16641490612407106
97 0.6962687091078104 0.1728193089672655
98 0.9166720700718263 0.9269455239926774
99 0.8699240581751189 0.34138343003175553
100 0.6363212497833084 0.9040342394659518
101 0.9942314158389571 0.8796418004150264
102 0.7260339452958969 0.760746015520608
103 0.7239157938077578 0.8481839999742159
104 0.39116123847931084 0.4787078380789703
105 0.5110795807067224 0.6617991460131109
106 0.04890405134617448 0.3601099849536883
107 0.4522141322308354 0.24613817300759389
108 0.07215435495778111 0.2345684679359521
109 0.03571077743076101 0.2018909557854538
110 0.6906636174459003 0.766149643468515
111 0.3743130466547271 0.9670467318450439
112 0.16663036841168088 0.17634375265206004
113 0.4556038629662932 0.42038091025034907
114 0.7287162475555314 0.37327425527566827
115 0.7033286562088077 0.5514293008635737
116 0.27807574818746106 0.7431114995365719
117 0.23414069209501276 0.46065962801783955
118 0.047544431166831824 0.1610754178382653
119 0.8572193621322434 0.921325287480928
120 0.4438084534051677 0.7343415327093817
121 0.3342980752271576 0.6235711829999883
122 0.7947615036471664 0.2453844328840512
123 0.896926149841286 0.884967139220691
124 0.6622073946321112 0.6695018212920603
125 0.19785229658611536 0.38857434857324846
126 0.05681266997607182 0.5735668908868846
127 0.323919258007627 0.21506013187188833
128 0.13546141836222436 0.7652642214230282
129 0.10981474205584596 0.046082509626813706
130 0.2586560970954923 0.02484524494803586
131 0.16496462181634086 0.5424037816655095
132 0.7038461066628816 0.6109674835147135
133 0.3423535843404828 0.02133902368549956
134 0.5701042905563314 0.18208238582442904
135 0.5143417283284183 0.8963782711099914
136 0.38312284414797204 0.48382445618759484
137 0.5129532192603565 0.360250266928831
138 0.7749943498601574 0.09385346415410423
139 0.06173330884800077 0.5006912007547688
140 0.6421475223517507 0.154419018853293
141 0.17583963581271667 0.8383768095485515
142 0.7468443918896662 0.8282718924556371
143 0.863944453884237 0.8686670753530685
144 0.48104898346937996 0.7231468958773869
145 0.6141842553972463 0.6102180638964373
146 0.9760801699080368 0.8420813141221771
147 0.7585294812897961 0.7123407426980658
148 0.20970445349620292 0.1106470271418829
149 0.016286651059974844 0.43707612003880103
150 0.8433331788496858 0.7571266997695165
151 0.5036653929791426 0.524135755624806
152 0.2772456484462211 0.2642940289752651
153 0.258726310260706 0.23466515448725023
154 0.973089998354422 0.08302123176878429
155 0.32087502816656155 0.6012567256220555
156 0.18141704392445446 0.5748297044161853
157 0.45463010553957384 0.9287094282706858
158 0.04077115910858664 0.7603291460688395
159 0.5312805647260175 0.23324786744476933
160 0.5753567183223803 0.49559080451282655
161 0.6966543245795042 0.015832830626058225
162 0.26958789434051633 0.43796736219368193
163 0.3289890183628914 0.29750983087405125
164 0.7999633946241649 0.03917920954707654
165 0.5275503346996522 0.5416692855171675
166 0.7221362275305254 0.7885854504687779
167 0.6986441645970389 0.7506765163672752
168 0.1816161486379837 0.5770327945704219
169 0.19884390892314974 0.10614768371842997
170 0.0762009046037363 0.9517510014424145
171 0.9608433820738053 0.4898413942421016
172 0.36576491256166954 0.570891563688768
173 0.17523199613255602 0.9673099277598625
174 0.7034556905879613 0.6555751760658669
175 0.24287578141247856 0.16848809675757603
176 0.7044371774652187 0.72892907232859
177 0.40055282592274677 0.18120287892134723
178 0.6655043180509789 0.47269598974617333
179 0.8184110471463151 0.4847348486452365
180 0.43996334492996303 0.01467715631913813
181 0.4963653813177715 0.7440162178560643
182 0.6391425861140069 0.06524086885273528
183 0.7330006281911926 0.9460854234617306
184 0.6656886542702716 0.9974942149224182
185 0.3088028282851283 0.17257234727623516
186 0.1822671876734535 0.12482684293996027
187 0.41687211439125604 0.38695533905871604
188 0.2004262707575084 0.04825408088180916
189 0.7108643470837578 0.15458592776718327
190 0.13784013169715026 0.7736907939141583
191 0.9666131192688366 0.4110322917438022
192 0.0283253383647315 0.7741130124451981
193 0.16088217173023678 0.6957465658938822
194 0.5122030136550806 0.9677977075326573
195 0.11183226208920061 0.009968803119531633
196 0.7209901951627219 0.3960489018996286
197 0.9784454021648871 0.23847783492003138
198 0.9429644930357425 0.5750441885916658
199 0.1654727797357758 0.9284642570031817
200 0.2848225218404139 0.7259235106746229
201 0.5282962595151166 0.1303133694485471
202 0.1213671269981238 0.8418995265525187
203 0.5546462211942526 0.08173447327782812
204 0.9962048067595404 0.9920345943701886
205 0.6457599713206864 0.2707258290693444
206 0.6711116448709342 0.2782144968004069
207 0.9725375025365564 0.8788740549319878
208 0.08634187105930169 0.033867359942929554
209 0.6291973711098807 0.6467688009630638
210 0.13550580086801645 0.48295701886845244
211 0.700111691794425 0.4780066598718953
212 0.6195229174607871 0.22358545940431895
213 0.1144938568529853 0.8129503019553977
214 0.9178250240072403 0.198036069206873
215 0.05753573608699436 0.5927891906293589
216 0.5654693615743204 0.27736225023431094
217 0.2662715707600176 0.19231404201076419
218 0.8467573542090046 0.38832991252116333
219 0.16960099465983958 0.6824786153738446
220 0.6339084998120468 0.7588953544788314
221 0.3992740351072097 0.09695412765226197
222 0.8193614801212561 0.20771277863330695
223 0.9189529299188324 0.6372247605795618
224 0.08886396620716941 0.3777258417916318
225 0.389773694856109 0.08115828473506637
226 0.004937117409020475 0.00040757521790857343
227 0.8746089719634215 0.6679340097637733
228 0.7994699181194523 0.19104245342529236
229 0.37230240328058595 0.7552732816299257
230 0.7839437099986667 0.220133831017033
231 0.8721815930368878 0.5119910826834253
232 0.6424487694421476 0.7343381105299618
233 0.668539034665242 0.7372876945961107
234 0.9446856377647708 0.4596034276487181
235 0.3850228824928249 0.9947859723366886
236 0.7126472134118542 0.6176020844610668
237 0.09278928322404212 0.3763941887954493
238 0.2920206200549986 0.4089019428024393
239 0.5187613092509824 0.8344442068312194
240 0.5783985512768005 0.8797019189887171
241 0.7578656869882495 0.14286677225465738
242 0.19100223236859304 0.5681879474412428
243 0.20379851587958553 0.10364862438411615
244 0.9317015320540138 0.30397597407844024
245 0.7136505359805722 0.6210091428577866
246 0.7039198527122765 0.7048257222265789
247 0.770060206672682 0.7109846688244295
248 0.7700730230147751 0.711943078053263
249 0.48136549266365913 0.031117737629806186
250 0.42222288201392455 0.6819451291122619
251 0.6709849822209671 0.7972099377499337
252 0.5538170479091853 0.707266998293207
253 0.15898553997036724 0.055120434765148496
254 0.5722557465787325 0.04943187942514238
255 0.5569620130610079 0.5262787679300122
256 0.40019074645657493 0.7281147695245038
257 0.28043976631482337 0.9597205184569383
258 0.5785227603055298 0.915937129181313
259 0.8731258216999889 0.3434369210958631
260 0.20818146224012535 0.3974935483360368
261 0.010245275585611169 0.2668556832036211
262 0.002829806153378245 0.14073103661960817
263 0.7587323039184564 0.7040397947145379
264 0.22585895398335132 0.3786590245844774
265 0.7255947466655795 0.4706509902805719
266 0.6807128368373128 0.625465146783769
267 0.6857952493858686 0.7952336389592407
268 0.7629442947231282 0.1831797597096726
269 0.6360079260871921 0.04792741989537719
270 0.3985111223033875 0.6328764421750255
271 0.5952360207679803 0.738611677215333
272 0.15978291807994782 0.10813014257467268
273 0.34337187757306853 0.12600636717005997
274 0.8812730589546538 0.07849929200084538
275 0.02451540130760843 0.9471568553249442
276 0.19461935975596578 0.33235072726634207
277 0.9923107251637082 0.0858530922638413
278 0.027782306934858725 0.7104205149991103
279 0.26086284892897016 0.27390565334186256
280 0.9613624440700066 0.9768229728543079
281 0.67023865291948 0.2237809789520857
282 0.44669811618471766 0.7180858092665504
283 0.2788657061076041 0.01728812557238435
284 0.4537270180491615 0.13427254353556928
285 0.19751399542393389 0.5025432918470559
286 0.3466184895908606 0.4197608578474732
287 0.4783076358128986 0.4048242262987135
288 0.6665490913442931 0.5886692415614031
289 0.6159029756666576 0.009623780850111396
290 0.9138783046346837 0.8185607970208303
291 0.7493600353477445 0.08410490832047979
292 0.35252113646885574 0.06731108927976204
293 0.6151054821032266 0.9715887699840462
294 0.8166747934540993 0.8701943086346077
295 0.21725291253426493 0.9954277610635818
296 0.22359709210814604 0.332403374887868
297 0.43106322590493906 0.3788537745079368
298 0.2562476606495282 0.7527195868129005
299 0.8610431234530148 0.16077736748199367
300 0.40165698812146045 0.44835809647104163
301 0.8635170018812606 0.09440489491854864
302 0.9238342103728872 0.06905311478651666
303 0.8942046456344419 0.7396152855666274
304 0.16282980467369346 0.5608042445675336
305 0.18991568561200967 0.10237066170366182
306 0.44209223881304294 0.5291436207038095
307 0.9773606070789082 0.7400164796211309
308 0.34796848747829656 0.21345125496054196
309 0.3988316081407395 0.5383005198336074
310 0.1795421951107612 0.5882462637624032
311 0.7104372110423053 0.6586920467418779
312 0.6307687821973584 0.3082621110334707
313 0.8140665547748337 0.20946275958164984
314 0.26226584041654544 0.8217708172189084
315 0.5600499440979264 0.535897932859454
316 0.2878259536480102 0.8370915413866781
317 0.10625750992391536 0.8757825726992529
318 0.7207219126757428 0.4912763749935416
319 0.03676279849369979 0.34946305684117795
320 0.8860842347545804 0.650276428808278
321 0.11641050236250305 0.5121871973946057
322 0.6892677714337632 0.830187491786156
323 0.5743176523932506 0.10973978824596042
324 0.8350471953093236 0.8627168927406954
325 0.12736293157242362 0.6808641120246599
326 0.504512963104364 0.8734770836915466
327 0.33035618840762804 0.9480885530294304
328 0.7407072334853492 0.9886894480000746
329 0.3771998023460781 0.7828037785364315
330 0.4985971292674435 0.7375033099651694
331 0.23486252010628494 0.6763642031318381
332 0.23392239193921716 0.19307834699138304
333 0.056341771137292995 0.3618995954769747
334 0.5243107944908731 0.48225288306003855
335 0.7710027499200532 0.3995531485907392
336 0.8267847956604463 0.21447350045546154
337 0.9070889551408547 0.7708198981523856
338 0.9009152596323726 0.3268977225187969
339 0.842256592591011 0.37908986218748697
340 0.6720003118884341 0.7557925588151447
341 0.7758719890024242 0.42915351399408375
342 0.9360007786581527 0.8161207267349789
343 0.4173633226980108 0.34231723528879254
344 0.40590315202625316 0.7902356400548324
345 0.513849813786723 0.10095147198280963
346 0.7521850191125476 0.4423230853454888
347 0.44892517430159773 0.4790551807008303
348 0.9635506062469201 0.6935416780909917
349 0.8395575759701217 0.7605317146961199
350 0.8640279336694455 0.4434968276347092
351 0.06482401157182982 0.3141624672694152
352 0.9626482850471774 0.6569074101609242
353 0.6861804941879467 0.9623078383847459
354 0.28474469098098687 0.7131673788025169
355 0.3169893526598996 0.7248071948237234
356 0.4986362492317372 0.20763970361736095
357 0.5341943424678965 0.3634507662053851
358 0.4173599941002555 0.189400193816622
359 0.4236553128601417 0.15513606738335184
360 0.23263903285870136 0.08691136582844716
361 0.5029663821868732 0.6136648640021732
362 0.7967046845312 0.38881571146948857
363 0.09944482278398303 0.17743788544519268
364 0.826489118939881 0.9034442779481258
365 0.5188030347262285 0.3557674855099515
366 0.9717232592999542 0.09030088049765794
367 0.41160238709110153 0.9088223865430046
368 0.5776321653878734 0.6240231258113742
369 0.08875709787808284 0.9484766424705676
370 0.28366467897140923 0.5439832330136177
371 0.2514351509515631 0.7990384565598082
372 0.3895814002821074 0.9237858298229793
373 0.782286582967116 0.6954925107398952
374 0.9747846658249791 0.4118513143125312
375 0.3312389959242521 0.44727689240462554
376 0.2782814795266694 0.8056566622603097
377 0.552065145319884 0.18060236842378874
378 0.5906045375493093 0.5146526887182927
379 0.8876710325820146 0.3910727201495773
380 0.26036237309525867 0.5799998874597092
381 0.10034951237575052 0.4053456080419161
382 0.21966429016230626 0.26407464526582225
383 0.36772836017676647 0.048487772943671015
384 0.2281819663913972 0.0036229194603996095
385 0.3499511108252139 0.06407978418418492
386 0.9990218399789723 0.7433952257508576
387 0.9912826930537699 0.7004473744699403
388 0.09991800728515077 0.856217574194075
389 0.6207669819000188 0.9643427361862469
390 0.34791734695182697 0.8304416359954414
391 0.412090231707111 0.09573234827578925
392 0.9195074361831049 0.9050676600817015
393 0.45200581522560834 0.9369590683657865
394 0.9096613854796091 0.019369290671862882
395 0.699462605784444 0.9668789766044508
396 0.13342366199648026 0.8594043043593926
397 0.029578210717324027 0.7304477034953742
398 0.7600785096209307 0.10102149678942063
399 0.4634961599212284 0.5825534297955289
400 0.6195923376323897 0.9409852021745299
401 0.3676812374573655 0.630821392500259
402 0.5719142765515711 0.824659315657629
403 0.8941284833349902 0.9159054303951317
404 0.7994507153101633 0.9432682729543599
405 0.9731796128098748 0.36374870616093957
406 0.9382606427055022 0.4301000992218782
407 0.6792693335892698 0.012801132090258571
408 0.30074802990559246 0.12390071961434734
409 0.9210120114878991 0.12686159745742853
410 0.3696879342539584 0.9386280155092235
411 0.10026180138688401 0.18723557156747017
412 0.3942823923697618 0.24931368687409394
413 0.4966520006254015 0.045059306311756364
414 0.6391547552671167 0.4408452690697764
415 0.13540689641955683 0.6486548465596225
416 0.2095603422978103 0.7973854717446319
417 0.25143386161019865 0.4599290946006699
418 0.6021290570759269 0.04469821412107733
419 0.8428567530747839 0.2933764877419287
420 0.6890110912360148 0.9127202861660413
421 0.7213127158776103 0.4918711641047163
422 0.4515262717140909 0.7991119377114335
423 0.2809828009903287 0.3749113318349364
424 0.42856293414702573 0.2396429258426871
425 0.13632838389514412 0.3560188424186066
426 0.8079983101480904 0.8266080194596992
427 0.3828878328362755 0.8126618041413792
428 0.5487977500162521 0.7676706729575931
429 0.5312168941833173 0.22335896088172713
430 0.4758714599237335 0.478778960108157
431 0.26586425192576524 0.9557982900942362
432 0.2571919305659831 0.031640127213391156
433 0.5694251391622904 0.014323622542398273
434 0.16165102349979943 0.38760849608203896
435 0.7627511684402911 0.9878925475589629
436 0.36443597227710756 0.1829505921176131
437 0.5201719776473611 0.8227557848901689
438 0.2149650428545249 0.28390433990547737
439 0.8264891355080505 0.826582136459664
440 0.2510073171069527 0.5164298421236793
441 0.2507818788233602 0.8203979807389765
442 0.488199137254677 0.21415624120666632
443 0.2386719148338542 0.17448910841265153
444 0.8444565144163236 0.97494541325735
445 0.8184546135996731 0.9506939340696453
446 0.8535381124157724 0.4924159742847276
447 0.7997059783352882 0.5216440905547323
448 0.24717123638789706 0.2915575216283105
449 0.8864105544865697 0.5440310070032562
450 0.6480101236127405 0.47110454085207465
451 0.011855904005582674 0.6048505523173642
452 0.7576265592419088 0.45650163630140206
453 0.4145607297357832 0.6567157506589918
454 0.9041730904322755 0.06183393218380173
455 0.6871412895336093 0.9162581211103343
456 0.2502799089583756 0.12835911354538376
457 0.9005322259872425 0.30169103388763097
458 0.25269151339754203 0.6403179802379448
459 0.051582062476068 0.9616417454381339
460 0.6072083880698343 0.35889384225982535
461 0.65809324731801 0.47227116558987614
462 0.8046387594740113 0.7257550540615375
463 0.46119586812100566 0.8514226733701489
464 0.7108293497792763 0.05467801508394032
465 0.5853661523734803 0.4471137823075666
466 0.28190349458388986 0.17387018276835198
467 0.6241583047937359 0.374645807378418
468 0.2847536298714718 0.6927032538903171
469 0.9873148485558321 0.5369564268759387
470 0.38750977886787874 0.37145598891876375
471 0.8327016835828316 0.551779251864775
472 0.4118209988224857 0.7106426680613195
473 0.4561420622420149 0.23021750807524666
474 0.9397708786418876 0.6925692686080643
475 0.732363760890821 0.019303145364064855
476 0.2165352500897605 0.8011576819669277
477 0.6267741589165963 0.24480466760076902
478 0.9074078353716224 0.7799518657786901
479 0.3151157489664601 0.4078364362591721
480 0.002010540269285821 0.524909417722786
481 0.4075017024345706 0.22441958297673614
482 0.32351849323107296 0.7744598975921663
483 0.11262890437982453 0.7133847807077973
484 0.4654212984516676 0.548493719971773
485 0.15181114948506014 0.6982237634616517
486 0.7022796219615265 0.249724658817151
487 0.878385800274937 0.7690081042695273
488 0.6924466267171264 0.9735476601127118
489 0.07832818170359113 0.9726452082386274
490 0.643195234062424 0.2725126920354163
491 0.860050097920422 0.42976090715042836
492 0.7182106962332098 0.6676121344280915
493 0.5439622267436952 0.16169053938282918
494 0.44092167422913253 0.1399941806558227
495 0.16029300041867678 0.9247449061145319
496 0.013585352827086061 0.981869225771404
497 0.8220017874739212 0.16826277924248578
498 0.004741776711047696 0.13957873079934358
499 0.7433264559389869 0.19763411163163025
500 0.6833166232644232 0.7324058565435803
501 0.6924258671215799 0.18358176890377043
502 0.19457300426347202 0.3292109275221662
503 0.8032516884080324 0.9372379030432367
504 0.2778524861035343 0.26464624745840315
505 0.08965374334227894 0.7191548941574907
506 0.25009137004440884 0.6311788688081565
507 0.3772238745866555 0.5503363364939843
508 0.3869314416761509 0.4443620020609984
509 0.439945237689771 0.1794267492942042
510 0.39059101965826515 0.5576289215471698
511 0.39833771169643817 0.8395872045811937
512 0.8869691219395333 0.2796336329444794
513 0.2701800401232539 0.4550173911721139
514 0.9258500325675904 0.26785461050109394
515 0.014218659886398366 0.24674001329555073
516 0.34908616906040113 0.03731566626066407
517 0.19334269415111094 0.8833814841011898
518 0.2900671340414158 0.16898532510442887
519 0.5351766224454889 0.3961786642365537
520 0.8456155544616916 0.24847659325722815
521 0.06515741657708307 0.2788765819781279
522 0.5326388177031056 0.8772677353488562
523 0.7183946635270267 0.26886233793045344
524 0.9852597313604686 0.7349339963010956
525 0.15702867989151859 0.15765199760639226
526 0.8715012282664992 0.5076090108922031
527 0.8961116472282222 0.7143074526147253
528 0.20943955974723805 0.27208292121941224
529 0.012442989452558062 0.261067055885562
530 0.3344403155158916 0.743938239089783
531 0.3840549404513578 0.11253558997714785
532 0.5674187782432673 0.14642086221980877
533 0.6842616730210725 0.23965298216548825
534 0.4881805717223876 0.3286223716010065
535 0.5760864237720519 0.9372819831722374
536 0.016872072392943305 0.39855965507407587
537 0.8564688850429242 0.31147362764968867
538 0.9450871019781565 0.9040213416530672
539 0.755136372978617 0.6093012789363258
540 0.8621926937641883 0.24237690052444905
541 0.3882861662678446 0.5648623729792138
542 0.6957232477718737 0.573320280786859
543 0.35657809484996794 0.8015929705213507
544 0.8094088427146865 0.03560575997047022
545 0.4735960751289199 0.9484251442833904
546 0.6478575489146232 0.2219321379264949
547 0.7007192281377711 0.9379030177040574
548 0.6348302906951934 0.24464461246290092
549 0.1555598431257702 0.44469895585611086
550 0.5367666313913516 0.22435939938047111
551 0.20795560047460993 0.10575426004941968
552 0.892403097108668 0.4749064030618494
553 0.8800021889874817 0.012482353068061669
554 0.29024442828207975 0.6243000687537787
555 0.2685020768431149 0.32805244121997024
556 0.2527836730554984 0.7051376090097558
557 0.15462518464657893 0.04833209070040945
558 0.12326418268403683 0.8237275076080762
559 0.9942724533696735 0.8781844049867636
560 0.023559120428306102 0.9612066936574845
561 0.7756345331715186 0.6965789252640355
562 0.10574963495360434 0.4031083382705286
563 0.519038903454555 0.9119122532385515
564 0.302723373154993 0.5005037368700296
565 0.17714985963320018 0.9269958635101219
566 0.1455407673525797 0.32419648977369
567 0.24343464390396763 0.7168282421451591
568 0.5040099758004772 0.7317378549556828
569 0.4734494607794536 0.022504126223842458
570 0.026918452004729643 0.37087763308627253
571 0.8005457799023771 0.8420810434349154
572 0.2149874643613522 0.29136090715827545
573 0.7714582603108457 0.3243341155545725
574 0.9147404900887857 0.9965565384289603
575 0.5301588659997774 0.09356638749595747
576 0.23367698216566768 0.8191512925087228
577 0.9389841088666865 0.5968213053020652
578 0.26187319979602797 0.5639148431298063
579 0.8665672854208488 0.01875822124583071
580 0.8413525451652084 0.009952513057980839
581 0.6269976487937187 0.7289461118861916
582 0.6111795606299972 0.06473907726699513
583 0.27103328594013465 0.5915560743120662
584 0.5505666011548438 0.25572252185953237
585 0.9436532679632329 0.8177997203348422
586 0.5364885196877526 0.974184845777146
587 0.4303164154891661 0.6367971527881049
588 0.18655976974407928 0.6371041752864947
589 0.6547037389128229 0.19995292260375364
590 0.9616976625866556 0.044405976012962256
591 0.5494647398842605 0.8499092281400883
592 0.35439914067631917 0.8263979496938408
593 0.05722438205522751 0.31491419171175306
594 0.7904636593529575 0.6052741632714227
595 0.2671240042328302 0.26499345870228697
596 0.952113891248298 0.14119350527619956
597 0.6153340127430321 0.715390251697993
598 0.1014346961066318 0.13105536513188154
599 0.8861114423110479 0.38084642459901696
600 0.08149214387376358 0.08436321362191967
601 0.8266264022152032 0.23044586162151637
602 0.8015631007395253 0.9341103093577917
603 0.09771849065072769 0.39633382113268234
604 0.5150111451996096 0.5973641455052606
605 0.05651046524373693 0.4671575319008069
606 0.49867537835262454 0.34164431885744706
607 0.5424127718051514 0.04512763614821835
608 0.6413451540285716 0.14504054578384584
609 0.03178422980328899 0.06779286437106713
610 0.9289234352377385 0.45613380868638254
611 0.9945960456775099 0.6417312875900824
612 0.44287628634237564 0.25317536213378844
613 0.5357645887837311 0.4354989789339382
614 0.06380677432527027 0.6241166879842662
615 0.7075248083867203 0.5926308054110001
616 0.4329341292932183 0.8270217959550009
617 0.8541196907194554 0.8206233754304857
618 0.8514018385770259 0.8196180702634415
619 0.4252272279404754 0.30011895412768297
620 0.24052816960767953 0.07697909876080578
621 0.6556814370090904 0.6679301012404069
622 0.8743474059129062 0.2035025953836741
623 0.5468050725374412 0.4601811418930659
624 0.24172646338701842 0.4780175666720482
625 0.6842059338935959 0.7118580798285289
626 0.1483235007263385 0.045393058305627565
627 0.8302003783855427 0.4567492430174461
628 0.4283414818091946 0.6453635132782466
629 0.404412782783355 0.747741264507146
630 0.5866880012481323 0.38906610756911353
631 0.9757290053914016 0.806198746579277
632 0.4495994019160816 0.7396449596760762
633 0.48338387137067496 0.45695663301673306
634 0.616673047983141 0.028197319243363883
635 0.17574897730811112 0.06939867458864135
636 0.5425486141476851 0.7019578223591748
637 0.08592053870695915 0.6190583136236034
638 0.9633905722529199 0.33811248195670096
639 0.287243271129923 0.45484144628890155
640 0.7923187651116184 0.558267021016179
641 0.7847186320799368 0.7738600757923773
642 0.3457461792639215 0.4986900350729164
643 0.6060953345183765 0.8443592055333979
644 0.16629369916202108 0.261768143927957
645 0.7335010743888758 0.44547126857092967
646 0.5130424823212834 0.4378910082964659
647 0.6194288628362831 0.6567959127375727
648 0.7481376486903796 0.5773155871953697
649 0.7599481676792821 0.6015147208117039
650 0.7543072079912524 0.0803399981612547
651 0.7763314116123177 0.9776034836909294
652 0.9875451545215338 0.296488263990909
653 0.23285452291508246 0.7313442463396742
654 0.6226724860030376 0.8021125688032698
655 0.595784884601864 0.6454075032740232
656 0.013668250456275621 0.19249200269385724
657 0.5907919853008606 0.16367362553173337
658 0.33059581242400615 0.45658129448528895
659 0.6708131517024691 0.988696198930296
660 0.0677138975476268 0.9595046474036464
661 0.7405507459812323 0.8267182522480692
662 0.23048990883357812 0.8110015946710641
663 0.4808934641162781 0.07975916331972466
664 0.7327742082202819 0.5928145945131239
665 0.8334468499109465 0.3877971496494069
666 0.8933594245877623 0.0056748486712668855
667 0.5569130205134382 0.8216505005929866
668 0.33038480132327663 0.6261709453053356
669 0.6559083190412056 0.21155386352909333
670 0.6992233206601159 0.2116246949952869
671 0.8353862616461082 0.22717686632992218
672 0.12303323321781501 0.508116787267349
673 0.22328235900733717 0.4099548829386557
674 0.23829222253447702 0.03264328318485521
675 0.6640755696126707 0.1737658747384455
676 0.9658331749439708 0.3750480489376685
677 0.08210664619456809 0.8656548833330294
678 0.0715477315481986 0.5585834799062627
679 0.6307600386944117 0.29086904499370625
680 0.44869681625319513 0.775884689840022
681 0.6955637188628778 0.7735106126103966
682 0.26734574323936444 0.42327830717829085
683 0.6012708591496757 0.43864401079950655
684 0.7830517804334342 0.016765518963645976
685 0.7730543456812479 0.9196886328670897
686 0.9364279572134366 0.1624795419847942
687 0.6408571626234923 0.08420807124127971
688 0.2912831379675245 0.2855531788238167
689 0.8353687101451334 0.2220691770363582
690 0.7936054666653238 0.24980823831648435
691 0.6047488588889807 0.23008679924805764
692 0.9953013824429362 0.884111108402046
693 0.4298869906470273 0.12608135724254954
694 0.2729671573239495 0.4418481669864709
695 0.8266567729840287 0.1369567215893619
696 0.5017237638264529 0.2867381570940475
697 0.3932435759101477 0.6955272632295786
698 0.5718242659734274 0.8600367937101853
699 0.5539765689609595 0.750942139797164
700 0.5068010668052725 0.019928119208149853
701 0.9669583269927216 0.32598137686869455
702 0.8390426497188637 0.44003205445802873
703 0.39203044346601357 0.4017360404754351
704 0.12338592361643008 0.1201547150599167
705 0.9908086129369763 0.6419953205892325
706 0.21809787602275477 0.4362335150357115
707 0.649798851301027 0.447615318226922
708 0.7574084435754387 0.16424245727843845
709 0.41931105164873905 0.8388726772528543
710 0.17148337609953057 0.3745268281435348
711 0.4433056319887022 0.9980377731665994
712 0.7112719106902231 0.1922121133316098
713 0.686659420868364 0.16002386826875925
714 0.6389052795179004 0.6667734506367113
715 0.8864512191572643 0.569684427706439
716 0.7096499732915368 0.6379440510803577
717 0.11037201797587204 0.42248203838917964
718 0.7023614645135289 0.2466684409582065
719 0.012931532159818016 0.9567666986217355
720 0.9520331881964479 0.8304882546394194
721 0.03704844629703208 0.9549875180782773
722 0.14222534452876356 0.800752832622871
723 0.21759663179662736 0.22605066034630605
724 0.9176383171013311 0.9923764737652393
725 0.3007510168500863 0.8238593211302463
726 0.49871487106899237 0.43526103805393945
727 0.6004965641066867 0.10050376146245332
728 0.14424592857909302 0.13198512674441443
729 0.3137790165811144 0.7031209687317252
730 0.6390161206069906 0.07472078273011962
731 0.41668176975994686 0.3447543543030944
732 0.3396319730125482 0.8808575056187143
733 0.551761955793991 0.5890223181644589
734 0.1076026694947343 0.2649740958737593
735 0.7424058379735954 0.3224737824139633
736 0.15655918908707878 0.39780273224747087
737 0.06697450161597251 0.6167776351650431
738 0.8501818632021859 0.4456633448630597
739 0.653253339949154 0.47269872754044073
740 0.36541016330899956 0.19327339037991864
741 0.6481644966144279 0.016229528044463648
742 0.1250601437021348 0.7273073040072153
743 0.612207557015238 0.58939972590251
744 0.5196363604753156 0.15253458068262438
745 0.9855277451738157 0.44829395314069054
746 0.5608590376893117 0.6468761363748128
747 0.778901141377505 0.12054221486367911
748 0.5709576618531259 0.714608718881319
749 0.6737993394919356 0.43473456514537245
750 0.9604153314744293 0.7179540249422349
751 0.8741331510483116 0.36439540651027547
752 0.9864210792801905 0.7705838609838244
753 0.9650018118644532 0.1795422739964614
754 0.23198494247090262 0.9976619179628797
755 0.13826400180722376 0.1955477935369364
756 0.9738731359334195 0.1981032853372029
757 0.7126606348621155 0.10718285006945472
758 0.8236225738342557 0.7092695519151783
759 0.1289272630605135 0.40380237208264247
760 0.43861028376289424 0.31870562809508685
761 0.10922807473254281 0.8807756638057663
762 0.9232529387023389 0.6306674260030645
763 0.9391491818303913 0.3967100386717537
764 0.1251510621873818 0.9183016481241463
765 0.4534586635218192 0.7048634642017563
766 0.02356242437790268 0.3554721579799407
767 0.7702140093301473 0.12210008105237047
768 0.023856669195746916 0.6218136639527215
769 0.7891488664152447 0.4931002977100376
770 0.4640430000908583 0.8504662576159071
771 0.45077147906455917 0.04135865820993789
772 0.5019179819810522 0.4433230856296816
773 0.4253469183030332 0.06771683692280683
774 0.27964410942851625 0.4302709305374146
775 0.6646361603860858 0.763953230350177
776 0.4339031071545584 0.894761412073107
777 0.3824156747149572 0.8760268298426117
778 0.8377010472646607 0.9445511602240976
779 0.1370870376561829 0.6491438690027552
780 0.8984427944538388 0.337789354395136
781 0.236176977608046 0.4180295263439099
782 0.14379787395406773 0.7467497360902582
783 0.011656480611763054 0.08537569715575477
784 0.42248280857608955 0.17234233393958154
785 0.24083977740925777 0.24535555965534794
786 0.9884095141443199 0.0751994465701713
787 0.18302497258169792 0.3679601275139195
788 0.8585855567129129 0.20369523094183473
789 0.27296194111392236 0.2604920615399706
790 0.47131080119599966 0.7924746137691346
791 0.6728919343635786 0.49695027176841833
792 0.22404102810099613 0.5695641853561816
793 0.23775211905658922 0.008311328722038769
794 0.83207098653728 0.7489078937262369
795 0.16152336390552502 0.4595975848489037
796 0.975878119888767 0.33204757042807764
797 0.344104711018407 0.02400894586144775
798 0.06076239474978984 0.1652702701115919
799 0.25498139438938816 0.3402757513422714
800 0.7261960627569984 0.24517543772026684
801 0.3140347199423644 0.4295036812574905
802 0.6396497753322246 0.25828321046905545
803 0.409791248014697 0.851956507762452
804 0.5657326639349985 0.26589964258182375
805 0.5158900314139228 0.9152596259727528
806 0.7781866995076856 0.3870566913552448
807 0.7315227483191827 0.4846402083559729
808 0.4371380273987622 0.4917577449212557
809 0.646167642439385 0.12446819801408815
810 0.08637581532793304 0.1260244278274416
811 0.2547386840325655 0.4759873819512499
812 0.5673682836149637 0.6700390438010094
813 0.8294873299829024 0.00909993141386467
814 0.7971706833755019 0.16325440635458066
815 0.6704605447884479 0.190674875474242
816 0.22868360015506017 0.19364291023436786
817 0.7056715942714337 0.9352039756495922
818 0.027490244329157587 0.30189343265203894
819 0.4885206679575933 0.5591099007519079
820 0.07951378933036402 0.4661822212533804
821 0.9175507708661936 0.5160894121421725
822 0.843101453562003 0.23149176109640823
823 0.06294102804150536 0.0006714432073131604
824 0.9577659405105595 0.2985951291734388
825 0.5628584748085461 0.44244010292699043
826 0.7359866522166543 0.031556651602352104
827 0.961054039309364 0.2830361711813465
828 0.8907117671864069 0.092634881465684
829 0.3455347984282875 0.07717373506968705
830 0.5506516664888689 0.43804154220627045
831 0.8597527937602842 0.8117316440767648
832 0.6466325902571328 0.1987832855269961
833 0.8907907938191737 0.8678842061796276
834 0.16486047290458905 0.9558694269261239
835 0.862043849533831 0.10218445952423061
836 0.9667675648120674 0.45788745994262114
837 0.030638249582220167 0.8145040927563733
838 0.11375431557957805 0.7375456612244876
839 0.4779954069583583 0.27758343271401753
840 0.5181502221577735 0.45731536093332414
841 0.39477600573130334 0.2042713067962083
842 0.6737869163238768 0.016377282631644174
843 0.5180288976154221 0.3591790553121402
844 0.42392609457481967 0.25089513823814025
845 0.4812982336945065 0.8596195573100512
846 0.8906691596466134 0.5169703520919612
847 0.9995004000526855 0.11388033810484466
848 0.5312056739800246 0.45665587206568514
849 0.07469373602287965 0.21501825947479347
850 0.7041396755417128 0.9615415724326346
851 0.811662160452463 0.013404765628257098
852 0.15186861441915023 0.10763910263931775
853 0.7315371223762128 0.7348400933097374
854 0.5763554004485542 0.5639680933992579
855 0.11260943811027868 0.46103410010707535
856 0.22141498489128464 0.10299283388643177
857 0.7915084883752413 0.16999600108294544
858 0.9916228014467605 0.8783339422389381
859 0.802833947224191 0.8575996501206646
860 0.18930161184752947 0.5686968380219518
861 0.5443001626785531 0.9631502188406701
862 0.16430748244197257 0.19825594213949638
863 0.15670711077631727 0.031228956382742257
864 0.22667334736221045 0.22505102819829093
865 0.8785712981074166 0.3880019374201302
866 0.36054658401808837 0.767164674518796
867 0.7196935299958575 0.9404695004265363
868 0.612685425925716 0.011655775030910198
869 0.48565154478738104 0.01379908036511679
870 0.7153306318682305 0.10102134041105981
871 0.6805705188618449 0.41781243557299574
872 0.9234400646180467 0.37379490804997706
873 0.20669593336811043 0.5367067316607085
874 0.429500596370085 0.6413216120312167
875 0.8260425289428064 0.018977078813667503
876 0.3113584137681723 0.005684965722440927
877 0.7619378517585151 0.5159464443337564
878 0.9530954817351365 0.8284114377320048
879 0.08154258041093743 0.3498739181671755
880 0.10449916118468305 0.18555439431010734
881 0.5181049982133851 0.31224985095708824
882 0.43902886295319876 0.7711463923902676
883 0.15802711858066176 0.9784015188737312
884 0.8966084774407456 0.05309279655448096
885 0.8990687059881279 0.7101230845194167
886 0.37999539600597054 0.4751012141480304
887 0.8001314152645955 0.682355696022858
888 0.12029200423732433 0.6949941099108974
889 0.44072825411362504 0.7047080909987076
890 0.4157148446606599 0.6894855930760472
891 0.07625107638886464 0.6084988771297911
892 0.9168579000039346 0.3673779208741359
893 0.2566879341095186 0.0356206583405011
894 0.1169097578064836 0.12649348695890916
895 0.6018915977135408 0.6432837340334187
896 0.7372561788124667 0.45394174900177964
897 0.16023017849937582 0.2169224572384051
898 0.0825898261277015 0.04431136563780547
899 0.30194835765752814 0.12126614485712772
900 0.1813470258573141 0.03932781876652436
901 0.49402714159169236 0.4240752772204188
902 0.538697623615158 0.9244714405916367
903 0.3935305149938646 0.12836003396661944
904 0.9264535916677861 0.5837452278077797
905 0.7881247601379453 0.04304037310845521
906 0.8354622300165626 0.033907904128637645
907 0.6338514233205319 0.6683043506030899
908 0.671957879995024 0.4009846888902928
909 0.045624948927723064 0.41381988646440626
910 0.43897204357160025 0.6439812780061495
911 0.05623864530017442 0.7011836855607445
912 0.346739824718166 0.8946642438950225
913 0.06512855733529399 0.3459693697160008
914 0.4383318248133461 0.9212167230205422
915 0.6420420503184311 0.2994607661269695
916 0.41324122576374334 0.30047816841067754
917 0.8044069547928904 0.0589901192812996
918 0.6280617010520431 0.9137085218734871
919 0.9884292954694568 0.5621161184391091
920 0.35013755557828274 0.14081136329966681
921 0.5566900371199459 0.6443429360781803
922 0.4650468998416797 0.3695476089390275
923 0.6645632420636546 0.4750143110060777
924 0.6860154716457578 0.006431343299998726
925 0.47988710746547325 0.054156081675441614
926 0.18210526728153908 0.6000676231840725
927 0.3346497367779925 0.8562473552009359
928 0.5875411653568762 0.6258962809437668
929 0.4395426303597274 0.9747991144448105
930 0.04341699774318031 0.629680642342621
931 0.11606809334761414 0.7765161213589794
932 0.5456321387742115 0.05090546961707487
933 0.6622543956750858 0.7427050887966004
934 0.2488406737650931 0.04780293335580543
935 0.7161675533584189 0.6817264212217841
936 0.564481302145411 0.8788622854844381
937 0.9859021974507708 0.382258294437538
938 0.505538474853301 0.13067427691524525
939 0.6872826477923055 0.6919166882019048
940 0.7276430814906858 0.49956903473541425
941 0.1753511196880323 0.6869786140642697
942 0.9981391151321438 0.2336214294113249
943 0.39916101977130325 0.5217373854176627
944 0.13104624679411747 0.22616762270385682
945 0.9779761252318886 0.8693293547297025
946 0.8905193770096459 0.13677392120652498
947 0.5352692303859156 0.4846868743390855
948 0.3843124871724235 0.2464716398625879
949 0.6617813298118985 0.535291983210702
950 0.05200636574938022 0.71052786637176
951 0.6507600928984463 0.1883950765497021
952 0.9069935309435794 0.16209807967780965
953 0.2638278696215848 0.4200473146399256
954 0.24644948649135312 0.2614888319491919
955 0.5007699119597557 0.18833385751997989
956 0.5112249386169921 0.3958292732179902
957 0.8001415029552246 0.822789995144571
958 0.501854621549682 0.24100307237991014
959 0.8710576872013238 0.12519026658939625
960 0.09408542106922768 0.9903425452094003
961 0.7051029776522523 0.07739192184105703
962 0.48886861023080597 0.1993084340510799
963 0.60713081291601 0.7674329605373172
964 0.7798836109163462 0.7948665690813853
965 0.4143330412402453 0.3198277339110073
966 0.1551576991298198 0.9574595574444195
967 0.4439465464778535 0.039304199099201687
968 0.8956850768984453 0.7320480813098028
969 0.7589534044342487 0.4593485872636225
970 0.8290056566324442 0.9090059755842138
971 0.39579673890813216 0.6866417376604516
972 0.10292147890719905 0.5069188462981616
973 0.9334167720113135 0.7206497740256216
974 0.6618005812888691 0.9955914584470849
975 0.1716663374217683 0.08013641257838067
976 0.9670456291050867 0.426484334922012
977 0.6278783514421269 0.645626767930652
978 0.20876932968340767 0.4043253696426784
979 0.27640066272693276 0.9543941065939362
980 0.9218634592239836 0.8239758847048204
981 0.7601845204612443 0.9799577365464923
982 0.621581414213625 0.8060011521778783
983 0.7975741721862135 0.6569376552699355
984 0.6620971558445583 0.8408775457650657
985 0.9615424384611985 0.3836338146641767
986 0.6437818747468915 0.9917918766181775
987 0.12686301401274236 0.11213798032190925
988 0.9583659250766141 0.9699529107622386
989 0.37339509270308247 0.28429804935603686
990 0.5262723627703395 0.5481641556148834
991 0.4382222619948525 0.6729575082634153
992 0.6091771927263884 0.7157222422825396
993 0.3061202710592448 0.4658592839801845
994 0.5117021954162724 0.9315054376127628
995 0.16374301784730394 0.6441980111502528
996 0.8089344936075877 0.10200378687516021
997 0.5103008168518437 0.7563067774842065
998 0.3849305095576009 0.3075215953814949
999 0.6793551666723278 0.1710058138221242
1000 0.6583650387684141 0.6081565459961604
1001 0.017976960065248626 0.6998747265820668
DEMAND_SECTION
1 0
2 6
3 7
4 3
5 2
6 3
7 5
8 4
9 8
10 1
11 2
12 1
13 3
14 1
15 4
16 5
17 7
18 1
19 8
20 3
21 5
22 3
23 2
24 5
25 8
26 4
27 7
28 7
29 3
30 3
31 9
32 2
33 2
34 8
35 7
36 1
37 8
38 7
39 9
40 2
41 9
42 1
43 9
44 2
45 7
46 8
47 6
48 3
49 2
50 3
51 3
52 4
53 2
54 8
55 5
56 6
57 5
58 4
59 5
60 3
61 8
62 7
63 7
64 6
65 2
66 4
67 1
68 9
69 7
70 5
71 9
72 1
73 5
74 7
75 6
76 6
77 9
78 5
79 3
80 3
81 8
82 7
83 3
84 5
85 4
86 2
87 5
88 5
89 4
90 3
91 8
92 8
93 9
94 9
95 5
96 5
97 4
98 8
99 8
100 4
101 8
102 4
103 3
104 4
105 3
106 2
107 4
108 5
109 7
110 7
111 2
112 4
113 8
114 6
115 9
116 1
117 8
118 5
119 6
120 1
121 9
122 1
123 7
124 9
125 4
126 1
127 5
128 1
129 7
130 4
131 8
132 4
133 9
134 5
135 1
136 5
137 5
138 6
139 2
140 5
141 9
142 6
143 1
144 1
145 6
146 9
147 1
148 9
149 2
150 4
151 3
152 7
153 1
154 4
155 4
156 6
157 3
158 1
159 7
160 6
161 4
162 6
163 9
164 1
165 5
166 1
167 3
168 5
169 7
170 5
171 8
172 5
173 3
174 7
175 1
176 6
177 9
178 5
179 5
180 9
181 4
182 5
183 9
184 1
185 9
186 7
187 3
188 9
189 9
190 9
191 5
192 4
193 3
194 2
195 7
196 2
197 4
198 9
199 2
200 8
201 7
202 3
203 7
204 4
205 3
206 4
207 2
208 8
209 8
210 7
211 6
212 8
213 6
214 4
215 8
216 9
217 3
218 8
219 2
220 6
221 7
222 6
223 5
224 2
225 7
226 3
227 1
228 4
229 9
230 5
231 1
232 9
233 7
234 8
235 7
236 7
237 9
238 2
239 3
240 2
241 7
242 6
243 9
244 2
245 6
246 3
247 9
248 8
249 3
250 4
251 8
252 9
253 6
254 2
255 5
256 9
257 2
258 9
259 9
260 1
261 6
262 4
263 8
264 6
265 1
266 3
267 8
268 2
269 4
270 3
271 4
272 6
273 1
274 2
275 8
276 1
277 9
278 7
279 4
280 9
281 2
282 8
283 6
284 1
285 1
286 1
287 4
288 2
289 3
290 2
291 5
292 2
293 3
294 3
295 2
296 8
297 7
298 6
299 9
300 9
301 1
302 3
303 6
304 4
305 5
306 5
307 4
308 4
309 2
310 1
311 6
312 2
313 6
314 2
315 6
316 6
317 9
318 5
319 8
320 1
321 6
322 2
323 1
324 6
325 3
326 3
327 3
328 5
329 8
330 1
331 1
332 5
333 2
334 1
335 6
336 8
337 6
338 3
339 3
340 2
341 2
342 6
343 4
344 8
345 9
346 3
347 7
348 8
349 5
350 2
351 7
352 1
353 6
354 4
355 3
356 5
357 1
358 9
359 4
360 9
361 7
362 7
363 9
364 9
365 5
366 3
367 6
368 7
369 4
370 8
371 4
372 5
373 3
374 7
375 9
376 6
377 6
378 2
379 2
380 7
381 5
382 8
383 5
384 7
385 4
386 6
387 9
388 3
389 2
390 8
391 5
392 5
393 9
394 3
395 4
396 4
397 6
398 1
399 8
400 9
401 1
402 5
403 3
404 2
405 9
406 7
407 8
408 6
409 2
410 4
411 2
412 5
413 3
414 1
415 6
416 2
417 9
418 9
419 3
420 7
421 3
422 4
423 7
424 2
425 4
426 3
427 9
428 1
429 2
430 9
431 3
432 9
433 6
434 9
435 8
436 3
437 9
438 5
439 1
440 6
441 2
442 2
443 4
444 7
445 5
446 6
447 7
448 3
449 3
450 2
451 4
452 9
453 1
454 5
455 9
456 8
457 5
458 6
459 9
460 5
461 8
462 8
463 5
464 5
465 6
466 4
467 2
468 5
469 1
470 7
471 4
472 7
473 4
474 5
475 1
476 8
477 5
478 8
479 7
480 4
481 6
482 7
483 1
484 5
485 7
486 4
487 1
488 2
489 3
490 8
491 4
492 6
493 4
494 7
495 3
496 4
497 3
498 1
499 8
500 7
501 7
502 1
503 1
504 1
505 6
506 2
507 3
508 9
509 1
510 5
511 1
512 1
513 3
514 9
515 5
516 3
517 2
518 1
519 2
520 9
521 8
522 4
523 3
524 1
525 5
526 9
527 3
528 1
529 7
530 3
531 6
532 4
533 8
534 2
535 6
536 1
537 4
538 1
539 7
540 7
541 1
542 9
543 3
544 1
545 2
546 4
547 4
548 4
549 7
550 5
551 7
552 1
553 2
554 7
555 6
556 4
557 2
558 7
559 5
560 5
561 7
562 9
563 3
564 5
565 8
566 1
567 7
568 4
569 3
570 1
571 1
572 1
573 9
574 1
575 9
576 3
577 9
578 5
579 6
580 2
581 2
582 3
583 9
584 1
585 2
586 6
587 8
588 3
589 3
590 3
591 6
592 2
593 5
594 5
595 5
596 3
597 5
598 1
599 1
600 7
601 4
602 5
603 9
604 1
605 2
606 9
607 2
608 1
609 9
610 5
611 8
612 1
613 6
614 1
615 9
616 6
617 3
618 4
619 4
620 9
621 1
622 8
623 5
624 4
625 6
626 6
627 5
628 4
629 2
630 1
631 4
632 8
633 6
634 9
635 7
636 5
637 4
638 2
639 6
640 1
641 7
642 4
643 7
644 5
645 2
646 5
647 7
648 4
649 6
650 1
651 4
652 9
653 3
654 1
655 7
656 7
657 6
658 2
659 9
660 6
661 7
662 2
663 2
664 4
665 9
666 8
667 8
668 6
669 1
670 3
671 8
672 2
673 6
674 4
675 2
676 6
677 6
678 7
679 7
680 3
681 4
682 8
683 9
684 8
685 1
686 5
687 6
688 8
689 1
690 6
691 7
692 8
693 2
694 4
695 7
696 2
697 1
698 8
699 2
700 9
701 2
702 1
703 7
704 9
705 5
706 6
707 6
708 6
709 6
710 7
711 1
712 1
713 5
714 8
715 3
716 5
717 1
718 7
719 9
720 1
721 9
722 3
723 7
724 5
725 3
726 4
727 3
728 8
729 9
730 5
731 3
732 5
733 2
734 7
735 4
736 3
737 2
738 4
739 3
740 3
741 1
742 6
743 9
744 3
745 1
746 8
747 8
748 3
749 8
750 9
751 9
752 6
753 9
754 9
755 3
756 9
757 8
758 9
759 6
760 2
761 9
762 3
763 8
764 5
765 9
766 8
767 4
768 6
769 1
770 3
771 4
772 9
773 4
774 5
775 8
776 4
777 4
778 5
779 1
780 3
781 2
782 4
783 4
784 6
785 3
786 3
787 2
788 4
789 4
790 7
791 1
792 4
793 5
794 3
795 6
796 1
797 6
798 6
799 9
800 7
801 6
802 3
803 4
804 6
805 1
806 3
807 5
808 2
809 9
810 2
811 6
812 6
813 1
814 4
815 1
816 9
817 2
818 8
819 5
820 3
821 7
822 7
823 7
824 1
825 7
826 3
827 1
828 9
829 8
830 4
831 6
832 9
833 7
834 6
835 8
836 8
837 1
838 2
839 6
840 5
841 5
842 6
843 3
844 3
845 6
846 6
847 8
848 1
849 9
850 5
851 9
852 3
853 8
854 9
855 1
856 1
857 1
858 5
859 6
860 1
861 3
862 4
863 9
864 6
865 8
866 5
867 9
868 3
869 7
870 5
871 2
872 8
873 1
874 6
875 6
876 4
877 9
878 4
879 8
880 9
881 2
882 7
883 1
884 3
885 6
886 6
887 2
888 8
889 8
890 8
891 6
892 5
893 7
894 4
895 9
896 3
897 3
898 5
899 6
900 1
901 3
902 2
903 4
904 4
905 3
906 7
907 4
908 6
909 1
910 5
911 6
912 3
913 7
914 6
915 2
916 8
917 6
918 4
919 9
920 4
921 3
922 8
923 4
924 1
925 4
926 3
927 4
928 6
929 5
930 7
931 2
932 6
933 3
934 7
935 9
936 9
937 9
938 7
939 6
940 3
941 3
942 3
943 3
944 3
945 1
946 9
947 1
948 2
949 8
950 1
951 6
952 6
953 8
954 5
955 2
956 8
957 9
958 3
959 5
960 4
961 3
962 5
963 6
964 7
965 6
966 6
967 3
968 3
969 9
970 3
971 9
972 6
973 4
974 8
975 7
976 8
977 7
978 1
979 9
980 3
981 6
982 7
983 2
984 5
985 6
986 8
987 6
988 2
989 4
990 5
991 2
992 8
993 7
994 2
995 3
996 4
997 9
998 1
999 3
1000 7
1001 2
DEPOT_SECTION
1
-1
EOF
