NAME : gen1000_001
COMMENT : uniform customers, demands 1..9, generated by bench/make_tuning_set.py
TYPE : CVRP
DIMENSION : 1001
EDGE_WEIGHT_TYPE : EUC_2D
CAPACITY : 200
NODE_COORD_SECTION
1 0.2244292905700882 0.7073727993572807
2 0.09494948663782066 0.9642853109961409
3 0.5713733269665306 0.7159185383016853
4 0.09480070953145858 0.02085910629830956
5 0.38547010375903823 0.3627196802959394
6 0.06893025311808798 0.639118320841043
7 0.3482665931945885 0.5454020498997711
8 0.28075497658723614 0.6474673997068537
9 0.7730512303520077 0.02089239056536396
10 0.7964396766574542 0.5932782017981862
11 0.4300174757603954 0.3691255650023403
12 0.6777639462043445 0.9065297170279935
13 0.4908121971061108 0.5784379876145643
14 0.2233402783343681 0.8309102770783283
15 0.2679865209353862 0.5779364436925774
16 0.8330590105261562 0.8720427571980751
17 0.31416047879389 0.8817384535791263
18 0.32559165659331135 0.6709919613208597
19 0.4590855098943226 0.6528336660570905
20 0.17187887038619842 0.34311902990234344
21 0.2662929881702243 0.016378802028335193
22 0.5501241021210819 0.6130412924432482
23 0.8875914368643714 0.9982070391081822
24 0.03698932241760089 0.5252158911379259
25 0.4564419115309192 0.0787374813979207
26 0.5916330203053544 0.7483213525964943
27 0.3175148726161632 0.05420474142583165
28 0.1646391591754499 0.4428140759958964
29 0.8968732598702585 0.4988222363370113
30 0.7983963694898983 0.3694787461637128
31 0.9930447538110009 0.7855853041012452
32 0.9952546556010177 0.2033355261320522
33 0.07295734971235524 0.474661705519289
34 0.89132529556557 0.31723148022391534
35 0.003349040489537436 0.759096926510267
36 0.18912359301132042 0.43911517223624863
37 0.12052271465279285 0.3984425281132662
38 0.012399268414128084 0.8549027706349079
39 0.16725610662496515 0.5752660652889867
40 0.676689286002814 0.7756537361391647
41 0.42535436476810085 0.5048942311646024
42 0.7081791435601225 0.5391299555555962
43 0.6707320794181738 0.4746684946304396
44 0.700392159498784 0.1427614728913733
45 0.546185467856869 0.4127453340333338
46 0.5056005827932291 0.8675705530233292
47 0.08483830677876181 0.7901617683376212
48 0.6837063873265594 0.5115879350281458
49 0.38202589793775277 0.9257121768183232
50 0.9602187596190651 0.5126424692116328
51 0.7682044282730062 0.9132463053969474
52 0.3463316029666096 0.3857875996489374
53 0.40180027869430257 0.40014659411814724
54 0.43825722239758136 0.524828323546875
55 0.9035180039164906 0.4089681792789974
56 0.3142377252703743 0.8408242324529441
57 0.04899980461693221 0.489371275639947
58 0.5123625318886832 0.9098944484483603
59 0.3491055868945312 0.13833145141444836
60 0.9315386237326734 0.9123049388623148
61 0.6211797175824763 0.6574745351160908
62 0.12908281215249862 0.6226676867518144
63 0.5332034836957562 0.4116975454331713
64 0.005279767604538743 0.07330428756601626
65 0.2578036407939732 0.2698037096647702
66 0.5118758514588824 0.12707511715248465
67 0.6233505252424653 0.030450365218645525
68 0.2122941282199513 0.6875855932176853
69 0.9718551047356796 0.0115696488724093
70 0.9998299521089535 0.5932765684012368
71 0.6124109774173645 0.2131845291567699
72 0.8517325364509363 0.8817941390423893
73 0.7968319242256423 0.7660774330157513
74 0.9975986184400598 0.16983470159440317
75 0.38491395354371705 0.4200312309073929
76 0.6294807306643384 0.8676380273612273
77 0.581311319924504 0.3286722666992763
78 0.8435030754783018 0.52571458464391
79 0.8769086317489021 0.09601495463584908
80 0.44470406836102805 0.14925486213210704
81 0.837729436672313 0.9284686350081688
82 0.5942861510002004 0.607780741267305
83 0.6653094020930346 0.9226355575708247
84 0.7324414439474625 0.016655810443601426
85 0.6313178183380839 0.15234634277708148
86 0.31668391008102337 0.26558652333582766
87 0.7593954278106876 0.7596981622777952
88 0.19373987472338972 0.37009836965365595
89 0.1405449003894248 0.6727198110126318
90 0.7341046173249169 0.5294061481842487
91 0.14490526690915173 0.23887575651754644
92 0.7955048990996941 0.1016547824134193
93 0.6594835798054443 0.8996074389430512
94 0.6758941942943606 0.2942773697619485
95 0.0014873379781535911 0.6011807167117057
96 0.813129547542437 0.5576623643307902
97 0.4658974533063166 0.9833965571244203
98 0.891727865633607 0.10826424216024733
99 0.6736707038771187 0.4079013228209767
100 0.6149486726178104 0.19023884576118388
101 0.7241196679443256 0.3245769709380677
102 0.640935435493259 0.7470903409069694
103 0.03518906097333896 0.3768555533500546
104 0.09862134795015987 0.42076758104269985
105 0.8790219670679209 0.907093653017505
106 0.6620873560250279 0.1663815348130735
107 0.5634863513318231 0.22414205353807948
108 0.05822580791363963 0.6177361118994094
109 0.7410851285009393 0.5898531437962402
110 0.7509254462855651 0.9555623498246895
111 0.6851597684632258 0.8962739284140113
112 0.17943415687787867 0.33534326392779157
113 0.7504445782373869 0.5016193417411148
114 0.40961158252715646 0.7062875372730775
115 0.07403217573867671 0.5128376260022048
116 0.0019123641374142464 0.028219126926266158
117 0.7525052268128006 0.7237589124170057
118 0.499499672226669 0.5117142559386003
119 0.38414790471571514 0.36928413955511563
120 0.860229180376423 0.6835166036372738
121 0.8369436211980689 0.6437506958726312
122 0.6287725079543609 0.9075512466318316
123 0.9425273417336899 0.08716035632170971
124 0.4280421059449021 0.09014546160916914
125 0.4660758549446752 0.37902432497102534
126 0.9354188569950164 0.738714176043459
127 0.6273017310123364 0.9870979647309293
128 0.31092244741928454 0.01288337474546064
129 0.46813853362060287 0.6803440971403782
130 0.48671901180915145 0.7135014824519312
131 0.4701580418833682 0.7182638341779005
132 0.10556142207535024 0.4509341942719587
133 0.278879495164321 0.6781417721164151
134 0.13335901274427142 0.3146378910160107
135 0.8861133254212116 0.8405341019998414
136 0.7132580496379011 0.34847484826002106
137 0.5443391952836344 0.1937303362957613
138 0.17203060314317065 0.09725956997865903
139 0.4975965572329015 0.8366212299653689
140 0.43479285219704844 0.9089868330147897
141 0.09750170824265803 0.5617751027172248
142 0.09836103783635552 0.36787129531258833
143 0.48226594929183486 0.31970713659656025
144 0.898426340783077 0.3355214589814185
145 0.6190802263605182 0.8439745518715138
146 0.596885123477675 0.8632524484336801
147 0.8872058416288613 0.5727473181338164
148 0.006783664120625699 0.388650024077145
149 0.7910637507840138 0.17840976486039006
150 0.3903783969673803 0.25078928655537924
151 0.0817672348954499 0.8872569966688141
152 0.8760231400790651 0.10854275493281995
153 0.6533482470697203 0.2088202512393177
154 0.926367913346937 0.5308737419796693
155 0.8457439833506841 0.5968503863943465
156 0.016465924370600238 0.7708531508649593
157 0.4983540915172029 0.06331712161300418
158 0.7680071675462079 0.7506157654241511
159 0.9123009583805798 0.16158703307600775
160 0.9104584657668944 0.7269354576574097
161 0.014290931367993642 0.19440166853080587
162 0.5694110425161966 0.7967608544563662
163 0.8362837974230232 0.19325691329325767
164 0.5594533327028436 0.5273598263746879
165 0.23575236587104698 0.6879011810905179
166 0.44664791153786654 0.7361454461131477
167 0.8861047374158668 0.0843443767655554
168 0.776996995843177 0.20441139887301485
169 0.03157339054260189 0.8161982752115876
170 0.9436616679647284 0.00018675539091417281
171 0.563066149018614 0.22460303674745175
172 0.07261137565243236 0.7713503309540533
173 0.8491460592256802 0.31435013177628235
174 0.9861881771719154 0.4681031981509123
175 0.37533754747125636 0.0506267428992746
176 0.683530883307412 0.5944053255934684
177 0.5679445272789808 0.4777662047489102
178 0.49835566272355336 0.16076167686245824
179 0.49566841446067 0.8349352660594476
180 0.5650929477363948 0.4739182789907129
181 0.8646919885829243 0.7251610407077433
182 0.13935142206198115 0.4669199275064394
183 0.5800896734328944 0.7092839248818025
184 0.7122449251514437 0.21456908962009735
185 0.9135089225798774 0.9492639443667429
186 0.5370250316825488 0.45286770881587624
187 0.17950200400064198 0.16229038770216664
188 0.7324374259285992 0.8908944957254875
189 0.870437967601379 0.9868817399691041
190 0.6134343909775971 0.8390801919964161
191 0.5501159223427623 0.7245147276388305
192 0.47891108563491014 0.13619934117825694
193 0.8146612977211112 0.574231035222932
194 0.47926567923034513 0.9005785730384926
195 0.9180937099242551 0.83083071981613
196 0.047369949381662724 0.4335205660742011
197 0.1684068029856125 0.2372128505100478
198 0.42497944981323943 0.04191364776947193
199 0.3240978715464444 0.784731666814818
200 0.7816684158890095 0.5110989006686363
201 0.4329821164520504 0.9050520843850102
202 0.9200167697122338 0.24728286774914265
203 0.03969535867551832 0.4389877736967289
204 0.6430950698874436 0.2753700017901537
205 0.44183946497340276 0.13043269208867692
206 0.975651801839437 0.21054746417555048
207 0.6992052474936516 0.7175890993973272
208 0.023493508413411246 0.5959853611529484
209 0.2845654460334709 0.5207246897436795
210 0.5000697415303774 0.24660981996482645
211 0.5774099934730874 0.25781964332438956
212 0.8636509973908161 0.15081359171157238
213 0.22494834507528605 0.5389040969477555
214 0.41200073677135973 0.6771545468292592
215 0.17522521950913506 0.6179305718475673
216 0.6390305977143538 0.6328561821874213
217 0.6104493702904742 0.6944969419689391
218 0.7835803437067839 0.7653123316106055
219 0.33201082313231844 0.4260328957037408
220 0.6106463741308624 0.3678498659173054
221 0.518775444120204 0.9503244061781391
222 0.04958135699581245 0.7367549861052428
223 0.7889310531930523 0.9886421737006217
224 0.26243999927896466 0.26736304346663364
225 0.5559244285926487 0.4348702592936722
226 0.1779245451412892 0.3652133350783159
227 0.41742424240425857 0.8646035712331399
228 0.2131295960888735 0.9780830738565972
229 0.27353517342322464 0.9677190029292927
230 0.6435421845819735 0.6805734855298686
231 0.5461743563105822 0.6607780085223878
232 0.7993747071133749 0.0687972916946814
233 0.34489307012170933 0.21783739408137237
234 0.165534174554545 0.7899037307820245
235 0.8218698259364873 0.6884066953155564
236 0.9437619063750525 0.1359150675147761
237 0.0843558097509568 0.9507907900389699
238 0.9219875125952244 0.7232619903455996
239 0.6762241322678005 0.24451596748332105
240 0.9712693369503039 0.7864855139565059
241 0.2481728420098661 0.5296875433272172
242 0.37576694509843167 0.7780138859826796
243 0.2865820201436987 0.8537535119226147
244 0.966430438185603 0.8272177230581366
245 0.45401029460860143 0.2646042904945394
246 0.8813368107483248 0.3692793568040913
247 0.036558943643465236 0.13887225252902557
248 0.9125579029601226 0.013512642001290431
249 0.9171889761743905 0.7488204380120513
250 0.48104165361698425 0.8220798837719675
251 0.79357010055369 0.43501346854646017
252 0.9412138950175045 0.10703949497647969
253 0.7698010004282829 0.1042021725167106
254 0.6448728605884787 0.6232026296316641
255 0.452598626894983 0.35163264222043733
256 0.33669250340657486 0.03823200725222564
257 0.3825078275692845 0.3630462179383387
258 0.7061168697008812 0.7587704927150312
259 0.4900083501021154 0.3115483477179405
260 0.4660769378752705 0.6316071419055591
261 0.5173732232206718 0.12772291443691253
262 0.12198837182851652 0.3249851503951472
263 0.6573984679838065 0.9067860427378285
264 0.4253685909579842 0.465699772947588
265 0.8680032348702539 0.983810984247878
266 0.5579550233539474 0.5542794447499243
267 0.44047088771091125 0.23153796461166964
268 0.9228088420585158 0.4913375724956657
269 0.488847272418246 0.7774551670526545
270 0.6393394063495202 0.6728826795562678
271 0.2894626736582745 0.947516193759752
272 0.013292589486720074 0.7436274420505639
273 0.12409197612558731 0.8547298140126904
274 0.5324775842256114 0.10777403691478626
275 0.0006789230474167907 0.48850393275266735
276 0.2601109837777592 0.22730114764389575
277 0.5527538779852447 0.3898171244991874
278 0.9778901001442448 0.07227211233838904
279 0.6385307351920381 0.9927068653823383
280 0.9533827988612172 0.6043426247049722
281 0.5959193685373908 0.24806023232253605
282 0.10487292093657807 0.47239358135625553
283 0.07578180026206705 0.5349818563610163
284 0.2848652101115551 0.6992511485944436
285 0.966792783663035 0.3051473259141201
286 0.949806495335039 0.09113851638381776
287 0.590150894713445 0.3675642790519903
288 0.7540220944069059 0.7616375695667162
289 0.3456643400558197 0.6089961101577814
290 0.5132349698376302 0.04707795674636639
291 0.1599223282550627 0.398929518334596
292 0.7714501305547963 0.16247130050421377
293 0.7975624738790602 0.9373765975408911
294 0.5640159360643449 0.28959814155095465
295 0.3257157966747738 0.6619080115422921
296 0.3028566967100961 0.678159257538652
297 0.6400589392400452 0.37122803384484304
298 0.18952405676504236 0.35888865835668404
299 0.500202597811845 0.2693195625003625
300 0.2898889083345153 0.8195315780556447
301 0.14372938559569215 0.5649168422620298
302 0.9051250465739036 0.6134056824771861
303 0.1913520936368317 0.7453832798523891
304 0.8039777395873455 0.4706127980807848
305 0.36371352890472275 0.9244948136581665
306 0.7754070041811021 0.1815486696970664
307 0.12038368488887918 0.4968454041459932
308 0.8474615286603417 0.38285252680927706
309 0.4653613214222885 0.167081792155094
310 0.05844938953108625 0.4064138295701638
311 0.3962766372600114 0.8156727370571636
312 0.4030208020140157 0.9492474898214567
313 0.233538025002609 0.40455286263038015
314 0.6653864723264996 0.2975793094588175
315 0.711065791534704 0.20929618501471503
316 0.48944127868471665 0.6587957021355286
317 0.785066917462062 0.6789731235077924
318 0.8431746167426417 0.3356239805851573
319 0.6104700547934909 0.6353037105733385
320 0.4803198569928976 0.015581966689873106
321 0.5772393530491715 0.8005840095148988
322 0.930335292013834 0.6011006458927969
323 0.9266040135619239 0.5499754143574828
324 0.6502132843498654 0.0991650451118895
325 0.3101898948761146 0.3098892061534235
326 0.28368576871243345 0.37308066419144836
327 0.5090166583391885 0.9507059571203926
328 0.7761711978142631 0.9303235633023487
329 0.18852757632558637 0.3579801011512216
330 0.3303329871059043 0.7877161501199127
331 0.8649432929798051 0.2717470344255646
332 0.4454508747770942 0.052529198214630535
333 0.2670438722682176 0.2375854393205068
334 0.2691842075266365 0.4554341780933241
335 0.9624670814013675 0.3154813249218952
336 0.3798594841460835 0.1693505654396068
337 0.4828193261062108 0.29509850678746263
338 0.5318480979262535 0.7159007241905465
339 0.3454811024376455 0.7555083163953303
340 0.4111134215481774 0.4717506112928457
341 0.07730760144197857 0.3726252078736929
342 0.11627302037085474 0.28490922071578484
343 0.9303557747125316 0.09074892838392534
344 0.8073526627010631 0.2671435467609291
345 0.2634304058271486 0.6685240586844475
346 0.12037313096385016 0.15241601159242668
347 0.7814304025388827 0.04243135520756447
348 0.14490729880665143 0.9459221777318673
349 0.5482781864524767 0.7740396411143454
350 0.6956666625993636 0.8373732478610734
351 0.4271711574047843 0.00965868872842135
352 0.6959447409734213 0.08581430993825101
353 0.3593835026738985 0.46902124450798377
354 0.9463672412017358 0.7644066100308063
355 0.45317313525549585 0.08430656802127001
356 0.12351136025272313 0.3612171418816418
357 0.6289331908649167 0.08090902517152576
358 0.49780492268848675 0.12034766323341328
359 0.3023625259993299 0.9997509557074571
360 0.6181386593875121 0.264442506131198
361 0.8498355780803496 0.6138599555582284
362 0.3279184938756994 0.5821544288682116
363 0.3643864297140733 0.6701792343793083
364 0.3205457509832669 0.5752916871767653
365 0.7046358262305703 0.1058072342092451
366 0.18333402278472777 0.0667301153613723
367 0.7904729058546088 0.09843699479748336
368 0.4274098481043561 0.14386955995181117
369 0.5973435588804014 0.2019929367023473
370 0.2059304628003913 0.42942472051400415
371 0.9372602757362457 0.4652706654615478
372 0.4000968025099604 0.5831400531744019
373 0.1512227562015107 0.36811917651715975
374 0.6223981693530991 0.9113302717682913
375 0.4265057525056146 0.711611296985387
376 0.3440095072846202 0.028291846076307747
377 0.9559312082747579 0.07892363531047109
378 0.7396104734540633 0.14765909880272
379 0.2828010975163785 0.3271288160578947
380 0.5608951891143948 0.8580781002354453
381 0.14424296340294884 0.2727760352565002
382 0.8992974192168298 0.3465281407750105
383 0.8996757610311642 0.9758226205458003
384 0.05478784170539985 0.5479125127276646
385 0.6929640712036141 0.9427542322036859
386 0.10555382608336072 0.08712590325123859
387 0.9790553324369937 0.016911348054076458
388 0.578103064430105 0.6085497546085125
389 0.03294088984628463 0.1878983141736873
390 0.4951142083326511 0.5851737029243456
391 0.0865711088032306 0.5336698284122532
392 0.18001584829200723 0.023308350374037667
393 0.036569168246968764 0.0953691537552539
394 0.9903601573730956 0.1426688841304523
395 0.7869176614430623 0.08637354308060119
396 0.02111000402868768 0.17767081906686977
397 0.36916904920837734 0.7564096683448045
398 0.2575564436602529 0.02322302101291096
399 0.9182463324353128 0.8564667212745808
400 0.5867908205629394 0.3262831161698314
401 0.8735478191730076 0.521274657364544
402 0.9613427668922041 0.4122754490185293
403 0.6821404833595511 0.2958016846910335
404 0.45365333059573687 0.5293392578803164
405 0.2669655857599389 0.07072837084164396
406 0.13152384518696913 0.21314734422911785
407 0.4267314257743079 0.38521878193508885
408 0.8416176785754195 0.3792152295518797
409 0.05383525455910243 0.46137319547090394
410 0.12845468869857612 0.1290165707502816
411 0.14757113043664483 0.23480176692574894
412 0.6398000093003805 0.5074517868080303
413 0.9170754430914375 0.07338059061277635
414 0.6894766903395065 0.16603527170992438
415 0.044859480408189545 0.9568297456888868
416 0.7297798056843229 0.06980852756048084
417 0.8653015998579262 0.05339268302918787
418 0.8501640172004935 0.1771652666545498
419 0.0449817117131055 0.6356377798458518
420 0.2913261907083087 0.7715045323441637
421 0.07179421099095173 0.45850498847773735
422 0.9337223069836356 0.09805453907342832
423 0.4947001906172891 0.062318279082150374
424 0.7048522885244703 0.6139050224360305
425 0.377352582846349 0.8479823285097579
426 0.20709097677253763 0.6960991564685483
427 0.24827676758179673 0.18162565639214467
428 0.27835973989179896 0.13648201415685934
429 0.4918071985985234 0.2761170980939778
430 0.6450450398810449 0.6991921691260952
431 0.401597048405416 0.3426994889983802
432 0.6946789242006742 0.9758509168859617
433 0.07056391738945955 0.7501610292306956
434 0.7642178755388661 0.6712019026574216
435 0.6647001669216761 0.6133160971864375
436 0.46110861050026475 0.4019365669894823
437 0.31106871688786275 0.11550860469083102
438 0.2063921981849447 0.6870292534060967
439 0.673756748644176 0.058491266772745854
440 0.758734128249802 0.3368446100944952
441 0.1619118194222543 0.18473984563372703
442 0.804157897965545 0.45625302002194235
443 0.7950793242034688 0.5915329249642076
444 0.9832685554044759 0.132639045711183
445 0.5272911986425927 0.2685917570271775
446 0.9018300602451353 0.8759808809923791
447 0.783575236954319 0.6386151354822802
448 0.07729800519182406 0.5103742172336682
449 0.2527124290721001 0.0018353603092651216
450 0.5787426861624738 0.08774059916128496
451 0.8579165567881956 0.9017473804880414
452 0.3844809475194144 0.821707622268826
453 0.1685607550542506 0.8414828481228915
454 0.0049723431243999805 0.06859160441759826
455 0.8305806077790439 0.4172486133342911
456 0.4646985826323282 0.2324952515765677
457 0.9237538123378483 0.31334694248652983
458 0.8513363265477324 0.5238808091623174
459 0.8338919935668084 0.6157482138212181
460 0.49694325027978137 0.37968389035441497
461 0.2729599269192916 0.1988015024984242
462 0.3870512347100391 0.6019371654148622
463 0.5380236122690178 0.6186215492416548
464 0.6437207183295858 0.8291205479785299
465 0.32773662679589854 0.7824325315809708
466 0.9856921103543889 0.3901403553557856
467 0.4389141044860694 0.9984736430955232
468 0.5938362726207618 0.238050827222698
469 0.011221821062038617 0.49826771058932107
470 0.6444032066160333 0.091316936675504
471 0.9315124580994207 0.8432185753515946
472 0.2271176212829097 0.7500421520260565
473 0.7059225547909321 0.3070690127938993
474 0.4403307725774168 0.5038924013539281
475 0.03968712054658452 0.09409857231604601
476 0.16667302492387848 0.10660553441356235
477 0.053378821825249334 0.44922058819310073
478 0.8299600199493985 0.5665506030383989
479 0.41488726230647865 0.26916665398649586
480 0.3751057022119151 0.9251802611799369
481 0.3487713877999806 0.5728651831932695
482 0.8466896544563424 0.23929824959791957
483 0.8447824807128329 0.9138675597585613
484 0.2233033557876375 0.8319446979040586
485 0.7672334419839428 0.30028851057638317
486 0.002305933622075873 0.8777130593159899
487 0.031199474938743865 0.16772128621812166
488 0.7171887321320051 0.48943481184378357
489 0.6658130945865984 0.729541516148721
490 0.14533659541749022 0.9000209705324955
491 0.7881494972006177 0.9898501116781608
492 0.3003930789433522 0.6083658664906338
493 0.5278725023872478 0.5544285869588553
494 0.6854439400078791 0.6024775122547631
495 0.2947158312550541 0.2897443356059868
496 0.47223645234894884 0.7425334692060296
497 0.9659044603349196 0.4036039435598394
498 0.7907359215547274 0.3772177195438764
499 0.03123936919795578 0.32492695544316275
500 0.9247204577017945 0.6604928197580182
501 0.14643606709123325 0.041014758728267764
502 0.034802443623767165 0.04298497737379536
503 0.6967102111004241 0.5452449265592443
504 0.2841111861437494 0.6198605489278977
505 0.11499581942429227 0.7790506154223829
506 0.194088731455481 0.4707410036766171
507 0.5483344621952292 0.18024820082028614
508 0.5388053807889053 0.6187576289871047
509 0.7270436998502428 0.3529754579573864
510 0.6049089952911018 0.5334445758590907
511 0.7209918079302722 0.8790335300436759
512 0.11237905955744032 0.3296249650353541
513 0.8475974263091999 0.2803382253308946
514 0.40613030616490187 0.575325618734106
515 0.5736198427731358 0.303165612360039
516 0.6046351019098928 0.2680794540668229
517 0.1991169891705291 0.5316280301237649
518 0.5661257862185335 0.3300778841444153
519 0.49321409539759464 0.36423307815071093
520 0.6073671352011528 0.4642417652632679
521 0.33645780439808026 0.04491706319253963
522 0.5516212723472738 0.7216709733940734
523 0.3608234409559593 0.6120742410519129
524 0.7695292941609722 0.7832849966003607
525 0.42066351979075267 0.42578804020242944
526 0.7484660635374645 0.49889787123251017
527 0.885252559180316 0.3932989708902075
528 0.8150163344126788 0.5262773681499506
529 0.0802457868204155 0.37017564502184963
530 0.20284057713929193 0.9535523977708563
531 0.39996087967224636 0.4228367265372548
532 0.8796757210551687 0.9138597409351922
533 0.7288656970675016 0.35942424015022334
534 0.7065100979848649 0.17889665199340532
535 0.8593031641311555 0.9440863521660796
536 0.5341666890895748 0.7617803830245811
537 0.5319325393046332 0.7097239773132029
538 0.7116480884591818 0.8617642063345461
539 0.5711183863054533 0.05351097624327039
540 0.11545727868529077 0.22723143841605176
541 0.15138419476404485 0.28777483691247796
542 0.6454580587942184 0.6194731087792356
543 0.7357769429607923 0.8994123621429232
544 0.9835042011473648 0.03683201094863331
545 0.2952784480291939 0.11333336787528925
546 0.5289557705216726 0.7661185823236998
547 0.9434954484719669 0.6357824977736084
548 0.148438941113466 0.8541754907201737
549 0.9810142823879748 0.17747900601384414
550 0.46051638550865415 0.17627134019011304
551 0.9574605595082204 0.7864653027113688
552 0.6202245298555981 0.570571511656423
553 0.6533882571041344 0.9686507150703326
554 0.2230037274782739 0.48214976674358834
555 0.07913329942750824 0.7805139794049382
556 0.37603791999468184 0.29827241494208234
557 0.6024182232807442 0.11128281977078969
558 0.2962216227051644 0.1277844163390882
559 0.6446790500992324 0.7382350190864495
560 0.4492584309777984 0.3167010445030397
561 0.273141175742063 0.02109179249884119
562 0.5767750008155662 0.8760971028873638
563 0.5108300601816492 0.496612018261295
564 0.9940607452531443 0.5021991320416841
565 0.8151037247180837 0.9367367414424497
566 0.6597617672358791 0.6714857254317916
567 0.404695344141771 0.663189459347247
568 0.9744323564282116 0.7678089137366618
569 0.8090885456613893 0.0025334775047562985
570 0.0584598991019023 0.2984591821058121
571 0.7196190630972917 0.18359992579480833
572 0.20119198256461357 0.8652020387589425
573 0.3641435439531302 0.18479195343263877
574 0.06227137844731567 0.3197289037347233
575 0.9165854359512716 0.7863286768825279
576 0.9350755883206835 0.8647031140507755
577 0.5128256421247253 0.33939492405807326
578 0.08936531390174574 0.5236612084101725
579 0.6018424105549964 0.1991649918137226
580 0.6237473855731995 0.9034615274902206
581 0.4746093090442167 0.9116012682632566
582 0.8217625847533382 0.868063814680324
583 0.7588411367084307 0.03948814856259897
584 0.11124246768771273 0.29564319278481554
585 0.15414019645047583 0.41124687704842977
586 0.5447899502543111 0.2948663482310928
587 0.2672852128661297 0.6063585766796884
588 0.6512493200799613 0.19601107532788464
589 0.11438422489699451 0.0316034430955775
590 0.6845739748427796 0.1263084379221856
591 0.6146990295856822 0.0358933395769051
592 0.19535187389573871 0.5445136054416454
593 0.06313241180504114 0.3857217017675353
594 0.9889702791801606 0.49144104339135386
595 0.26030195038799575 0.6822738267151633
596 0.7023036002369399 0.048695646606582876
597 0.12673193936981997 0.9476500158359296
598 0.3364956310455647 0.32019573951191593
599 0.6677332077565389 0.9138797337260728
600 0.31664619198200206 0.3298010355343576
601 0.3814674532566805 0.13833269225280043
602 0.2334476899718696 0.26856230441954154
603 0.8548198971789668 0.3788291455613899
604 0.22459401914170674 0.5510091823878223
605 0.27311825915444843 0.12265360464431552
606 0.7774451777866309 0.4148084610549444
607 0.16938567941872795 0.7555632615071215
608 0.1397670672332837 0.8898408287654996
609 0.7485608149395302 0.04971374372846504
610 0.13417281826743788 0.4763306651497652
611 0.6682865881435143 0.5584971623939685
612 0.3406689927783202 0.5973577539301979
613 0.3265979354579376 0.34644998918222847
614 0.33897493582791605 0.8920837347305337
615 0.34824868528741004 0.40455108280742913
616 0.9536955255047261 0.8820362361885906
617 0.11911854501214247 0.4611830847093241
618 0.5998239075288955 0.15945017037096654
619 0.11182222684261611 0.8136506551155241
620 0.7493889376328392 0.245416894471305
621 0.9943088474152489 0.5856789809504311
622 0.0014400944341201871 0.8313875248318084
623 0.489692761781808 0.519547695073911
624 0.9254123383567996 0.8542318033206993
625 0.2081878604663424 0.3184048141516109
626 0.6901089257399123 0.5696220849507003
627 0.8981583191870225 0.4434144000656576
628 0.6643004720609815 0.8356448562069484
629 0.8546068032290844 0.6471656434167835
630 0.20202374496543551 0.23744909930719427
631 0.41513111346241693 0.38747106446698176
632 0.7033565405083658 0.700055102007276
633 0.5417264436238317 0.8690895196506335
634 0.3788132586431312 0.4686512706882715
635 0.37770015935899137 0.23246323164103888
636 0.6299062152010769 0.37471976607581203
637 0.1470180308330592 0.8715668530322302
638 0.728735161655289 0.496288659287886
639 0.9246127909037818 0.5243229254937294
640 0.42127925412029665 0.8582565024809602
641 0.4506888108385797 0.7481291687130587
642 0.3726365335334769 0.491878759617967
643 0.2913740176442101 0.5582948241889727
644 0.5156228614201 0.13083114209843327
645 0.9198502988314372 0.25656691852622004
646 0.29823913199708785 0.035702499735842275
647 0.7854556940321415 0.3050412383363641
648 0.7284152843469139 0.18382087951401316
649 0.06633819546350328 0.8685438698988419
650 0.24991506969444555 0.17486629061992987
651 0.16521542263191857 0.21417698332010726
652 0.34310197950752486 0.04141810977707361
653 0.18221455687924892 0.24212084973815795
654 0.424379480478394 0.6567216983234652
655 0.36730706652510026 0.8996518053921244
656 0.20782311128808617 0.2563540861599696
657 0.9693868405833731 0.9603145734994157
658 0.06846077309084642 0.007256187055048269
659 0.9922083963777331 0.6861260277280297
660 0.6291675929622044 0.2801434793860377
661 0.44705838909371864 0.4016103319082679
662 0.4352427061777734 0.8877086720273802
663 0.5943334423043113 0.43813214883443363
664 0.2540095105068718 0.007792377950739948
665 0.2597046612114744 0.7718130358983045
666 0.68740186081863 0.8601877431049181
667 0.33487411367784614 0.6530194121223286
668 0.3710100686376979 0.9634600334595527
669 0.6073430605922991 0.33071939264435046
670 0.9227154686641479 0.08503750083558037
671 0.7929185117452742 0.4987076402781594
672 0.5725085685259015 0.8702222852982919
673 0.372804767412627 0.0423647002104649
674 0.8321667746502225 0.8328450981577742
675 0.06940025200786004 0.6546367465590575
676 0.146006716063531 0.9704642132502368
677 0.6274500764694008 0.1021172007158766
678 0.6009719930463121 0.9105095052715594
679 0.7206266486025469 0.6562247632729682
680 0.059559767181053935 0.6440214786270402
681 0.4691357352009482 0.6722333853743724
682 0.5786434235224867 0.05520138456906165
683 0.16111332697614766 0.7609036641450777
684 0.35233428379755594 0.09060218189247538
685 0.041357971772876034 0.8482999509008973
686 0.9851274793823644 0.40306718849706225
687 0.7486922518098247 0.9242184143416587
688 0.22594273367781714 0.024770294994365227
689 0.5915481105965914 0.64595813736092
690 0.788102727423653 0.7976873159187675
691 0.9909576077221028 0.9307469202832753
692 0.4797098553705028 0.7496947745092379
693 0.4990287131323633 0.04927684846270497
694 0.528828905146634 0.04753378394875496
695 0.7957430934021644 0.028485424466885623
696 0.056537476536132725 0.31486722662591937
697 0.6917115114641588 0.6047902378137561
698 0.9713385870015897 0.5260962142811885
699 0.40105359639031113 0.45978161684378194
700 0.598819996932877 0.36624352537258986
701 0.0037852406762783897 0.8957194667164639
702 0.046570566390393475 0.9115505326135048
703 0.548562022854074 0.7853620160290256
704 0.7663259497956547 0.7101645281659916
705 0.766443886839032 0.6097612110369424
706 0.701535149365751 0.2991237235147757
707 0.8469842746104174 0.17951545863607254
708 0.6914437878423411 0.17457926190858608
709 0.4512903874321007 0.2125060192533358
710 0.30464229534598464 0.5981630100206251
711 0.8204824747552648 0.01301696997115287
712 0.0420649193578122 0.8573307675204778
713 0.7382886659395309 0.8578088108850438
714 0.21471128197578837 0.9642888486823011
715 0.454094681010205 0.05150311565280752
716 0.4572662814888028 0.463546384005585
717 0.5843121450419593 0.8281147998352333
718 0.8589798410591993 0.6548562862018502
719 0.134478365485301 0.43450486447328274
720 0.6312910172636728 0.7205405463968548
721 0.5265987051154813 0.061935706246615485
722 0.5516846567509075 0.011691118680854373
723 0.056303578919877695 0.33555141739101424
724 0.15281693505291027 0.7536345388719023
725 0.5072306757607222 0.916747624176641
726 0.4504289932931671 0.879288669530461
727 0.09700726377698254 0.9267651001299139
728 0.838882141196036 0.9307777823077632
729 0.815774926386218 0.8613532485430354
730 0.6194593183310451 0.1908811950970194
731 0.5993126708992426 0.7406223730323824
732 0.14052528561405875 0.35140986898130544
733 0.9646186881337274 0.5227135259650779
734 0.8984309532886847 0.26048253522445763
735 0.3295212598555143 0.5964773664049341
736 0.16812787390263917 0.7019744616990508
737 0.7624998831078199 0.34766837165291775
738 0.3977658039010329 0.9720273414765946
739 0.731721045150103 0.11604121322633576
740 0.4509505627220137 0.8525722216002064
741 0.05966832578135495 0.4143287828738954
742 0.7117529911084771 0.5268797168314198
743 0.6969526333303334 0.48510908309440903
744 0.9835436723900368 0.8509171518744708
745 0.06112089786196284 0.5182881947321364
746 0.600635250013962 0.820577153447621
747 0.9675397312073276 0.6971268570582243
748 0.9245974325843686 0.16107202510175056
749 0.7872368903936127 0.8597037958079297
750 0.38686302403068684 0.47881333429005823
751 0.2096037929639163 0.9357643564587059
752 0.8105633909342526 0.37619243986722706
753 0.4354498692401676 0.05633720023216593
754 0.9608425685005286 0.8262663610217014
755 0.7391103050789546 0.865809566866909
756 0.3021015815978052 0.44884637794447635
757 0.6283477003931387 0.09606572692473936
758 0.16528617103585852 0.10938972981522244
759 0.2661519185527851 0.32752746050062276
760 0.2427385475681355 0.4750706829686715
761 0.10262657978423917 0.6070660016061054
762 0.057604997555123716 0.08277210468550844
763 0.9478153707004545 0.9685792276332686
764 0.21952932260555025 0.07035201169913596
765 0.5943214754336857 0.1520210725916452
766 0.41445113402166067 0.687188284914159
767 0.1120869483721475 0.6884284709141923
768 0.7426497860067672 0.7855442378093038
769 0.8404395599959871 0.3539004500454356
770 0.10438397478502959 0.4161336941469149
771 0.12041708199416246 0.8268350611961304
772 0.1446799557355709 0.7844837527836253
773 0.9551359241031784 0.10690580720652232
774 0.034635598617143715 0.6137498707708954
775 0.24454866722049007 0.5090139253327965
776 0.17893483385816344 0.3433262936953172
777 0.10264445579121895 0.9933991035381844
778 0.7718545780094319 0.5106781702952818
779 0.6259984596598612 0.11307873871114693
780 0.5773340738722884 0.8785271955189359
781 0.860716188049997 0.23362674362409963
782 0.40818833878189364 0.21356384272291862
783 0.427050869032649 0.11990900271777838
784 0.10330760035071151 0.5304900952260035
785 0.6822629166183392 0.1716682934014203
786 0.7342357395889936 0.8442773927523154
787 0.7631811277365623 0.6631913798568613
788 0.48637961881521063 0.5404894891025572
789 0.6397306114197544 0.7283080163284653
790 0.8908835668869356 0.8150314605202639
791 0.1631521825806519 0.5882243045363408
792 0.5327773326259724 0.5304111285254629
793 0.4769136917144011 0.6993304152835411
794 0.6575416788803685 0.019797616578511423
795 0.43028266940207394 0.4569051383450241
796 0.7893434507055691 0.9377169846602734
797 0.9601698411747951 0.6473771090658269
798 0.7413216498791425 0.6869792918223512
799 0.372689284075736 0.7336641297622343
800 0.6398738588154931 0.15935887976983487
801 0.09587870658678721 0.6981188892177582
802 0.7529305186012728 0.7894625345448976
803 0.026294885027394188 0.6261320211268695
804 0.07759279586096202 0.45235556623998163
805 0.3430550217895397 0.721959046388177
806 0.10429347846546155 0.21395240428854012
807 0.9476790439232269 0.915267248460722
808 0.49449260424422004 0.34135244747440663
809 0.28697450921879286 0.24433853549009332
810 0.622179233913236 0.6191452546964349
811 0.008455224331858746 0.3121431030156494
812 0.9766938459723218 0.7680058309780631
813 0.6989837479215162 0.4873998850610639
814 0.026481938324067977 0.17242414457714883
815 0.26442303139356993 0.7567174378170516
816 0.6852696738767762 0.21663211604348964
817 0.7650432567277392 0.06181795047126404
818 0.6053269843574504 0.6392704707978208
819 0.16110187215212401 0.16620694588048424
820 0.6997159353103466 0.3728577450167634
821 0.9189486930249182 0.08478809256095032
822 0.6019682968397527 0.9255193196046612
823 0.045669731224891374 0.3927353920720901
824 0.9105861509014723 0.4408824013148468
825 0.5740464553461874 0.5008885256699024
826 0.9587248244647425 0.38972983725142707
827 0.2012363225462902 0.2663248007839897
828 0.8354328063254669 0.4528725215783759
829 0.3162710601025246 0.4025271305471608
830 0.18617009642593663 0.8222378994181595
831 0.24242437357334068 0.8971129899418241
832 0.9035817793308787 0.8707702967599985
833 0.6300551756939747 0.29656614137580883
834 0.7822214339530436 0.17910860257392913
835 0.0037127447821588833 0.9035730751981925
836 0.18199396694730896 0.23994288187847734
837 0.7170965804000266 0.1999699699713654
838 0.29770553478491457 0.9302172957218067
839 0.8385341273222849 0.7228413085877191
840 0.7966088572463521 0.8051044875332602
841 0.08203705062015798 0.3544194862563418
842 0.0059273270097927044 0.4356448711636187
843 0.09023909640155592 0.8338508280846488
844 0.2108232201306337 0.8975900554478802
845 0.38006092292833715 0.7687329171199372
846 0.3268854802509028 0.516030886790385
847 0.6405530474749538 0.9610605580328304
848 0.10445766829799674 0.0984134619230822
849 0.9087619983548193 0.6782214572538541
850 0.5143002599937876 0.8993237081460719
851 0.10227370054623719 0.9837147853334219
852 0.2085415785392951 0.27401904287816337
853 0.9651863419180909 0.6076013989155112
854 0.293272054513256 0.8135099711686282
855 0.0010173745860095895 0.9569308520840496
856 0.3230401581302669 0.9923857855728648
857 0.5055883215864482 0.19823834816701935
858 0.9826171716675092 0.24420362582566701
859 0.25448766236800335 0.09336358140865808
860 0.2930119374608299 0.5146630992608082
861 0.1342743946629068 0.10308325370554072
862 0.7587111781307811 0.11402564946982263
863 0.5122561104794378 0.45517882598227577
864 0.33980782897308026 0.4863027422690821
865 0.6988616331282184 0.8552198473216283
866 0.7903765721725997 0.023828496791111764
867 0.3702361462248418 0.09748866885014584
868 0.6758664295830374 0.6563568841806803
869 0.0792862164202649 0.4316907856301212
870 0.9916854117764196 0.6438943268331775
871 0.6409730778998309 0.026715178968236497
872 0.1403882407727931 0.04021071665162812
873 0.005118790351876457 0.6753371713894607
874 0.8748973444545466 0.28707978578661664
875 0.38116667175632934 0.28060102831738865
876 0.03657795321099133 0.21731558579828159
877 0.2312352888740532 0.6128936193322221
878 0.4847680543463845 0.29990830199649043
879 0.5449965402235009 0.4077611825477774
880 0.11237604687212577 0.5643782587200814
881 0.07295923058613851 0.4260619755767724
882 0.8824520550815204 0.31376835394034075
883 0.8773897870579147 0.5096083373109093
884 0.1898053781158937 0.6559031698046172
885 0.8722183775504793 0.7642808761960139
886 0.49528230377625804 0.44231761394658553
887 0.9724274420655341 0.5852879139120905
888 0.9268399070057299 0.7843881356206368
889 0.35303306919093025 0.4326385795161024
890 0.5545298173286334 0.44495560738690265
891 0.056101338308974014 0.2434302712927623
892 0.4617304653882697 0.7499606881869834
893 0.1255755660332043 0.9299318123986291
894 0.9898016042484474 0.8326790634980902
895 0.4222416888577605 0.49811184665267927
896 0.020137148367789126 0.9391921674736817
897 0.5681094752769251 0.25965716530342664
898 0.3060006319782206 0.6430219117587755
899 0.3537841007366165 0.8570657655929427
900 0.21334873800117737 0.4338329762570251
901 0.11570254522286494 0.7827123376780303
902 0.3081005112019838 0.045841404738563574
903 0.8836594467879004 0.4765204548479257
904 0.012337545505729186 0.3126707366591607
905 0.9559695414894473 0.6599083786659494
906 0.2799671708986792 0.47860492075891214
907 0.18054484234219026 0.14185447994510036
908 0.8319356788972625 0.18769112116844466
909 0.466121689199377 0.29440967750002556
910 0.3512176321515307 0.29669553275299965
911 0.8465876032434084 0.6546926041712657
912 0.8116862183436097 0.2930365160021353
913 0.43477748772956337 0.6773834246296159
914 0.20879775621548802 0.04095479807810043
915 0.1296137845205242 0.5138807550486496
916 0.34854663589687596 0.03143374747766903
917 0.3532988731662201 0.27014681747987157
918 0.34910619806220633 0.4656157547262284
919 0.20061078095409013 0.10290175046870709
920 0.8562661275461946 0.300867964793873
921 0.4922323022561059 0.8333853935403931
922 0.7736078222221113 0.4779916308693307
923 0.7546410749296354 0.28497251985707317
924 0.5275783719991392 0.6584764482558242
925 0.9179862167503884 0.005039306692770418
926 0.24036707131243562 0.1880567220613346
927 0.6817202677858002 0.9433655134161767
928 0.6300230894371224 0.7913200720911028
929 0.8628850069214535 0.9534377186670591
930 0.38921843241163745 0.5220297885980966
931 0.8030507769571135 0.103200182991946
932 0.7186708844260212 0.3042024533626211
933 0.06146869958893364 0.6088454898391161
934 0.5720491478999901 0.9925853541809431
935 0.3151120543406021 0.9846422417670913
936 0.4135802701282222 0.7203248281077934
937 0.6103175398429669 0.46464383253060615
938 0.5550122051506898 0.19447297839199207
939 0.675514958275456 0.452158929613826
940 0.0855794414279506 0.08803741882281646
941 0.83410235497537 0.7952105269354717
942 0.7612010784937636 0.5833969539204474
943 0.34257131493760506 0.6982606184099922
944 0.9503141432801658 0.04065059852579922
945 0.9640059261940717 0.22950215533174767
946 0.12396346978315365 0.8160314888787774
947 0.6478870699813472 0.9630756911327586
948 0.485931951593648 0.28796370495356827
949 0.03640065585379837 0.8796885338103478
950 0.5448975157074292 0.11846531893497947
951 0.34977235275870666 0.3694769133332211
952 0.8349759351196447 0.29010169547490383
953 0.007634979290582766 0.7317322829833429
954 0.36371623637877737 0.8672249176426884
955 0.6262940615042379 0.3954492203740678
956 0.19682845322157982 0.2851236741151154
957 0.177548420241459 0.1565972469335316
958 0.913543333296501 0.046135142121207506
959 0.9683545677359262 0.8403624323220905
960 0.7871852918099932 0.15770050865143692
961 0.911309028026876 0.4101975479920327
962 0.7159089359031588 0.35438002527503154
963 0.2600551264706711 0.15520967185504653
964 0.4022623417570155 0.8707587239800496
965 0.28424636036824047 0.6206596796332792
966 0.9665972596019614 0.43836023682388614
967 0.6588159372319604 0.7913459471083799
968 0.47385414596516395 0.29423428948029284
969 0.60440045746453 0.8106741328320863
970 0.09970787234984968 0.2759192031555774
971 0.45619049169675285 0.6308321216633971
972 0.9070256727772805 0.9809185295376253
973 0.009420711897968448 0.32617711128604887
974 0.1309256342462547 0.2470652823622952
975 0.008288080288217037 0.8612495955381531
976 0.4420706123323068 0.7631195896052385
977 0.486123175378707 0.7532454601344692
978 0.8197090877752942 0.27641583363225297
979 0.49758382719732497 0.7412797520266339
980 0.1914031641823254 0.44197497547861986
981 0.4361094622470245 0.1250116126191626
982 0.11619931999393163 0.5589245234764431
983 0.26164290644770327 0.22442757467558105
984 0.2716395730802025 0.9417801992425554
985 0.42744219509858017 0.2743154890572389
986 0.10821618682043332 0.9671403918980528
987 0.6535293043213034 0.12482186702332654
988 0.11891288852152204 0.27242981855881665
989 0.8164432168419065 0.8605567833141723
990 0.06329209291916693 0.283879036038879
991 0.7498814672662535 0.8767141599988855
992 0.9619992032815226 0.6029803246385599
993 0.16529796254586626 0.48166268994272843
994 0.10103639855534197 0.4216899808763226
995 0.029805469603019774 0.7918411336518042
996 0.2852915178539751 0.8098904226658105
997 0.12725328070719255 0.8090113632942615
998 0.15679600948243344 0.3366681646745431
999 0.49636322869063865 0.37727522319398077
1000 0.929418146813857 0.126847720992179
1001 0.24153892013900724 0.15494935009162725
DEMAND_SECTION
1 0
2 9
3 3
4 5
5 8
6 7
7 7
8 3
9 2
10 2
11 8
12 9
13 7
14 1
15 1
16 6
17 8
18 2
19 1
20 7
21 4
22 3
23 8
24 3
25 7
26 6
27 1
28 3
29 4
30 8
31 6
32 4
33 9
34 2
35 8
36 9
37 4
38 6
39 5
40 9
41 2
42 8
43 6
44 9
45 3
46 9
47 1
48 9
49 7
50 1
51 7
52 5
53 6
54 2
55 4
56 4
57 9
58 4
59 4
60 4
61 7
62 1
63 9
64 4
65 2
66 8
67 6
68 5
69 3
70 5
71 1
72 1
73 8
74 4
75 8
76 4
77 1
78 4
79 9
80 8
81 9
82 2
83 6
84 5
85 7
86 9
87 6
88 9
89 1
90 4
91 7
92 6
93 7
94 1
95 6
96 4
97 9
98 3
99 1
100 6
101 6
102 6
103 5
104 7
105 3
106 5
107 2
108 1
109 7
110 3
111 9
112 2
113 8
114 7
115 6
116 1
117 7
118 5
119 1
120 2
121 6
122 9
123 8
124 4
125 4
126 4
127 3
128 3
129 8
130 3
131 6
132 3
133 9
134 9
135 9
136 1
137 4
138 8
139 8
140 6
141 7
142 2
143 7
144 1
145 3
146 7
147 8
148 7
149 4
150 3
151 6
152 1
153 7
154 1
155 4
156 7
157 9
158 8
159 1
160 8
161 9
162 4
163 6
164 3
165 1
166 4
167 1
168 2
169 1
170 6
171 1
172 4
173 7
174 6
175 8
176 3
177 4
178 9
179 8
180 2
181 8
182 4
183 5
184 7
185 5
186 5
187 8
188 8
189 6
190 3
191 8
192 4
193 8
194 3
195 9
196 6
197 4
198 3
199 3
200 1
201 9
202 2
203 8
204 4
205 7
206 7
207 3
208 1
209 9
210 1
211 8
212 2
213 6
214 1
215 2
216 6
217 7
218 1
219 4
220 8
221 8
222 2
223 4
224 7
225 3
226 7
227 2
228 8
229 2
230 5
231 3
232 4
233 9
234 4
235 2
236 4
237 4
238 7
239 9
240 9
241 8
242 3
243 3
244 5
245 7
246 1
247 2
248 5
249 6
250 6
251 2
252 1
253 5
254 8
255 4
256 1
257 1
258 8
259 6
260 1
261 2
262 8
263 9
264 5
265 3
266 2
267 1
268 5
269 4
270 9
271 9
272 9
273 5
274 8
275 3
276 1
277 9
278 3
279 1
280 7
281 2
282 1
283 4
284 9
285 1
286 8
287 4
288 3
289 2
290 1
291 4
292 7
293 4
294 6
295 1
296 1
297 6
298 8
299 3
300 9
301 4
302 7
303 2
304 1
305 5
306 4
307 4
308 3
309 8
310 1
311 6
312 7
313 5
314 1
315 4
316 9
317 7
318 9
319 6
320 5
321 1
322 8
323 3
324 4
325 7
326 4
327 4
328 6
329 2
330 8
331 1
332 3
333 4
334 4
335 8
336 7
337 2
338 7
339 5
340 9
341 2
342 7
343 2
344 7
345 5
346 4
347 4
348 5
349 7
350 6
351 9
352 2
353 3
354 5
355 9
356 5
357 7
358 4
359 3
360 1
361 4
362 5
363 4
364 2
365 2
366 2
367 2
368 9
369 8
370 6
371 2
372 3
373 8
374 3
375 9
376 8
377 2
378 7
379 1
380 1
381 9
382 1
383 9
384 8
385 8
386 2
387 1
388 8
389 9
390 2
391 6
392 1
393 9
394 3
395 6
396 2
397 7
398 8
399 2
400 4
401 3
402 6
403 4
404 5
405 2
406 3
407 1
408 4
409 6
410 7
411 7
412 9
413 2
414 8
415 9
416 9
417 7
418 6
419 7
420 3
421 3
422 1
423 5
424 4
425 7
426 9
427 2
428 2
429 2
430 5
431 3
432 5
433 6
434 2
435 4
436 3
437 6
438 9
439 5
440 9
441 6
442 8
443 3
444 8
445 3
446 6
447 2
448 1
449 2
450 5
451 5
452 5
453 8
454 5
455 4
456 1
457 4
458 4
459 1
460 6
461 4
462 7
463 4
464 3
465 8
466 9
467 9
468 7
469 3
470 9
471 7
472 7
473 8
474 7
475 9
476 2
477 3
478 3
479 7
480 3
481 6
482 7
483 8
484 7
485 4
486 2
487 8
488 9
489 5
490 5
491 6
492 8
493 6
494 7
495 7
496 6
497 2
498 9
499 8
500 5
501 5
502 4
503 1
504 1
505 8
506 4
507 5
508 9
509 3
510 2
511 8
512 3
513 3
514 6
515 6
516 5
517 8
518 4
519 5
520 5
521 6
522 3
523 4
524 1
525 6
526 6
527 3
528 7
529 7
530 8
531 4
532 1
533 8
534 1
535 9
536 1
537 7
538 8
539 9
540 3
541 8
542 5
543 6
544 7
545 6
546 6
547 5
548 3
549 6
550 5
551 3
552 4
553 2
554 8
555 3
556 8
557 1
558 8
559 3
560 4
561 6
562 5
563 5
564 3
565 6
566 6
567 1
568 4
569 9
570 1
571 4
572 8
573 6
574 4
575 4
576 1
577 7
578 4
579 6
580 4
581 7
582 9
583 8
584 3
585 8
586 4
587 2
588 4
589 3
590 6
591 4
592 2
593 7
594 7
595 2
596 4
597 7
598 5
599 5
600 7
601 5
602 3
603 7
604 7
605 6
606 8
607 6
608 8
609 8
610 7
611 1
612 2
613 1
614 4
615 5
616 3
617 4
618 9
619 1
620 5
621 3
622 4
623 5
624 6
625 1
626 4
627 4
628 8
629 1
630 5
631 7
632 6
633 1
634 3
635 3
636 2
637 5
638 8
639 6
640 9
641 2
642 4
643 9
644 3
645 9
646 2
647 1
648 6
649 1
650 6
651 7
652 6
653 5
654 9
655 3
656 7
657 5
658 8
659 7
660 1
661 3
662 7
663 2
664 8
665 7
666 1
667 4
668 4
669 7
670 5
671 4
672 8
673 6
674 5
675 5
676 1
677 3
678 1
679 8
680 7
681 1
682 3
683 4
684 2
685 1
686 1
687 7
688 3
689 9
690 8
691 3
692 5
693 1
694 8
695 1
696 9
697 5
698 2
699 5
700 3
701 3
702 1
703 7
704 7
705 5
706 5
707 7
708 9
709 2
710 3
711 5
712 9
713 5
714 2
715 5
716 9
717 9
718 7
719 9
720 8
721 8
722 1
723 3
724 9
725 6
726 2
727 8
728 1
729 8
730 2
731 4
732 8
733 3
734 1
735 4
736 1
737 7
738 4
739 9
740 5
741 2
742 9
743 9
744 5
745 7
746 5
747 1
748 7
749 8
750 6
751 3
752 9
753 5
754 7
755 3
756 9
757 8
758 6
759 3
760 6
761 7
762 5
763 2
764 6
765 9
766 4
767 6
768 4
769 7
770 9
771 7
772 7
773 5
774 2
775 7
776 9
777 8
778 6
779 1
780 5
781 4
782 1
783 9
784 6
785 4
786 8
787 7
788 4
789 1
790 5
791 7
792 3
793 8
794 4
795 3
796 3
797 1
798 9
799 2
800 3
801 1
802 9
803 2
804 3
805 1
806 6
807 9
808 3
809 6
810 8
811 2
812 9
813 4
814 7
815 2
816 5
817 8
818 1
819 7
820 1
821 5
822 6
823 3
824 4
825 1
826 8
827 9
828 3
829 2
830 7
831 9
832 9
833 4
834 1
835 2
836 6
837 9
838 2
839 3
840 7
841 6
842 4
843 9
844 2
845 2
846 5
847 5
848 6
849 8
850 9
851 3
852 9
853 5
854 3
855 4
856 4
857 4
858 8
859 9
860 1
861 1
862 8
863 7
864 8
865 5
866 8
867 2
868 5
869 1
870 6
871 9
872 4
873 3
874 2
875 3
876 1
877 1
878 1
879 9
880 8
881 4
882 7
883 6
884 8
885 8
886 4
887 1
888 4
889 5
890 7
891 2
892 8
893 4
894 6
895 9
896 3
897 5
898 6
899 1
900 7
901 1
902 9
903 7
904 3
905 1
906 3
907 6
908 5
909 3
910 1
911 1
912 2
913 4
914 2
915 5
916 2
917 3
918 1
919 2
920 6
921 7
922 6
923 8
924 6
925 1
926 3
927 6
928 4
929 1
930 6
931 5
932 7
933 5
934 3
935 2
936 8
937 3
938 2
939 7
940 3
941 3
942 7
943 8
944 4
945 9
946 9
947 7
948 3
949 5
950 7
951 9
952 7
953 5
954 4
955 9
956 6
957 8
958 3
959 9
960 1
961 1
962 4
963 8
964 5
965 5
966 3
967 8
968 4
969 9
970 8
971 8
972 3
973 9
974 8
975 7
976 6
977 3
978 7
979 8
980 1
981 4
982 2
983 8
984 2
985 3
986 4
987 3
988 8
989 9
990 5
991 7
992 9
993 5
994 4
995 8
996 8
997 7
998 4
999 4
1000 3
1001 5
DEPOT_SECTION
1
-1
EOF
