NAME : gen1000_002
COMMENT : uniform customers, demands 1..9, generated by bench/make_tuning_set.py
TYPE : CVRP
DIMENSION : 1001
EDGE_WEIGHT_TYPE : EUC_2D
CAPACITY : 200
NODE_COORD_SECTION
1 0.05858649309531405 0.25843891795745655
2 0.941939901601203 0.42753290510721853
3 0.573863751309007 0.7975540867597902
4 0.5993112364962719 0.5706157064209341
5 0.14248040861949118 0.9523932104079376
6 0.9079064538393085 0.8255511917994011
7 0.41923060369020726 0.476483844613546
8 0.8327358818225825 0.31359589919269115
9 0.5562636584166794 0.49390575846803886
10 0.7088737681495266 0.36355473822589834
11 0.6477188340952184 0.34196558990083015
12 0.6716886820096969 0.4258852954592064
13 0.9830650761273504 0.3916209205716972
14 0.47835653188879335 0.5447929594301395
15 0.6434108510645637 0.2011315377453997
16 0.2029491928139704 0.31102946494125694
17 0.5032349150544071 0.12945904510632134
18 0.691622610602438 0.9630822403526021
19 0.7283205530019187 0.8852783877413092
20 0.6426440454738149 0.39609827840132983
21 0.24065843921404528 0.7198177748683456
22 0.25593259695841153 0.86077493643761
23 0.19082537871542715 0.6529734688372297
24 0.49386280847062114 0.7232560864020219
25 0.8966968452216805 0.20902154013567587
26 0.9704302215834092 0.12446358807929758
27 0.6062345476495382 0.9569275473506702
28 0.6290021049636052 0.7756359819922602
29 0.02455420984660761 0.609684079762524
30 0.9955976664701918 0.8711133235635388
31 0.2543540118497112 0.6987203454333953
32 0.1415999166987495 0.33037872899048604
33 0.6865885137618218 0.7610438657470644
34 0.37916713996748863 0.6138802601092126
35 0.07976092315936156 0.7778418540348978
36 0.24276084491922068 0.7889657205577499
37 0.07325639911776838 0.5501531405657627
38 0.3285324160969103 0.09496407108021798
39 0.1490059831083438 0.6854675622312071
40 0.2277035545720475 0.21224351756591175
41 0.5497827439147077 0.05171669739036899
42 0.431629975645378 0.3132553748211362
43 0.3154139542725032 0.04830166757376919
44 0.27536782638548796 0.3646235953213497
45 0.6567349207897738 0.8671804959921217
46 0.35202926785756694 0.26347988451065185
47 0.4885581375552396 0.5940790147928346
48 0.1271540886903424 0.6271743874932187
49 0.43560129766072375 0.6003452188579199
50 0.3581671935838877 0.7216197149506284
51 0.8955924464194658 0.9081389040914951
52 0.529058211575056 0.5779620502204416
53 0.42356482618719193 0.9481362137526824
54 0.06442178510172425 0.21767102534462046
55 0.8281523278592603 0.6410061118298978
56 0.7831623956789607 0.5137322507229277
57 0.4921053172520281 0.6702540580213299
58 0.6354245115144725 0.03699183084041047
59 0.09761843988065266 0.4148093455465308
60 0.9117780278167185 0.3651823294015216
61 0.24881742313961963 0.6952386790531887
62 0.013019059089591778 0.948117369960284
63 0.7802486275202212 0.16215944219008904
64 0.6828345803547131 0.3305783189442978
65 0.764169485676584 0.4647170693642918
66 0.5411113840328526 0.9823445088247061
67 0.8390362258807547 0.41751585240719813
68 0.8440233012007176 0.6917155356266448
69 0.9646564486384474 0.0761955099932673
70 0.35920739016512093 0.14006188519335971
71 0.5701698866386832 0.7818402255726604
72 0.9824856768060096 0.9701264654555208
73 0.177701359869062 0.466851164290621
74 0.4544879716629069 0.6704436382188
75 0.38032603047758273 0.13071625390465547
76 0.06777698352673767 0.93535180307187
77 0.5724985336119458 0.8783396156409911
78 0.31980187299598417 0.5902192842227938
79 0.6779827338093178 0.995104531870229
80 0.7607217511707711 0.6730622013113278
81 0.3855986018119375 0.12490062678837399
82 0.7938285582078835 0.7888002364864534
83 0.3039159315053036 0.44235020230685507
84 0.6583253245844584 0.8565228961433905
85 0.6792209140863907 0.007914650073186924
86 0.8914335986273966 0.7850303131298065
87 0.45831225429168043 0.20588965096211131
88 0.4138369490767124 0.9086152682503008
89 0.9363320948260275 0.2228399594100694
90 0.3375483556575798 0.05438054285216687
91 0.69150809867601 0.714889910934096
92 0.5961855974211575 0.436078592097745
93 0.26521637793363895 0.2703248400893722
94 0.6572278663277416 0.7017467928821448
95 0.30420740953202485 0.8659350622781279
96 0.7806696055438289 0.8496700101995545
97 0.3896898121926349 0.4611639925572185
98 0.2979999071460677 0.2351996609670972
99 0.17752480230507128 0.09860594916422583
100 0.11342293951499227 0.08530344292080527
101 0.37936629126952814 0.9915948092399501
102 0.07671983467320587 0.43404571736211195
103 0.2651951395429484 0.7115663943545248
104 0.2390050476279476 0.03059373511450214
105 0.816536524456423 0.9139728560978702
106 0.11257477558253437 0.4065790015330859
107 0.1803330216468818 0.5546470528530233
108 0.7414118054247767 0.20227095925186145
109 0.8468457423811026 0.6595037426865987
110 0.04073401350427874 0.7828370841231211
111 0.008766479678837702 0.8651376059455991
112 0.03168410646713171 0.8240695456945919
113 0.8848285500152667 0.4760521393852629
114 0.6906436946706951 0.6810164593592718
115 0.40903726366711346 0.8666288884688679
116 0.845266674254323 0.053846532100798816
117 0.7720241393572519 0.18845877575230607
118 0.9963217064959184 0.9409201653875179
119 0.7176097425448638 0.35192891451328145
120 0.10469383986889402 0.033371300253388414
121 0.055736355720507724 0.9785306906257181
122 0.02364968679868551 0.41718209632741865
123 0.25101306015885894 0.7579615696116394
124 0.9888677771231442 0.31439217225019056
125 0.9836576899770078 0.9725425047964369
126 0.9078697641124319 0.6436088414501375
127 0.9273946580136214 0.07726295148547413
128 0.33449587096372513 0.9268837544240747
129 0.261285893005645 0.2688664704091446
130 0.23993055427709564 0.25383970323569105
131 0.7388060659427619 0.1450701468211142
132 0.09599101745761696 0.7783726676070194
133 0.5294523180284987 0.7992863112982593
134 0.8712434526744831 0.818665732436604
135 0.056196875098653676 0.6886095474526103
136 0.08284181206492247 0.696905792396227
137 0.7281087080279629 0.9881748141862885
138 0.9771873007907164 0.28643264034680804
139 0.8440834111179532 0.645644436494084
140 0.22454869484058693 0.7487212642083695
141 0.28809111524996023 0.4815420529102946
142 0.5973012749381765 0.17072928101346085
143 0.6356486523812686 0.30705679286624943
144 0.6429343723530283 0.15071241872350083
145 0.27006918716940065 0.3496333433193217
146 0.29518350772730595 0.6735022694433184
147 0.5759765953184156 0.7102688437767881
148 0.5696840059113699 0.7609993789174677
149 0.6119468399020029 0.5367406554031807
150 0.7491565865059757 0.7909669072464007
151 0.4919254133760377 0.35141198525920514
152 0.37223823991900873 0.5698690044281162
153 0.5524637467406203 0.015929914333204787
154 0.12293050930610439 0.8409510478138321
155 0.7488715675545787 0.5257359269418644
156 0.0797607313217541 0.09380257821819848
157 0.3700836967225474 0.7911194643427543
158 0.4404581580443201 0.13916664699325842
159 0.9933269749083801 0.7812978114493402
160 0.6422613621283806 0.4443098125771575
161 0.5973018337632273 0.15015639121834
162 0.6318724126744996 0.79426284597568
163 0.2526619648355535 0.9975064635577074
164 0.3170311742689895 0.9622620371647156
165 0.020266403122540022 0.2566993662344009
166 0.43444662567173253 0.9675453998163118
167 0.01817221821861026 0.9360569960508909
168 0.6514202965877458 0.38886233280923976
169 0.35255381789058704 0.9010889021094199
170 0.34486355185057704 0.36151140645842117
171 0.09141747161374203 0.3488172268639026
172 0.40739893488811263 0.0782748332827028
173 0.8991336805361279 0.543354104936707
174 0.5088314186808731 0.03290575362847148
175 0.6850985034668529 0.5105894666902109
176 0.7883074434182215 0.9512942904739297
177 0.5047042413773453 0.5101463742290903
178 0.022661392549452875 0.9165014408361826
179 0.1013257279916181 0.6085099331664893
180 0.35279261211826196 0.4081492343984938
181 0.8679471760377356 0.2573997845979351
182 0.9200410239538529 0.7087125306500661
183 0.14982413550018603 0.11478544063953544
184 0.08639365549223832 0.4832255105865879
185 0.9322588041753054 0.7946905923224264
186 0.4790310302050176 0.3592539376998657
187 0.0535881796172033 0.49806282062435014
188 0.9501925226925646 0.8700986886005266
189 0.6357808390081728 0.5097569428144857
190 0.5258092450434277 0.217134961010661
191 0.22031755661342378 0.5849709109728772
192 0.743464904744364 0.8754945493001498
193 0.02665378256853035 0.7875840779125317
194 0.7304462363693142 0.07654251022286385
195 0.2641993353984312 0.7315887035362265
196 0.9871636834985453 0.3291966919258906
197 0.5221302782205316 0.6230034297740397
198 0.5371102245942508 0.07162251750385973
199 0.2461145211675404 0.44927039146089376
200 0.09441640436821586 0.798052648563626
201 0.7660447637270076 0.6758941854778339
202 0.8238110389991854 0.586349055719998
203 0.9548129838195979 0.42231110249134174
204 0.013151651098468053 0.3105209411082004
205 0.7462144476546098 0.7473908791511428
206 0.6487279434886585 0.15868907376749664
207 0.9942542314854185 0.09630437460176011
208 0.384636816558395 0.39052301922892063
209 0.692544277946947 0.5773025837512213
210 0.9238395689212283 0.3641809447295761
211 0.4541257423823959 0.3007395884161813
212 0.27546533639067605 0.40529520532990493
213 0.07163077115012795 0.3140861039954892
214 0.37426798361834135 0.114067989452862
215 0.3548890792567242 0.23341101712499612
216 0.13630869646703947 0.7934976624949847
217 0.8905853850882938 0.3416954557301958
218 0.6111772825129681 0.040841787381023065
219 0.3423504857071742 0.07646288616902086
220 0.8585346590978253 0.2545832838865708
221 0.7469295235075942 0.05891199347824683
222 0.164182826379628 0.4118941336422782
223 0.06129341795533039 0.29770630029062806
224 0.8299335630774427 0.6339152108039349
225 0.5417952053460702 0.8360628780721417
226 0.1854722448085201 0.81325473092207
227 0.0004928568077500195 0.6807827422361894
228 0.9222473449120464 0.5946755229475614
229 0.1112322948239638 0.698749591239556
230 0.6541481951176049 0.29460768181346875
231 0.5501111258877025 0.988623511748481
232 0.31586334370475155 0.171786294805236
233 0.5296953642564171 0.1371441313107703
234 0.8829782890981585 0.8021789609298265
235 0.713212909898637 0.44794393608029914
236 0.13541452404123178 0.17430057948556932
237 0.31743311021279985 0.010001323245994231
238 0.38585233082189563 0.20577655678804174
239 0.6533894406672559 0.21074915162333652
240 0.5228330581890936 0.28592362772649893
241 0.29205801281874466 0.18756871406540676
242 0.4512604100008496 0.8171956468230329
243 0.10479756170094945 0.8701469551241809
244 0.5195152105470149 0.9769039755202656
245 0.8963170552091364 0.998476176583132
246 0.04191968860592088 0.3542054221871107
247 0.11953182504317517 0.30246459095457856
248 0.8453398757714359 0.9353311757384274
249 0.46486405847457235 0.8661229204576879
250 0.0010781878167684944 0.8687710513447295
251 0.6800978893734144 0.941145139576847
252 0.3395777593266024 0.3333580285582598
253 0.38277153413087484 0.7295038425701404
254 0.11681731717512567 0.15976804490631102
255 0.967939637096015 0.8779843938750113
256 0.8663273635969344 0.4948643467728784
257 0.8899957946800934 0.999786804564425
258 0.46732142540891497 0.4418493958916445
259 0.6463290454329831 0.1312726873566169
260 0.21329543685025865 0.17155682866756883
261 0.410798462031982 0.9589909502454598
262 0.45995747872301196 0.6186791346578056
263 0.20852409913389014 0.3641103743667601
264 0.16678793434773354 0.4767439278036979
265 0.7743553243309437 0.004001371381753049
266 0.5312496300321525 0.2132515417365647
267 0.2149281045506647 0.6345402874810411
268 0.5374350339201222 0.923715904676705
269 0.7316033035543001 0.9711514244825028
270 0.7158066021724451 0.5070414248714777
271 0.34181028043564754 0.126332710584804
272 0.17607079641552525 0.5948530275731473
273 0.629077711797592 0.9119823555514259
274 0.28251206933866657 0.6722389658863903
275 0.4820072420778885 0.9250662153073345
276 0.13700565497445805 0.025217248103257428
277 0.20910469974880874 0.8080906264089164
278 0.8725350795832616 0.19590904557012934
279 0.09725488817800643 0.8925691537483394
280 0.014825531306613016 0.9281254901560271
281 0.42570928977358913 0.07205863158842729
282 0.9107106247440592 0.5701932864971281
283 0.20554630853102218 0.06238632202850136
284 0.2447797746296777 0.25757058216764706
285 0.983744558234112 0.20561750404623014
286 0.7615727984337637 0.5244072823588589
287 0.1394915917501761 0.7624372627697273
288 0.8608696660755373 0.4388330055653541
289 0.3021465517518215 0.9948024867614131
290 0.21291831247222748 0.5395882452024893
291 0.3809098855218298 0.7651058635339473
292 0.1602991644504954 0.09404673663070318
293 0.21158752126606173 0.2855265293243169
294 0.13112886826275905 0.39829293836139723
295 0.6992809111851847 0.7571184273803067
296 0.11413602962195424 0.04628753415005271
297 0.8616398198716541 0.4631990580802354
298 0.6941533007417418 0.4663731898322603
299 0.2743735062049345 0.7083360694928379
300 0.16474166476155772 0.5157299114444094
301 0.09278267807271878 0.10837714598083703
302 0.8560987902537723 0.9466667000379401
303 0.4475211581178159 0.8365973784573895
304 0.003626699904497932 0.8084338416422956
305 0.6631793167991581 0.3920898653655823
306 0.03068630505949932 0.3603533960775719
307 0.6795945334411488 0.4888488123579282
308 0.11691837460633403 0.3563066519096997
309 0.7470804853389503 0.495497161070902
310 0.3076182280927515 0.9504953702976718
311 0.3455629631689314 0.18560758121240506
312 0.29942144276911853 0.7131920414601871
313 0.14121778904270788 0.8646163754124886
314 0.3085047281167703 0.6969023561652102
315 0.48483328771540735 0.7322026950822645
316 0.2924968870028902 0.48378382696631783
317 0.5353819738571582 0.998909878359918
318 0.47836530964727786 0.1137651242948664
319 0.7898803447931058 0.7276503809581921
320 0.18218143294104416 0.013995519488668506
321 0.2977479824168131 0.7531155210680436
322 0.9056195595998772 0.08815698716591114
323 0.7944897518322193 0.8644824611349994
324 0.7227313714605124 0.42444765098175585
325 0.36695506429613767 0.44500844968301123
326 0.3798009697798921 0.07630294610590371
327 0.7135271475609019 0.19807070769165447
328 0.438995088746026 0.6085593621140201
329 0.2715188210247571 0.7036060004026874
330 0.630307463863202 0.7185257611511024
331 0.5050003123522875 0.3551462838410224
332 0.1948857076110735 0.04686980812158392
333 0.2840694763789823 0.740422770636458
334 0.2615896801392166 0.2673189414578814
335 0.2523712960093508 0.8678682352356395
336 0.1231475870731914 0.012944006681496867
337 0.49571789066764194 0.9222820607662063
338 0.4931165965133767 0.05592947429710471
339 0.29978790503404285 0.9304504954494
340 0.08068035984176702 0.2201548330214963
341 0.7059299168648732 0.05806996915310059
342 0.02753803601666882 0.7831873242115419
343 0.6528049630621674 0.6871468205599149
344 0.627765095854148 0.9379010158759924
345 0.8871924573071293 0.5636912632343984
346 0.7313296768310033 0.8321547142426166
347 0.042479457814958654 0.676951361552503
348 0.2022020400767789 0.590686880680552
349 0.5857249732132614 0.9820312151877132
350 0.511194934399846 0.46433564892950674
351 0.7156311856022007 0.03550315967530049
352 0.5211749048212321 0.4615689451928747
353 0.9407821620375209 0.43274809121632607
354 0.7234566973130598 0.7963017684333017
355 0.28110114773183625 0.9613311356876637
356 0.6904420358908776 0.14720210424983982
357 0.12757430997599262 0.776582046789413
358 0.398514773198527 0.11462930728426979
359 0.517631253976953 0.5538050992384459
360 0.3857804170901159 0.11549396022056968
361 0.18942353770290632 0.9109932621796663
362 0.6074162844390768 0.17209733155537543
363 0.9628252012382126 0.18027809575070708
364 0.05826597529747146 0.7626776259702329
365 0.35060214173940984 0.8315592685045312
366 0.8957416093152516 0.6701903866240203
367 0.1614364091168693 0.6169588723299679
368 0.883041654552783 0.27271154642220885
369 0.09563163246696249 0.022903543478321464
370 0.6480217921506777 0.6338709454947974
371 0.3069200607093926 0.05176390039751522
372 0.9310598094071446 0.9964699489767557
373 0.45850822388980683 0.9743489672772766
374 0.18511949375325742 0.36552750881559326
375 0.0073258413354984064 0.36827098319333096
376 0.6423319455288258 0.8271521879475808
377 0.7293131983430702 0.06972045554146322
378 0.38984993034903714 0.8271731061152899
379 0.25483091278046355 0.3663936006120255
380 0.8581566253961781 0.26259764754858517
381 0.6321082504484333 0.7021620079813793
382 0.8786621740270129 0.18527344317685346
383 0.43275687404333507 0.6435352721666072
384 0.9592821368049109 0.634456380032473
385 0.24131386714531444 0.07496981298443961
386 0.259060805395932 0.65563015177736
387 0.46251666873747466 0.11151676729430304
388 0.4790798293939854 0.7206986125262057
389 0.35151713445489674 0.9189184171164573
390 0.288869881860944 0.8457155944013226
391 0.49869940964357506 0.1397303320171418
392 0.795099047973843 0.08235813963664795
393 0.7166946058415156 0.9339252139233039
394 0.9667768469716593 0.8454650966079981
395 0.9795224984897262 0.020035150031152638
396 0.7615167765858085 0.32385457716628807
397 0.6580412015693738 0.6704372944473397
398 0.5167370416005377 0.06964319234652971
399 0.241366543197996 0.9385192438945467
400 0.14999711945714267 0.5367252057192604
401 0.2384494533175816 0.9149493215644602
402 0.7311889425483653 0.307953703389261
403 0.6905763946777645 0.6240188110617372
404 0.333609306379843 0.8763387025665708
405 0.11113178748404784 0.8604324298536457
406 0.7804346742732722 0.12822342367487916
407 0.5535271240788646 0.3108792997523353
408 0.565788929888447 0.6221663538514283
409 0.9041935664710001 0.18291831226239041
410 0.5642996095655072 0.8019167035937848
411 0.7846106872652916 0.3979784109580309
412 0.5279328358856726 0.7253831923784819
413 0.8840533014322849 0.1687046417230863
414 0.7602182535029405 0.9326116507852866
415 0.042055581347891 0.9827541361538302
416 0.1318287220580424 0.46485719560193317
417 0.19071770800912935 0.04155100630222586
418 0.8057984573943356 0.2735416684697177
419 0.9517111414701965 0.1315113592036361
420 0.4035524226566093 0.8205772842221646
421 0.5497926902579325 0.5156293313471239
422 0.8763875020398296 0.3687316575170331
423 0.8082037036705958 0.26433134532546665
424 0.8301811472026286 0.8910569887443239
425 0.4433825823214621 0.7982426735099838
426 0.5243545689224863 0.6609856635200891
427 0.22312025100206734 0.6359417657091849
428 0.7797770694604494 0.5718498306311753
429 0.7879984589069838 0.575199879094468
430 0.23192348312250977 0.7873246334141251
431 0.18687691810724372 0.4416894416656513
432 0.07536789340258776 0.661159562955295
433 0.6421584455751983 0.49174491644645857
434 0.4464629696234459 0.4934678968672458
435 0.5462710513513517 0.42953654752983816
436 0.5729275030153135 0.8599184656867902
437 0.4592035819750224 0.527098260900277
438 0.12993809160165504 0.6215460585509381
439 0.1684034791428044 0.944664807040922
440 0.11565466187313611 0.6741129272579695
441 0.49880402324979023 0.052560834745214335
442 0.9359664510634985 0.6446295657323261
443 0.9221856167358852 6.853389784122754e-05
444 0.019767975563439233 0.5653880117926383
445 0.2821069894464462 0.18693707488917866
446 0.6473500661343007 0.3247269497884724
447 0.1596615303758394 0.9424178341908452
448 0.29315741710074317 0.5375265633024714
449 0.8145961922252324 0.978475101401246
450 0.35717312257348 0.15541053398867766
451 0.4788189592181352 0.645100157273904
452 0.3903227944114557 0.28337024106376485
453 0.6213860899667212 0.8766085976053489
454 0.8598427631671047 0.619634269563213
455 0.07885854723790975 0.8625578471295512
456 0.36834585327029257 0.11168294999535222
457 0.10589827209155689 0.8900770480523377
458 0.9626433689507778 0.7383140340639505
459 0.5595865499402564 0.21383259912582753
460 0.5059993677565016 0.9634435709244036
461 0.3660318925268068 0.24815893342024797
462 0.9363720038586781 0.7698697520104576
463 0.4796113899512868 0.24898935982004122
464 0.7161602840124275 0.35792097277011803
465 0.19757033552792558 0.5858883810340745
466 0.807389280462944 0.2225363784682235
467 0.467642821040544 0.6540544727336495
468 0.06164279150369034 0.5289878780790115
469 0.27734342193416284 0.07305744713330142
470 0.5391605804587364 0.7442233328501305
471 0.28278847140110774 0.6801924960076681
472 0.9313020409890423 0.018615565491839625
473 0.2924454995313974 0.2179403119707224
474 0.9862033911350101 0.6432433437566865
475 0.8840660719325875 0.5369530729191657
476 0.7429220100942417 0.8672344843878653
477 0.26402927686390665 0.7635927955865451
478 0.04664414407738138 0.06556432439656579
479 0.47115321005153044 0.5806294845620193
480 0.1394576570943601 0.16403247093235385
481 0.2106418460353905 0.5596664195265804
482 0.8024333088122891 0.823817459361583
483 0.07670588562085623 0.30170574656601823
484 0.18148509881950403 0.8830172118851369
485 0.19470788704696473 0.2822662594672857
486 0.9823367436060425 0.04533290090463438
487 0.6471981782730716 0.8899935681563649
488 0.7887980271559043 0.7228916832700433
489 0.922017456223862 0.7240335962737291
490 0.2784208618066354 0.6560519491746627
491 0.6665672923304604 0.8483756906248611
492 0.3780716980793173 0.3127475810430208
493 0.12423136112969102 0.6303353799531043
494 0.21552426689255078 0.8491209035950087
495 0.11526168850290397 0.7081310320379032
496 0.8961148326125987 0.3687832775913302
497 0.5627729849906673 0.4028475517645518
498 0.7153404969321745 0.9201157629173199
499 0.14115005936278757 0.08689635279261743
500 0.9569123666161118 0.5056664289297381
501 0.8818090041629068 0.04327294963841877
502 0.24034104537720247 0.5518538326826603
503 0.5605460731029915 0.3237895698803961
504 0.08695127282756232 0.43211318079506045
505 0.0874476303357864 0.7346142088693068
506 0.18219264552926162 0.04480473535125984
507 0.035732914862891874 0.20655579321713624
508 0.4859748324419454 0.3852191852537272
509 0.38942973928892055 0.8209512239606672
510 0.5302393446378754 0.5108546624945356
511 0.2579058213858747 0.5395036735748625
512 0.3766517225986423 0.10427073112560581
513 0.2682542909561777 0.8466404884946199
514 0.7533499827996462 0.8605578228956478
515 0.115323604544737 0.16070923771574763
516 0.3097165803259887 0.2790602387384381
517 0.8165979748605855 0.0011129474915922977
518 0.47683323908803854 0.037770288586817746
519 0.6659528871424666 0.599750011508687
520 0.7988356962004814 0.8155889119524901
521 0.08969127441663072 0.578593093467682
522 0.46292991327849686 0.8157698573608919
523 0.2156276662230322 0.6442014091007064
524 0.0945254807502407 0.7177152170705121
525 0.000417790590396816 0.3725420624984158
526 0.2968552880718187 0.034280911920500534
527 0.5047787727343659 0.26723623507198757
528 0.17248111014932033 0.8258178550663228
529 0.889916526789486 0.6895270559538387
530 0.4309050014283232 0.9077399411412128
531 0.7991722418790763 0.6933480718867323
532 0.5026434128311711 0.19561902866577452
533 0.10049815345153945 0.8375953970510426
534 0.5452318620403827 0.6136935481427647
535 0.15342554819997478 0.7264070755224358
536 0.4636063388402185 0.9449808713436503
537 0.9404697624780812 0.9815468528466342
538 0.5778545569503809 0.19458414457885242
539 0.7191462395205329 0.7400634778447905
540 0.48023346277025414 0.9103836264396242
541 0.7485932059911392 0.24416687721397312
542 0.4238853451929304 0.40313230225010654
543 0.9485055934520568 0.4372677034397666
544 0.9235386372683471 0.2865867219643502
545 0.8431021940317293 0.9355672449682195
546 0.6042469482897511 0.6086067926282129
547 0.1918090462262767 0.5407547752392601
548 0.4110423270548176 0.5908992155812227
549 0.9959194835741477 0.37603331573013077
550 0.1851224096565327 0.7894936686602728
551 0.5777127228397716 0.40658851093014514
552 0.8112253846715002 0.4262617702476694
553 0.30910064596048226 0.9437768153435135
554 0.04411160416804605 0.8651311840283777
555 0.576204409586909 0.756798558985198
556 0.12915503127963335 0.48955144065540157
557 0.4005549978139764 0.19445963283864476
558 0.04749569780816432 0.9913062203643161
559 0.31523138076956503 0.2191289532178815
560 0.6122277065515966 0.31323974112079633
561 0.7571074661317958 0.3564295892947008
562 0.6237855977900316 0.5638490232611506
563 0.26275780600913157 0.8894018985044734
564 0.7492235556752997 0.9641170154286848
565 0.17403480721099307 0.062784141491256
566 0.44557279367706115 0.9916731686546828
567 0.20255350702133745 0.07971295837696768
568 0.783073704924065 0.9060985267737965
569 0.631259445903605 0.7920492735068461
570 0.5602782683600043 0.4649381053568665
571 0.9520406558293416 0.39819572227894984
572 0.2882745135822651 0.45623732011348916
573 0.4151829473170554 0.6275919540797309
574 0.8236861170375378 0.29426555918593955
575 0.3873066166443737 0.9655331609454537
576 0.45039132911889457 0.6038215182387928
577 0.3329219960118721 0.8359172814972732
578 0.8670963504461139 0.08961115963663291
579 0.22392943670968168 0.725090398449098
580 0.34889812913479135 0.11773820248467215
581 0.5114974054954353 0.8685573384705807
582 0.04454284555983801 0.7517932389794652
583 0.16036038492055182 0.542212024044182
584 0.9219467625171205 0.019132934766874277
585 0.5763062442915118 0.5486936868380172
586 0.9095202614957175 0.1474306992963641
587 0.7060432671254384 0.5680290011010707
588 0.08654366383191814 0.13441152021022562
589 0.6820754126932566 0.09017692914372633
590 0.9349395451942939 0.2715903507760883
591 0.8836738485875544 0.8716911816530377
592 0.32704649786061357 0.09315792525254796
593 0.1978003644072961 0.3281533616333909
594 0.7242749878425261 0.42019936457936546
595 0.2153686775067576 0.6422351409421402
596 0.43868689391315596 0.013486964056129591
597 0.8068913086844172 0.26160715260498446
598 0.36121308261491347 0.9844594228335576
599 0.7196203640775665 0.8709117136988792
600 0.142948217284261 0.5988772191385809
601 0.6764286695685111 0.4643612182431548
602 0.44049146575602227 0.7143324704382986
603 0.39098979301733516 0.416919275004769
604 0.9273156188381237 0.8438670918727165
605 0.7116088920844256 0.87233828238979
606 0.20060864102169762 0.045563307896452465
607 0.49112370047132015 0.14571018989645457
608 0.5270048440399515 0.8176008772719296
609 0.7243507930302607 0.5330640344788348
610 0.030659300353664154 0.2989710381918689
611 0.339471443122655 0.9625894061529938
612 0.42451115175531096 0.6129692488704106
613 0.19261617814094445 0.8926148568030382
614 0.8107273570221327 0.5328069896926683
615 0.0677068160621983 0.36124249955195187
616 0.6747221976520119 0.8610615706618129
617 0.6674029247361788 0.6206701802519531
618 0.5826405448987303 0.06698231187591464
619 0.37207821587942447 0.15556223171596661
620 0.10265923288208545 0.6670038418926534
621 0.16771979614242793 0.17944402671255533
622 0.859454697473344 0.15456487824812293
623 0.2652597462947305 0.9030735618478466
624 0.8240147247572583 0.995874123707003
625 0.7811448925793226 0.0097840574844682
626 0.38074851808411014 0.9484371861271722
627 0.35661468583334077 0.17712520274386812
628 0.4616007625924532 0.07811399209431624
629 0.46166579468139224 0.49354922990948824
630 0.7234373148881967 0.22389205916592536
631 0.5681330037433805 0.30676499353601483
632 0.8906669658818568 0.33427807050149616
633 0.9716454140250275 0.35603499630903435
634 0.34133683881983334 0.5087685069965016
635 0.3811196793091989 0.18116773570931344
636 0.9879180939810485 0.281244309680471
637 0.6263965092858182 0.1910913148745187
638 0.6663227235170848 0.9787274274597998
639 0.4074345097726513 0.06891153448699949
640 0.9130900627344443 0.6964009340873077
641 0.734392882483958 0.9654889010123345
642 0.5299640647682297 0.766802058364699
643 0.879203953991244 0.11633025176415202
644 0.19793045695300648 0.5341721055808769
645 0.3138822099599512 0.9214668997242863
646 0.7104629699100478 0.7728382034794572
647 0.8963844461165865 0.6239187134543832
648 0.6593539452415536 0.666397747410758
649 0.8729469834477914 0.48575638891610506
650 0.30258401764139675 0.6732673981659935
651 0.13574151430087766 0.37916293267104173
652 0.5769771151730995 0.2671572960433666
653 0.4608370570193586 0.40697389725644206
654 0.4584919035808813 0.8091363844391735
655 0.2733326543564417 0.7475322527628958
656 0.0565460982817656 0.15081413035920577
657 0.5950370002943115 0.23174521747837185
658 0.5071467317618265 0.5888641403461577
659 0.4297850554929342 0.908416111973446
660 0.5319362579080927 0.4463952367881002
661 0.6544002740111357 0.8260466225175456
662 0.056787246136195124 0.9373106698523447
663 0.6656226037774574 0.534691984795927
664 0.8364112663094778 0.38843044032298657
665 0.7586855353310199 0.47186380605049427
666 0.17538797813886164 0.1136333039805747
667 0.25219295789546436 0.6395147169296147
668 0.6290980376280361 0.4932764367809922
669 0.18439643723547094 0.5484293414562208
670 0.594367222837918 0.8474447384405409
671 0.3480674986768446 0.08377162865941479
672 0.07625011684844529 0.4471068501433596
673 0.014708657202750941 0.023404419408848853
674 0.5089791965663054 0.42970430187655106
675 0.19229181217901625 0.3731757556015871
676 0.19752904803857219 0.8736042896813411
677 0.6698403436771804 0.4442574067613202
678 0.9025643126847032 0.9932842663518174
679 0.05838033606882331 0.6456466814411898
680 0.3837873017268596 0.23828262101189734
681 0.31508178376616636 0.45917149318598105
682 0.6461798722785841 0.3899980834325487
683 0.2977007591029691 0.8724104672959693
684 0.06945634828707292 0.09768290524252121
685 0.18269400159653448 0.24352377913105727
686 0.9533897097678167 0.6676717380066479
687 0.04478020110614034 0.26736480810745744
688 0.1402041460492286 0.6874675273706198
689 0.4444206055872033 0.6185079261110341
690 0.8468474169198603 0.17472008851282983
691 0.8273305298370396 0.04946780150545027
692 0.6779252672977447 0.4747361786595866
693 0.17288673917078445 0.07426700825635857
694 0.6075894108874301 0.047493804350132396
695 0.08242590355631252 0.31721918555066186
696 0.9864631780523988 0.9009687473894661
697 0.24366480943357416 0.399907159419543
698 0.6180492042914186 0.22340599717869913
699 0.257167573071861 0.4886127058320797
700 0.24850763422695943 0.15010516471117508
701 0.5519388846858663 0.648182073957297
702 0.3690829779411978 0.2116452229007596
703 0.7906616847856176 0.5706142329798641
704 0.5250015423148352 0.6834546063441269
705 0.1503330818844134 0.46132634439012055
706 0.18453004577758092 0.99624192118538
707 0.48203205073745437 0.5249676660081654
708 0.32555503845795286 0.4387695628934394
709 0.28746530838313955 0.19825733293078107
710 0.17738691712014987 0.6791103252884468
711 0.1214774886082427 0.10162918179184088
712 0.9513921838211727 0.5350489893795044
713 0.04201756737884865 0.826678648632432
714 0.7730923948663792 0.44885195372429953
715 0.7276531956422807 0.37407131510568836
716 0.23934096584573794 0.4973232235413879
717 0.16857725260039502 0.916785673557744
718 0.21675738958400503 0.5652357238098733
719 0.9818553038840228 0.20700879612488476
720 0.646120966285002 0.06918452810775788
721 0.22566980930730118 0.7899908746718078
722 0.9764883639622075 0.4179529013592844
723 0.5954226749318963 0.7588421791876828
724 0.1761327410104676 0.7306010443234663
725 0.9610353106107505 0.3467862635384552
726 0.12016955334769841 0.6608699790400754
727 0.45106407279200766 0.9760140877149863
728 0.6289678699181018 0.7607497205558618
729 0.6857359544824001 0.6276706498945415
730 0.7560642386753633 0.01121012647675701
731 0.44910778961229514 0.7117414906206995
732 0.4651740673172904 0.7218682027246588
733 0.5810307489390604 0.4811517068549709
734 0.5675199095984454 0.5699409760910296
735 0.8430066614868099 0.748757336141309
736 0.556513837503345 0.9025112353079473
737 0.654816374895574 0.7140087800690985
738 0.5451163116034903 0.8397173314483686
739 0.5542488628347256 0.9663612337263717
740 0.7237376276124932 0.44761800324423484
741 0.24094343151906905 0.792748493462255
742 0.2467334234826687 0.5685231333340038
743 0.12176593761645627 0.9877363212047818
744 0.7446944190949639 0.9198505840992593
745 0.9627207529497478 0.23107845993994203
746 0.28870194406914074 0.5327813458311732
747 0.06178373668519155 0.930613101617579
748 0.9232314026594517 0.01689054815989488
749 0.2504401342707143 0.0912664546417038
750 0.10102013921251385 0.509211707326775
751 0.5450332531019968 0.4136293273313548
752 0.3041780174818549 0.6304890798217104
753 0.14197051351953227 0.6095687783263242
754 0.9271891262692152 0.31730574767875597
755 0.9023146174403436 0.17335639253257407
756 0.7931309541069452 0.4412844375070216
757 0.8462645254281724 0.9865106240905659
758 0.5034476859419005 0.7118234240026134
759 0.5837589738433978 0.4963201706551983
760 0.22974972145482353 0.6923029202487762
761 0.006727959407294648 0.3510531195261877
762 0.0705372871218124 0.3656820649236737
763 0.47640081420626834 0.5191692519900345
764 0.3335728974154919 0.3166007748166699
765 0.6711681313736452 0.16818942521951186
766 0.6855543358207344 0.4527792650085045
767 0.26886293459878774 0.7325154801301976
768 0.6083297623872178 0.38612304721392054
769 0.866619306649997 0.7480205938830944
770 0.8834371730991435 0.41695656918464363
771 0.6661681427235291 0.11796789762561188
772 0.5434526076749772 0.7522323558940461
773 0.9983708474324747 0.639745691755385
774 0.4140786893857583 0.8381666590348766
775 0.08938834190521028 0.2174232383006175
776 0.8650862783366283 0.8618347630900369
777 0.2692660080098054 0.731129754516108
778 0.7636791573544776 0.7912792934432674
779 0.6597419897266824 0.48149414457702355
780 0.16574574554773458 0.1351038850871762
781 0.13978979371536893 0.860214599289046
782 0.6595518095217692 0.6904863239401191
783 0.9113651320797929 0.481045928859148
784 0.5722080349450761 0.7746276376217711
785 0.26657787638917874 0.9185685445994896
786 0.4070009136584509 0.9626610992964949
787 0.6381161009812618 0.33799683135466896
788 0.19240819811590515 0.9355316152731904
789 0.6364626100952826 0.6815971927318144
790 0.13540537259463914 0.9331263243357051
791 0.741127852297329 0.15740589253200477
792 0.25654855631439344 0.4704650695582582
793 0.8655757704075432 0.0661022404799756
794 0.4499750194171388 0.5964369555181883
795 0.0426597736752512 0.6340744283052281
796 0.03627278582711535 0.9143768861065639
797 0.6088406779488709 0.6447476078719088
798 0.6892502555883298 0.6851658513226637
799 0.1700781356222092 0.42183289553256564
800 0.8214064591016904 0.17650160051490194
801 0.8520129375155152 0.9311413530960126
802 0.7017991231118564 0.2880593187804993
803 0.12951286447836596 0.5606708055691207
804 0.8218617343965111 0.005712617374956208
805 0.48730364490432565 0.6979006195045928
806 0.011264130438180864 0.643811435136434
807 0.5949048465413905 0.7696350602343109
808 0.6295923883506536 0.19052140454765254
809 0.4698980834426669 0.6568751283924359
810 0.34668727372404007 0.5857400874297686
811 0.8954348675076185 0.11738893903241898
812 0.013332389313681858 0.08490188251674335
813 0.40199307348328905 0.05059339237484828
814 0.5589172049510386 0.7224283669141237
815 0.3378122459795121 0.33108278223165044
816 0.10321109683454344 0.5623571733826992
817 0.6229743225498494 0.18187186965208268
818 0.4525347650177769 0.947867395005393
819 0.15158304217824092 0.9099847588670461
820 0.3882660683708441 0.10674839075093445
821 0.6492727699558375 0.6556761561436008
822 0.8847165846659341 0.7439709690604489
823 0.30960197074073725 0.5780049272606597
824 0.3535279894717803 0.128873200441169
825 0.4266384649132585 0.7565291744361076
826 0.3725161152587836 0.8082239766459279
827 0.7741551776904566 0.4783543045247778
828 0.03573958560374557 0.3495646571649105
829 0.6454207256025929 0.5102503807313119
830 0.650279844578136 0.805537598773059
831 0.5711658644780528 0.4411076170356568
832 0.9986789499307793 0.4552038865565703
833 0.2825654132539769 0.43159552444755234
834 0.361909507065303 0.7155664031528938
835 0.1538472182255407 0.8932384688291922
836 0.43884086967265323 0.19468858783390375
837 0.6395962883075658 0.8224158730418347
838 0.08455302430274447 0.08449419370250955
839 0.2092117442994671 0.7847466927766252
840 0.34507337358479384 0.426877064119483
841 0.5759548117441311 0.8510545175447608
842 0.4951988416113179 0.8397347143423172
843 0.3568238884746301 0.3799597066614878
844 0.0538298913042915 0.9846804868394655
845 0.5324846189777708 0.7602759372731145
846 0.7084903884548909 0.1486634207221348
847 0.29888792237612793 0.8861841891008337
848 0.19962668980538223 0.4213522071889304
849 0.6837161802408515 0.050742103765214486
850 0.20721676594232685 0.43463120226911967
851 0.1293236181992049 0.33472895593966023
852 0.9913467576975243 0.7830529322115523
853 0.03120209625701631 0.34539833344557047
854 0.40926149883365315 0.09497218447561839
855 0.7446130410003095 0.6948935091769951
856 0.2188408969274337 0.425018286682711
857 0.39568512407393686 0.8472221101664538
858 0.7541952526824837 0.11559154740114064
859 0.19771646033603973 0.0017581102468566812
860 0.23009914365057849 0.6472334695907328
861 0.9665234530424271 0.23790274821377477
862 0.973741653136556 0.5417095125286702
863 0.1577286611461476 0.4831983078963652
864 0.04487146545093712 0.5373843641962373
865 0.09962173855372447 0.7318487028694591
866 0.09339458106455445 0.33459291733228214
867 0.48495086206154214 0.429714339316564
868 0.2621161938502691 0.6813459533924947
869 0.5564043798905447 0.3818010419484913
870 0.020871335087726095 0.9451695804304165
871 0.3688871942636269 0.5104819488108223
872 0.802080450868993 0.07379080995850684
873 0.36007640409450703 0.34422589271083703
874 0.9402311840604407 0.009343962409635531
875 0.2177482618569867 0.055557230509682864
876 0.14969770816436612 0.19973740422369057
877 0.8025050012953582 0.4581343649042422
878 0.41317667796902113 0.40140694709651425
879 0.9919747070374518 0.22966892675537953
880 0.16593657572377662 0.8758076842147117
881 0.5737971927961614 0.6579706399464283
882 0.9563282551895698 0.6308073013822929
883 0.9934462550122791 0.7625612718800263
884 0.40262823424657723 0.12707341155633645
885 0.567675855086317 0.9259962267407814
886 0.7318433820221354 0.39101423669520563
887 0.45027818062084757 0.20372938075345237
888 0.7796186573977508 0.21883910666161
889 0.6186429768267677 0.13948625914817536
890 0.4122567871572451 0.5567969661996134
891 0.7726211077855537 0.4979320248132878
892 0.7979922244977444 0.18121571349091203
893 0.6882284164366445 0.44021534191226275
894 0.8783714714935615 0.12470945046721449
895 0.5127128273582698 0.5560641540068513
896 0.4158517376295294 0.9243820567986017
897 0.8428364980946133 0.7752529542488842
898 0.9526663533616725 0.32331261591740545
899 0.7349584160428643 0.5589713994411176
900 0.04439080830963216 0.8180316491896605
901 0.9401964257877585 0.4423668461568182
902 0.2980790665865166 0.110340565325722
903 0.20580015148431174 0.04893058864897992
904 0.8918204903624549 0.45569314818631146
905 0.42598289042374693 0.7818104988241639
906 0.4005542815126125 0.0906999966182852
907 0.15188417342406557 0.004401199078606144
908 0.4758086154345762 0.6921879454912221
909 0.30869217647358915 0.2235022766414807
910 0.05574355768790651 0.9115281248922711
911 0.8834894461973594 0.7050902488024462
912 0.7046569119842377 0.2856172122295857
913 0.008653108012329436 0.4560083876019385
914 0.5509372568940527 0.9106577228221618
915 0.1770086770516618 0.4543524413168266
916 0.4121904467572084 0.5404304789525382
917 0.5248833517019499 0.07674316434516582
918 0.7643557680704551 0.7431052293849684
919 0.7753289764547235 0.2507472667123736
920 0.750965949734657 0.7037215942599435
921 0.08871465620959051 0.6530352831354105
922 0.6169470584587046 0.38348367889175494
923 0.3165687381190059 0.5501470894993375
924 0.16251770897751083 0.3435791419295965
925 0.6000465390884654 0.7882702615255428
926 0.8661572513035829 0.9393242094030885
927 0.9075263398936592 0.6795141967956818
928 0.9420320371852103 0.21384109349644176
929 0.47325925034912153 0.6220507581936254
930 0.39130663578370906 0.9031001903694581
931 0.2502946869280871 0.34013302613384955
932 0.406112215965463 0.8573035591675245
933 0.3893180521794648 0.33728181236653487
934 0.034096409866246846 0.5719548125832132
935 0.8666434048691181 0.07414692540129841
936 0.046210478849017855 0.01679867332241125
937 0.802870299384803 0.8478533594332892
938 0.4700012533812086 0.5503262221132251
939 0.4861089469755101 0.8344124811263357
940 0.524060517493402 0.53824457489521
941 0.4405099871053858 0.6301186057157024
942 0.49457948904153126 0.6914396568311825
943 0.18883810760051267 0.5409758234713617
944 0.04953536184477669 0.493756350373147
945 0.2663281511416524 0.1713020331278019
946 0.7786306258088558 0.20607700838431886
947 0.8676001004732417 0.4163061229859457
948 0.9072273349941168 0.974574616575791
949 0.014668618051849491 0.24346743362509216
950 0.15435294919802522 0.2615731791605983
951 0.6231005747528554 0.7341981281780487
952 0.3549526242365002 0.427469372832456
953 0.9044301908569337 0.3444996995868984
954 0.9749606593000953 0.545846098281199
955 0.6204849325282793 0.42240859177850365
956 0.47827650817158496 0.25844111864927843
957 0.7634061735528813 0.13445847244824216
958 0.5466235606010182 0.30086833627814347
959 0.981789850316552 0.9787961030059946
960 0.9458102803329106 0.8731675281257064
961 0.10382963601583162 0.8352700626286181
962 0.16574496284737972 0.15374759834185348
963 0.0573982607714576 0.6905313874050248
964 0.13870496586633696 0.14950776886980888
965 0.8374915429156786 0.5059228588147864
966 0.821789056665624 0.17799285810712162
967 0.9906277705738593 0.9055454585911301
968 0.47593402343118574 0.8822542954722702
969 0.7220145536599658 0.014807169718675017
970 0.5971081918651969 0.10980125983554612
971 0.12250519676553673 0.41199444536355057
972 0.7589304786613315 0.9851219164675978
973 0.8421433560633867 0.768060301765035
974 0.580618881525611 0.8429136591080578
975 0.6518892961416525 0.2655978540674825
976 0.34953360509619325 0.3786560086797368
977 0.3945151579414794 0.5842731168459264
978 0.8772752095940264 0.4487306814389228
979 0.06843988720080607 0.7815355549671251
980 0.2226736079833339 0.10598196882619193
981 0.3454949852590464 0.5712260904653128
982 0.3998793033119177 0.5661118149823238
983 0.651902619287625 0.514534529786977
984 0.051920589272916096 0.3191460916565685
985 0.7167416853327393 0.5554324159408937
986 0.5031240628418394 0.4206507840954562
987 0.5726471168418275 0.5146238220710864
988 0.09196800265539395 0.09929269721594602
989 0.0255402192511186 0.3261514419952478
990 0.5910811718729875 0.6943029341979636
991 0.12539778705775984 0.9443801262665793
992 0.6950155929092547 0.9333614352750657
993 0.7724386244289821 0.05274155151309723
994 0.971729317468893 0.4178509450302651
995 0.5577851012771856 0.06727806762501065
996 0.8994758144561126 0.3820069489608008
997 0.7408213684935521 0.7207034960728321
998 0.9962067195516359 0.4353901441986173
999 0.29303154558957434 0.6348213625627166
1000 0.07494119117026166 0.8491920661304891
1001 0.44573526482643033 0.05018621789857447
DEMAND_SECTION
1 0
2 5
3 8
4 9
5 2
6 1
7 5
8 3
9 5
10 7
11 9
12 3
13 4
14 2
15 4
16 4
17 3
18 6
19 8
20 1
21 7
22 5
23 1
24 7
25 6
26 3
27 7
28 7
29 1
30 6
31 9
32 5
33 2
34 3
35 3
36 1
37 8
38 1
39 1
40 5
41 7
42 2
43 4
44 6
45 4
46 6
47 4
48 2
49 2
50 2
51 4
52 5
53 7
54 7
55 7
56 6
57 5
58 1
59 2
60 2
61 8
62 1
63 3
64 1
65 8
66 2
67 6
68 1
69 7
70 4
71 4
72 2
73 6
74 9
75 9
76 8
77 3
78 1
79 2
80 2
81 2
82 9
83 8
84 8
85 4
86 4
87 7
88 5
89 8
90 5
91 2
92 5
93 7
94 4
95 7
96 9
97 5
98 5
99 2
100 6
101 7
102 5
103 9
104 8
105 1
106 1
107 9
108 1
109 5
110 7
111 6
112 5
113 7
114 6
115 9
116 7
117 4
118 2
119 9
120 9
121 3
122 9
123 3
124 2
125 8
126 7
127 8
128 5
129 8
130 7
131 5
132 4
133 7
134 5
135 9
136 2
137 4
138 2
139 7
140 5
141 9
142 2
143 9
144 2
145 6
146 5
147 3
148 1
149 2
150 1
151 5
152 1
153 3
154 6
155 3
156 8
157 2
158 5
159 8
160 5
161 1
162 2
163 1
164 3
165 6
166 8
167 7
168 1
169 7
170 2
171 5
172 2
173 6
174 4
175 8
176 2
177 1
178 1
179 5
180 6
181 2
182 2
183 3
184 6
185 9
186 1
187 4
188 1
189 2
190 9
191 8
192 7
193 8
194 6
195 4
196 9
197 2
198 8
199 3
200 2
201 1
202 1
203 1
204 3
205 5
206 4
207 6
208 9
209 8
210 1
211 6
212 3
213 5
214 4
215 4
216 5
217 6
218 5
219 1
220 7
221 5
222 5
223 2
224 5
225 1
226 9
227 2
228 9
229 4
230 9
231 6
232 9
233 8
234 1
235 9
236 7
237 7
238 6
239 9
240 5
241 9
242 4
243 2
244 1
245 6
246 5
247 1
248 3
249 7
250 4
251 5
252 6
253 3
254 7
255 1
256 3
257 4
258 1
259 2
260 5
261 2
262 5
263 9
264 4
265 8
266 5
267 5
268 9
269 7
270 4
271 7
272 7
273 8
274 1
275 5
276 3
277 4
278 3
279 9
280 8
281 3
282 9
283 7
284 8
285 6
286 9
287 3
288 8
289 8
290 9
291 7
292 4
293 7
294 7
295 3
296 7
297 6
298 3
299 9
300 5
301 5
302 3
303 6
304 3
305 7
306 1
307 7
308 9
309 6
310 5
311 3
312 2
313 2
314 5
315 7
316 6
317 3
318 8
319 1
320 3
321 9
322 4
323 7
324 3
325 3
326 1
327 1
328 1
329 1
330 6
331 6
332 2
333 3
334 8
335 9
336 9
337 4
338 6
339 3
340 6
341 5
342 1
343 5
344 2
345 2
346 9
347 6
348 7
349 1
350 8
351 7
352 8
353 3
354 1
355 9
356 6
357 4
358 7
359 3
360 4
361 7
362 4
363 4
364 2
365 4
366 5
367 7
368 9
369 1
370 9
371 4
372 9
373 8
374 3
375 8
376 9
377 7
378 4
379 1
380 4
381 9
382 6
383 3
384 9
385 6
386 1
387 5
388 4
389 9
390 5
391 5
392 4
393 7
394 2
395 9
396 5
397 8
398 1
399 7
400 3
401 1
402 3
403 9
404 9
405 3
406 6
407 6
408 2
409 2
410 1
411 2
412 5
413 7
414 2
415 3
416 8
417 3
418 6
419 5
420 8
421 9
422 2
423 4
424 9
425 6
426 3
427 2
428 9
429 6
430 8
431 5
432 1
433 5
434 4
435 5
436 8
437 2
438 6
439 2
440 5
441 3
442 1
443 4
444 3
445 2
446 1
447 7
448 4
449 2
450 6
451 7
452 3
453 5
454 1
455 8
456 7
457 3
458 8
459 8
460 4
461 1
462 2
463 4
464 9
465 7
466 8
467 3
468 5
469 1
470 8
471 1
472 9
473 7
474 6
475 9
476 9
477 3
478 2
479 5
480 6
481 1
482 3
483 7
484 9
485 9
486 8
487 4
488 5
489 2
490 7
491 4
492 1
493 4
494 6
495 9
496 7
497 7
498 6
499 2
500 6
501 1
502 9
503 5
504 3
505 4
506 2
507 9
508 3
509 3
510 6
511 2
512 7
513 4
514 2
515 7
516 9
517 7
518 9
519 6
520 9
521 3
522 5
523 3
524 7
525 1
526 1
527 1
528 5
529 2
530 9
531 5
532 2
533 4
534 7
535 7
536 3
537 5
538 5
539 3
540 6
541 8
542 4
543 9
544 7
545 1
546 7
547 5
548 6
549 1
550 4
551 2
552 4
553 2
554 6
555 7
556 7
557 5
558 5
559 2
560 1
561 1
562 6
563 1
564 9
565 8
566 2
567 3
568 4
569 6
570 9
571 2
572 3
573 8
574 5
575 4
576 4
577 9
578 3
579 8
580 1
581 5
582 5
583 5
584 9
585 5
586 6
587 2
588 1
589 6
590 1
591 1
592 8
593 8
594 1
595 2
596 9
597 6
598 5
599 5
600 1
601 1
602 9
603 8
604 6
605 7
606 5
607 4
608 6
609 2
610 2
611 8
612 5
613 7
614 3
615 3
616 6
617 3
618 1
619 9
620 9
621 1
622 5
623 8
624 6
625 3
626 4
627 6
628 9
629 2
630 6
631 4
632 4
633 7
634 8
635 8
636 4
637 8
638 4
639 4
640 5
641 2
642 6
643 3
644 1
645 5
646 7
647 1
648 7
649 9
650 8
651 2
652 5
653 9
654 4
655 5
656 2
657 4
658 3
659 7
660 7
661 4
662 8
663 2
664 4
665 1
666 2
667 1
668 6
669 7
670 7
671 4
672 3
673 9
674 4
675 8
676 9
677 7
678 9
679 1
680 4
681 7
682 3
683 2
684 1
685 3
686 8
687 2
688 2
689 2
690 8
691 1
692 2
693 8
694 4
695 7
696 5
697 7
698 1
699 3
700 6
701 9
702 4
703 8
704 5
705 4
706 8
707 8
708 2
709 2
710 7
711 6
712 8
713 7
714 1
715 3
716 3
717 6
718 5
719 3
720 7
721 6
722 4
723 5
724 5
725 8
726 7
727 7
728 6
729 7
730 6
731 1
732 6
733 7
734 1
735 2
736 6
737 3
738 2
739 5
740 5
741 9
742 6
743 9
744 7
745 5
746 6
747 7
748 2
749 3
750 6
751 4
752 5
753 9
754 6
755 8
756 5
757 1
758 6
759 2
760 1
761 7
762 5
763 5
764 5
765 5
766 8
767 4
768 8
769 4
770 1
771 7
772 4
773 3
774 7
775 9
776 6
777 1
778 2
779 8
780 5
781 5
782 6
783 9
784 2
785 1
786 9
787 7
788 5
789 9
790 9
791 6
792 9
793 8
794 4
795 8
796 7
797 7
798 6
799 1
800 3
801 7
802 6
803 3
804 3
805 9
806 2
807 9
808 7
809 8
810 4
811 3
812 5
813 7
814 7
815 8
816 2
817 5
818 1
819 7
820 7
821 9
822 7
823 9
824 6
825 6
826 1
827 9
828 8
829 1
830 3
831 6
832 6
833 3
834 7
835 4
836 7
837 1
838 4
839 6
840 4
841 9
842 5
843 4
844 1
845 8
846 1
847 6
848 4
849 7
850 8
851 1
852 5
853 1
854 6
855 6
856 1
857 6
858 1
859 8
860 9
861 7
862 2
863 3
864 8
865 3
866 3
867 8
868 7
869 1
870 8
871 3
872 4
873 6
874 7
875 2
876 7
877 8
878 6
879 2
880 5
881 3
882 5
883 9
884 5
885 3
886 7
887 9
888 5
889 3
890 3
891 3
892 7
893 9
894 6
895 2
896 8
897 7
898 8
899 1
900 7
901 3
902 5
903 7
904 7
905 3
906 6
907 8
908 9
909 7
910 4
911 1
912 7
913 4
914 7
915 3
916 9
917 5
918 6
919 5
920 8
921 6
922 2
923 8
924 9
925 5
926 8
927 6
928 9
929 4
930 5
931 9
932 2
933 7
934 4
935 3
936 3
937 5
938 5
939 2
940 9
941 1
942 8
943 2
944 2
945 1
946 7
947 6
948 8
949 7
950 1
951 6
952 3
953 8
954 2
955 6
956 4
957 5
958 9
959 8
960 4
961 4
962 5
963 5
964 9
965 1
966 3
967 4
968 6
969 5
970 9
971 6
972 3
973 8
974 5
975 5
976 6
977 4
978 4
979 6
980 1
981 1
982 5
983 7
984 7
985 6
986 4
987 4
988 5
989 2
990 4
991 7
992 9
993 8
994 6
995 6
996 3
997 2
998 5
999 2
1000 4
1001 9
DEPOT_SECTION
1
-1
EOF
