NAME : gen1000_013
COMMENT : uniform customers, demands 1..9, generated by bench/make_tuning_set.py
TYPE : CVRP
DIMENSION : 1001
EDGE_WEIGHT_TYPE : EUC_2D
CAPACITY : 200
NODE_COORD_SECTION
1 0.46361157125261043 0.27735549067151444
2 0.6640598074913155 0.7993424521615665
3 0.4645906866212053 0.10505572166341504
4 0.2025684431568603 0.7045199449820354
5 0.869043874742778 0.5181940723739794
6 0.8035533338641134 0.17424015101295454
7 0.438237274882476 0.47191643532514815
8 0.9864113458830055 0.3269561096265833
9 0.8693166664968873 0.6280150538178446
10 0.18143209692343287 0.9826286998492333
11 0.4836872132723641 0.6763489281209967
12 0.37382081386806476 0.21244109850453963
13 0.07176791333463561 0.5575879354398822
14 0.08740015201723628 0.6565695328738081
15 0.3886983299520881 0.5977469861448869
16 0.0530264631472972 0.676007775567658
17 0.5631240114364833 0.5189815903899158
18 0.23160044067579355 0.3850026251317066
19 0.4858289814182376 0.24546452656780182
20 0.8257587503955309 0.23196449985458045
21 0.10401371213096666 0.4826217882033633
22 0.30085315009049896 0.9079941796587809
23 0.2806044613815847 0.6954562147037432
24 0.8242556065434273 0.38110021321454424
25 0.4694705885330617 0.8112038837368865
26 0.21961880904406927 0.2746222368350747
27 0.5028859961320047 0.9839024228657999
28 0.6505361902224565 0.9609121635624875
29 0.9021722331094197 0.2493546346569182
30 0.9800180821934991 0.9500024514777119
31 0.16809205175327546 0.9830835846035398
32 0.24055218665027123 0.9242032261179149
33 0.12588999363857079 0.36066655761639954
34 0.9351085499320133 0.44099345122292033
35 0.07424977507026798 0.8544886596703279
36 0.8256871529531082 0.5447840624155724
37 0.9834000940203963 0.2041820087557804
38 0.07860748354922487 0.07286883623382534
39 0.7884990547506031 0.145696805911813
40 0.5379297078508056 0.31136898535018687
41 0.4261317667426646 0.9803694032948443
42 0.028636721576966617 0.21332207904890754
43 0.2640666712947891 0.24871401508249857
44 0.2362327183452636 0.48412876487498857
45 0.6776573153234665 0.15551345126684435
46 0.9039804889938721 0.7583821150083063
47 0.14421116041637716 0.1626502475295949
48 0.5459413491480194 0.192520249887424
49 0.9875658048477148 0.25691539729599444
50 0.23817605630126548 0.9403001373020171
51 0.7123376918835337 0.5858096458952637
52 0.2507310077052838 0.48752230105588557
53 0.6246011422633925 0.9786818374906081
54 0.26585355070173833 0.191726513597836
55 0.6521289400212721 0.5102934272375637
56 0.745037902239638 0.4048774876652015
57 0.20127410493236575 0.012297649755224294
58 0.8311721353150625 0.4164079377029516
59 0.02753416601349945 0.48195325106439435
60 0.2900599408558562 0.2941512986424548
61 0.6897820663993443 0.25509200112664154
62 0.2508711314003974 0.024417656456878323
63 0.9481320957011932 0.5071959524543664
64 0.31149869688440723 0.09836466736419824
65 0.3102926136012961 0.9148436287728738
66 0.3452699454721171 0.4287886814010864
67 0.793998704505577 0.8546857623651192
68 0.36385703864418506 0.3836659987131662
69 0.9830052793445568 0.219190266642995
70 0.907281314547693 0.1672618164636559
71 0.17879871083347487 0.017307793894781542
72 0.4761707529204229 0.5000129734190834
73 0.3972929458818515 0.1371872727370146
74 0.8059204811879641 0.31317202681640255
75 0.6374774459450926 0.08498264255768684
76 0.6014262017819242 0.7877104858482995
77 0.42499133352235685 0.36475214750933593
78 0.8405821508406033 0.3533984789358656
79 0.006263062135963282 0.3804589155700603
80 0.9253013682849689 0.10367729198480369
81 0.49051427060357145 0.7598427263208678
82 0.5681300366103745 0.12993787359463504
83 0.20749001064904304 0.17909308666124868
84 0.6943932242668225 0.6837901211310398
85 0.6184635007244076 0.18053083364400901
86 0.5737319418227879 0.22738318522030831
87 0.4234204873155065 0.5581104554968765
88 0.3056799206010318 0.9213792170258281
89 0.9051348118121346 0.5314591955100941
90 0.6329782682508306 0.7838592449278022
91 0.18096528208546958 0.11446918829751518
92 0.0806232186929905 0.37421729322689945
93 0.7148694153276206 0.5042562015690828
94 0.23323522451856693 0.002690932533482515
95 0.9884843947590743 0.8858679567007358
96 0.8024457224337768 0.9929994264300175
97 0.6814981215370064 0.3419990442084826
98 0.13303520989129414 0.9101359223525071
99 0.36032759590595065 0.390432489290349
100 0.2686465520554714 0.5176645141895123
101 0.18686766404504518 0.04807053059197186
102 0.6200789471971756 0.3203753013322602
103 0.7552698495971281 0.05245790975182707
104 0.12348660563858915 0.4190319582816483
105 0.6777374426026549 0.5501596115968787
106 0.1423761259288453 0.10368738419073642
107 0.51628443385834 0.029965557713880875
108 0.6044309509404828 0.07464305794797421
109 0.6319221770268716 0.34644702141007866
110 0.9709000142482033 0.454676847553648
111 0.6031152993109304 0.6946633625340783
112 0.28251422412211613 0.05012473115542304
113 0.6790950088656447 0.19727435407006522
114 0.6196107618976513 0.31773656183783117
115 0.22605627023108854 0.7826546314840646
116 0.9265853827501989 0.0026323742745885115
117 0.8179041230270833 0.1570214979790664
118 0.12037635156925608 0.8314487175935407
119 0.9010296395909287 0.6436149446822447
120 0.5660055502487181 0.37375131859712774
121 0.7927081182038098 0.7587702762034334
122 0.6126806104859243 0.6036564069058906
123 0.6988036892012878 0.7310828677589918
124 0.09084655856812662 0.9678110077103059
125 0.9839083148165078 0.6263077954279694
126 0.951407294670765 0.9040905651542624
127 0.20047695113503572 0.3405570009870298
128 0.8495848716774494 0.8490908980838864
129 0.6979000917486725 0.29870430937271475
130 0.7570411961661319 0.7801881024597939
131 0.17611998439938903 0.6575757466404151
132 0.45316827694491213 0.9653729020811963
133 0.746725558474064 0.15320533136531567
134 0.26276749325215754 0.5820010251587967
135 0.7200639739623588 0.9213895870077582
136 0.8753644754352757 0.5986755116488642
137 0.010822241316630121 0.5596862458211271
138 0.001886920615174259 0.3349248795947186
139 0.5228603841520207 0.9366087940051943
140 0.6921335086601257 0.2980978505051952
141 0.09446746814549756 0.11612707016097246
142 0.07310080006970399 0.3923677703488443
143 0.5718947921181671 0.20903013032338247
144 0.2265102640714577 0.9873980565590993
145 0.35859942326805283 0.9772858375228867
146 0.31946304963377026 0.013053349321974106
147 0.9304866829085691 0.009778880974521953
148 0.6661865960850915 0.5204869491766007
149 0.562578212546267 0.021166063250693368
150 0.1204117425873864 0.10169289726000563
151 0.25615247315048695 0.22440221374604974
152 0.14418976760991675 0.2623034936546086
153 0.6812768955184152 0.07350020280080327
154 0.16649759929805585 0.6020397780490448
155 0.26200191150738006 0.03243152415252959
156 0.2974867091981779 0.38694445966881175
157 0.36090305192795136 0.21961661863472937
158 0.005273010281594659 0.31117015116913616
159 0.6664930472070728 0.7381792558624806
160 0.9135671228203464 0.7171315245102399
161 0.7060863026713037 0.6530423091204817
162 0.6268449943869217 0.03630395429778155
163 0.020564964272552944 0.27641862374332704
164 0.01076023213448074 0.482272328230513
165 0.8644162424492453 0.9114795847894882
166 0.42790260458723983 0.9389800946605229
167 0.9749801071710245 0.28122205216530005
168 0.14801080696680768 0.45689299378646864
169 0.6153339172588325 0.3324659793559712
170 0.13726967063594564 0.636831042190076
171 0.1811610586804292 0.7843923788949629
172 0.5085945120744187 0.4968093078403474
173 0.9243894318165174 0.8685170936521732
174 0.12092912315563453 0.08533151288076402
175 0.21869343901620708 0.34350303189895104
176 0.17858090545148309 0.940205748652865
177 0.8233919983863377 0.9745376166879159
178 0.17471231756836858 0.31635212097281196
179 0.21438794247108295 0.5955382402674364
180 0.6902086408789007 0.49935214418354823
181 0.42616364910519344 0.9705328349157507
182 0.9651579032091255 0.34162823372302564
183 0.9688489573766528 0.6721282025562051
184 0.2890856963927305 0.1014062263328499
185 0.23850729773892654 0.3195309241409483
186 0.5123152907461648 0.5305954412803411
187 0.9962029307615827 0.7111482758096251
188 0.09709056061676424 0.2573224852771585
189 0.8063610696639519 0.6785749626011915
190 0.12011370486061601 0.311232935945682
191 0.16136602991710092 0.2822875434438602
192 0.31710953015676746 0.6009490386073166
193 0.03225317659873894 0.6615911412086035
194 0.5371972916948777 0.6738262987823607
195 0.5816485500068058 0.9266949623937897
196 0.11276870031835262 0.7265276967341645
197 0.37919903139795763 0.15904035308856457
198 0.08724381614150711 0.499857504082291
199 0.7307722319559868 0.910843481719897
200 0.22313954100661426 0.25729970094243837
201 0.6139851244619089 0.8425554383536449
202 0.0151227491779653 0.9123356618022035
203 0.07859862201189916 0.9536220466668414
204 0.8871360281931254 0.022195637592975936
205 0.7452799065315614 0.0010737982109509936
206 0.5680157592295775 0.4159623867917933
207 0.7762833868376792 0.3501121936824879
208 0.9029787326953356 0.5308434836153333
209 0.21994204862312527 0.32953888156834366
210 0.04105564257742056 0.12262228677196174
211 0.23759138495599064 0.30087516333146835
212 0.4741150709394558 0.8696591996948003
213 0.867250210789678 0.8597559624597668
214 0.6767178796535948 0.1683256310852128
215 0.2722667098248882 0.42496861599985114
216 0.9435388862600035 0.04286959022500203
217 0.4477827132922034 0.6926888451402644
218 0.17004899144922148 0.007229554934199411
219 0.06182893612596463 0.3533393906551282
220 0.27947341693864625 0.01932715849896882
221 0.8751496727700058 0.7182323317304359
222 0.6518902250410874 0.04477078511173793
223 0.20145699665028793 0.21071971970591952
224 0.02221925015769366 0.9061713980693074
225 0.6708944146222766 0.21655788310375934
226 0.22650580032767742 0.27105894544733455
227 0.3029430816527461 0.8137015875493996
228 0.4671081638740793 0.9260152336320697
229 0.4314091199418606 0.163247392178677
230 0.1451609270344255 0.3677966443725512
231 0.32375796657471034 0.0007153300558594422
232 0.8401681060482701 0.2252621880384308
233 0.7281551551803416 0.29398518332641155
234 0.471636304662318 0.19516971680960604
235 0.48508952395307003 0.614861858614741
236 0.4506240880711925 0.9519119447582064
237 0.2292200890180477 0.06936839840996378
238 0.7003136115649558 0.949125558342838
239 0.5872516317114402 0.4390911482963916
240 0.5430895365063515 0.7839700428518726
241 0.08422431435366173 0.49892787760665847
242 0.9488938768808666 0.5696901597194755
243 0.6793349401814316 0.7019313722032526
244 0.21628123952176037 0.33170802839122715
245 0.2885792528313528 0.7947606067438416
246 0.05980847216490692 0.8725827281876486
247 0.6702288202681219 0.4518839053189444
248 0.7856686256768245 0.05488650895411473
249 0.14113166020994627 0.18939036974031354
250 0.6052089701239466 0.7084998779487632
251 0.8669365884334607 0.38794117439485254
252 0.6959421277916336 0.7074205751418002
253 0.36401053264551386 0.4485560812085666
254 0.6154617504525706 0.5602702782361961
255 0.04125563004394506 0.8738460806306269
256 0.7582507241316738 0.027727972720308136
257 0.6928437843641579 0.9264785763151011
258 0.30589693109158966 0.8379448468844565
259 0.8587736362686371 0.3429501049613771
260 0.04918521997431591 0.650423393471515
261 0.12554621965698876 0.9412934373577345
262 0.6188258760381132 0.6493818806237508
263 0.19458722197212608 0.551632536794585
264 0.5992319379026524 0.793350875792159
265 0.5717979999041505 0.8901328389397363
266 0.628677355414868 0.8585177315887477
267 0.10332044735833634 0.0485200217370344
268 0.4905231073041001 0.841386175283972
269 0.7326357772781233 0.9587648678724702
270 0.8255689768526493 0.7815963489095019
271 0.3519136387885732 0.44259519668013925
272 0.7202309196938873 0.17122414592362678
273 0.8357225709801628 0.5266338449821747
274 0.20745145687141897 0.7822592658012086
275 0.12181628206479111 0.5950788356814921
276 0.9128685638252629 0.2212543248809019
277 0.06623460101734924 0.687096518400149
278 0.6173798701045933 0.5626569359727414
279 0.5619178523024644 0.2838841859883997
280 0.34221997949538585 0.25654491982162475
281 0.1035637025326317 0.2542055902119589
282 0.008931983405341626 0.06524686366312626
283 0.09256834368336753 0.13880871882077572
284 0.16190571463699122 0.6149227119810889
285 0.8948471429962218 0.8558823134098948
286 0.4409704919323617 0.6993870118048209
287 0.7838293743019183 0.8962257371817332
288 0.8189153660236469 0.22540300089281717
289 0.5795489970372432 0.5295942574568592
290 0.9448945908916739 0.4410960053097204
291 0.21423154291451008 0.38079914196663944
292 0.20370479216480508 0.7719525722453366
293 0.782818086909076 0.4010890313863402
294 0.9330522756338213 0.9692387976292844
295 0.3424026049615764 0.3446023088285929
296 0.29591958913879834 0.6338141789371771
297 0.37067352229954953 0.9864685568022324
298 0.06645087594366572 0.8794138889734388
299 0.7409861139876907 0.6930853171845012
300 0.0027712541774765898 0.8586443212647762
301 0.10356358639676777 0.09977819583632752
302 0.42241286718207316 0.05076649713363335
303 0.830806631687186 0.5363138743173148
304 0.4852539926623215 0.3337151684505155
305 0.30796811169961114 0.6560218302356302
306 0.20481379169835434 0.9791252884262251
307 0.2965358506967738 0.8889160952902081
308 0.033380613829473105 0.616145569337485
309 0.22670908490030073 0.18075357956378701
310 0.0066834017576048455 0.9970399980852228
311 0.8893976073974125 0.8051634921787086
312 0.6151615107953751 0.6204914577599093
313 0.818026088712261 0.4937827668315523
314 0.44868335557821426 0.150420268891842
315 0.2924861240041471 0.5716816427747546
316 0.44436711013028607 0.6994339070341233
317 0.24124154886292182 0.3992888841372646
318 0.8120312185311958 0.7348148226501084
319 0.8602437258300021 0.8789599605640606
320 0.695502742021854 0.26752120087874054
321 0.15641631778054632 0.5779683048601769
322 0.9431452188346587 0.4367982316649681
323 0.46315252165180454 0.4426979324985144
324 0.16359855674214985 0.9268602647304626
325 0.46754185983421337 0.32289033997279304
326 0.16937662449088076 0.21263814651733737
327 0.5605277406119145 0.45013518179744494
328 0.340405561945905 0.5698282073808744
329 0.8541585290041801 0.02242188912443499
330 0.7675872492102453 0.8694509603026296
331 0.29190293808301204 0.43201047076780574
332 0.9115604604845363 0.942250236881038
333 0.631965653276005 0.9694777173771499
334 0.6998013148882324 0.9301600310491598
335 0.9430082283965595 0.5689153631006054
336 0.4301007501169528 0.46485064141416743
337 0.4185256409241995 0.9014426007945721
338 0.17598540847175037 0.6244675810149016
339 0.7702439865328667 0.28690432899793283
340 0.6978455595190437 0.1537334624707073
341 0.1839171022133561 0.0145063152161371
342 0.712858568320137 0.0958186055192537
343 0.6913977410689115 0.6225075187238905
344 0.27067265104442806 0.3433061290665441
345 0.43396764070532545 0.5978679906468246
346 0.9664478622385602 0.8226891883992655
347 0.4211457341450262 0.42587091407385935
348 0.5361503045002839 0.09916030782558971
349 0.9901817925172244 0.705739063725398
350 0.36776308628574084 0.82332622765442
351 0.9798045907509436 0.23397782337152473
352 0.662766133740191 0.5887164916806197
353 0.20854241981811916 0.03445542583495387
354 0.3418001934224276 0.5436667940476626
355 0.7517180862071433 0.9925206369259363
356 0.9404284635186257 0.13737684984893672
357 0.6951220775998972 0.48375813620123354
358 0.7799132708862383 0.9141235861624976
359 0.9380482088729117 0.5018217927550397
360 0.851940501424138 0.10344648319376704
361 0.8253591538946233 0.02535165317894228
362 0.5814860749394148 0.8545393970976615
363 0.18989468964611933 0.3405636435471402
364 0.08906826465708306 0.6383338999476922
365 0.4072899278457084 0.5464353448448341
366 0.12141635909706139 0.05348633934502012
367 0.743429537886762 0.6794151164547456
368 0.4538448486451042 0.3161436161385399
369 0.137778712330914 0.8043990174507232
370 0.45662181230735766 0.10622391275226639
371 0.9407968226372894 0.7632982326010975
372 0.1088917396609651 0.6999155590370182
373 0.10983261726900162 0.5398985373800437
374 0.6906135904935335 0.4424348362719911
375 0.19487743596492257 0.16799031091754102
376 0.8008146615869768 0.3813865779339817
377 0.8678160589051971 0.9949390697063696
378 0.7194988292169807 0.8022972854010935
379 0.6665970527354311 0.19376461057898287
380 0.6045450162006125 0.3996384463183674
381 0.7066515207462979 0.6013552836706573
382 0.2133821589426449 0.4435782023064855
383 0.27401346822055184 0.2715362649538122
384 0.16073233818990573 0.7984786965153562
385 0.824080227789505 0.5496063615666053
386 0.43041320473985856 0.4598698591603049
387 0.6794059892381992 0.1365848303756131
388 0.2902729048592684 0.29485630610117997
389 0.7732832386212313 0.28626760248594885
390 0.9706260079458822 0.9643433797717819
391 0.2285456578489683 0.6769700073437417
392 0.022006137039517704 0.671190424378374
393 0.00768692267537896 0.967869723017565
394 0.6826994708214817 0.43115823718309554
395 0.8977208357687215 0.011719088272528877
396 0.4750160471661793 0.6673698941225762
397 0.028444469992738308 0.5136808036207557
398 0.22867848019835668 0.17288305893732459
399 0.7695667266038955 0.5769442342237534
400 0.5302421376907905 0.6099367801094737
401 0.12712506660178235 0.550267742742486
402 0.36156666795295034 0.17414900639322906
403 0.7783596127820798 0.657247206703443
404 0.7902628008034548 0.31586173309503085
405 0.22363920518185842 0.5056206400791718
406 0.8770257963614151 0.31581905606177496
407 0.924144507560232 0.4153632149450782
408 0.0036104157322394137 0.023641639557767657
409 0.06292933419066638 0.79569545967643
410 0.33598123445759853 0.9430668835225671
411 0.6837021983503265 0.14471761263760174
412 0.2420457450976562 0.15592998647947087
413 0.9757500472346239 0.6221310991642308
414 0.5370208411457751 0.6285975672680649
415 0.8662857285130791 0.5771569471592697
416 0.5985217522509568 0.6464949734127677
417 0.6981211774003848 0.2752419121141738
418 0.3624986701480992 0.0751585679998158
419 0.7028933877796933 0.04031146265585195
420 0.4516538596781746 0.3128926963426196
421 0.9488014973866736 0.2469191293522106
422 0.9462875435505119 0.47726068896866936
423 0.3296768333810558 0.5807755402187632
424 0.7651240944830914 0.8769063884553487
425 0.3724264457353639 0.9911591422979211
426 0.4246901696444232 0.8449411321050291
427 0.29131086873307477 0.5567958284502205
428 0.8688116345365878 0.7877700168412465
429 0.912133455720579 0.9811239135533285
430 0.20227300845957608 0.8787474411207199
431 0.7905289781494076 0.867793631360408
432 0.009589024376160715 0.6009131289352124
433 0.6716112798673112 0.999401528625144
434 0.6625294438643105 0.42650071213035645
435 0.8780650286826808 0.4244392397670216
436 0.42974364318758596 0.6006062873049324
437 0.5760131051441478 0.448712086305904
438 0.6114496489531973 0.5654202062746583
439 0.8383878441643291 0.23647175151831856
440 0.029512509853281244 0.2791126861541251
441 0.21426795616100913 0.398740259161001
442 0.9824914706689631 0.91332640720783
443 0.5097891583296297 0.8040154098156257
444 0.8055553239109311 0.417331193396999
445 0.6362517750740273 0.9471346753991189
446 0.07912441222455469 0.8257079159140979
447 0.16875910138110195 0.450965216048
448 0.017539530377699064 0.15914454438528036
449 0.9819267045183235 0.899865177185218
450 0.8209291734464823 0.02277178137668423
451 0.5329729494117106 0.4890497365313593
452 0.9988254683084951 0.06610822514187131
453 0.10713112006564063 0.28756960146639643
454 0.38964701808773317 0.661635529829675
455 0.7816133777831409 0.8982449901665577
456 0.14002518100057526 0.5008773247798657
457 0.9583564542686412 0.6778721874926568
458 0.24496173271186383 0.47989714070528067
459 0.3410874530756327 0.8646494068967367
460 0.2230614223896763 0.7691698829119807
461 0.2545339334368869 0.2782474677399849
462 0.9775214703382322 0.7839780494693809
463 0.8629024675218366 0.7196636598237514
464 0.4638986845827059 0.3138949659594622
465 0.5105858637855935 0.6876820058503603
466 0.23717511326095264 0.45851317434891514
467 0.3782646014775971 0.03355263369012906
468 0.7593895536992116 0.49349428323111544
469 0.8513255852816004 0.9010520056239436
470 0.1886210456539127 0.8629930559974244
471 0.009357277995252877 0.12754626651083734
472 0.6312667027069042 0.24852742534437855
473 0.8174643657676637 0.6662896895144679
474 0.276822600816822 0.749677451646782
475 0.5154649792791379 0.5479121771285591
476 0.00668328914171934 0.016957023857798292
477 0.6210059559576182 0.05429612841338238
478 0.06367541275105637 0.1118748446259541
479 0.23121590737360065 0.028590898275322685
480 0.2569401314486871 0.5012602861828609
481 0.12271125785560866 0.8118498606404132
482 0.4544687130965721 0.31679483689946797
483 0.08981008460498485 0.012865289639506505
484 0.05639816052880331 0.9547916363765377
485 0.6860861797430957 0.6059827889733295
486 0.8908986150261644 0.9047121795333947
487 0.4311837230861547 0.29015856956189345
488 0.054520426239352826 0.21402808800775786
489 0.7540556166682969 0.006514180232722877
490 0.5276739601621845 0.4763537960893297
491 0.27243760299931474 0.370891805688062
492 0.5995643753953619 0.5867538758439844
493 0.404402065373237 0.31890527735546925
494 0.7925424155211191 0.5237530337752966
495 0.56778576359473 0.13017132978190593
496 0.8034620132517065 0.47845357711798486
497 0.37179608332815006 0.8658957679528035
498 0.027613407262886303 0.9969111509743361
499 0.3958784943037956 0.7206770692111002
500 0.9568950677592752 0.03365884998341373
501 0.2027133259247329 0.9700774909825979
502 0.9140865877113374 0.04406080273692592
503 0.0955336819097331 0.0489581583315456
504 0.48036250573242434 0.4648396551747668
505 0.521364857973879 0.9889058358168067
506 0.48651417987090195 0.034593035826210095
507 0.001603573714652029 0.95891831917521
508 0.16773211108382713 0.7927523508808642
509 0.9161890291538461 0.6796416558250935
510 0.2654162212458868 0.12235163751268763
511 0.9475424012973382 0.21901720989764795
512 0.5953369719964339 0.4297695739631924
513 0.8400544278823568 0.5113036253877723
514 0.5675649805981283 0.21607978945313533
515 0.6227297227661995 0.4187203158199809
516 0.4213114659506526 0.4552350415191293
517 0.5754265101116322 0.794151580356136
518 0.9091150013872502 0.22441190097910302
519 0.5483348274673625 0.64871706929279
520 0.9968998348708406 0.5053622327884297
521 0.4976804055296643 0.5154741388840554
522 0.6821169829957966 0.042074844337562256
523 0.7754594791407345 0.5719250780318237
524 0.8989316090968101 0.5873119003567588
525 0.9703181639019977 0.1629582928035398
526 0.6558004729874651 0.515441624069288
527 0.04545407477280361 0.6749540434068635
528 0.6328093354582792 0.1520402240485863
529 0.7911505779008876 0.5660223475684308
530 0.7817651100428049 0.17452297367851755
531 0.5240200684693854 0.342489387046889
532 0.7056309655507778 0.4870685839346658
533 0.0800759721924389 0.08755624204725587
534 0.17461155165233289 0.25317441309053623
535 0.8539056751653391 0.6163995635086652
536 0.4364155537906742 0.5470691433328979
537 0.15936912095525457 0.20353953166741123
538 0.6144360114744098 0.42888241180929754
539 0.5900924567789781 0.18655657204080622
540 0.23484741246442586 0.5953597390311928
541 0.5209852019283379 0.8803457303610634
542 0.8249469975480648 0.5233125979927046
543 0.06323275472236545 0.02374068212265179
544 0.24030550632876857 0.7632015578844916
545 0.18093229720706938 0.36527943381321093
546 0.8403260919507252 0.18184398138744995
547 0.1351026104438403 0.7314040407960257
548 0.6691617171410065 0.2510157609616417
549 0.9567739269487654 0.04862349002835953
550 0.29651028040157745 0.18370881551670648
551 0.4833440049644623 0.7660618621743389
552 0.7833169828292963 0.8069504208872397
553 0.42543150004028196 0.9597776631084924
554 0.96264466776847 0.5499206818284901
555 0.7199254154313933 0.6105405824307613
556 0.20582863726149858 0.12909015790081668
557 0.019156100886347338 0.08291531819160913
558 0.09341054299742535 0.7323275920877107
559 0.42591845791614436 0.5538474726532931
560 0.39930772839706996 0.29114817894910794
561 0.3401079939394145 0.6868776095363291
562 0.17575199856406054 0.370962121089385
563 0.13434901734544602 0.9214421140206638
564 0.9104495676716592 0.23404643365787725
565 0.4280490423196389 0.007775613845008689
566 0.6164749468416183 0.7513670398543176
567 0.5996489545229201 0.08949322389977865
568 0.018029382874721445 0.8360815637992355
569 0.9183253621053433 0.9169711122990487
570 0.4681947524311778 0.4435404904062763
571 0.6602244941068989 0.5465873291098178
572 0.11126614044423766 0.40405098258070204
573 0.20263012199987962 0.391125081804799
574 0.22469974083514743 0.05131053150008846
575 0.9731736256956892 0.9072532813147844
576 0.765840045345807 0.5371275729051797
577 0.5407586037204307 0.7463541937459449
578 0.9037299091481766 0.017854564211540525
579 0.004927593629497684 0.11717757465303091
580 0.023352135325819257 0.9633247478372813
581 0.9105707195778077 0.31511602474722467
582 0.8323975347618593 0.1865852035020823
583 0.8156244366751414 0.530565404434635
584 0.8669677335325022 0.2194997390596315
585 0.9183926444977765 0.6322373994322021
586 0.5397226089838781 0.9615193878906594
587 0.8900570622735534 0.8429495347497895
588 0.2767086869217005 0.03894626642387178
589 0.4782387199397533 0.8044191977354929
590 0.39248730175082014 0.5958146497117837
591 0.4276636244166372 0.8472682026176985
592 0.4873523516234365 0.5038552505537187
593 0.19356862894036364 0.5944062313636668
594 0.6578775150240755 0.15181131479104526
595 0.5026182971854026 0.7468966318989305
596 0.11442297606400209 0.8024206627892599
597 0.02166431612478692 0.06285782498372261
598 0.08054731637997459 0.6972435826135857
599 0.25112354291040984 0.5770202249717828
600 0.45244752475535477 0.649365991118081
601 0.73441563944734 0.05738725807708023
602 0.6690584008342766 0.7492943553321586
603 0.9641177040267517 0.9409546437020497
604 0.8951034562670186 0.7663853179570221
605 0.6090420896483998 0.2916569357719112
606 0.656661800579286 0.7969235226379893
607 0.3044072957276168 0.8190238465686942
608 0.33639388289849614 0.23515410613125265
609 0.8009259609492431 0.601373193462914
610 0.4126131750301971 0.04021952794696204
611 0.8130394265340567 0.31228194978576496
612 0.5503331042038827 0.9653314567534859
613 0.6292723230957439 0.97967032081151
614 0.6021334969359944 0.7151008210893575
615 0.6985629401504867 0.754284141879785
616 0.7149268190072641 0.8249247763670247
617 0.9261370905613444 0.869407335819468
618 0.5297889478079244 0.7802005756202544
619 0.009175139299595458 0.3057508863009042
620 0.11839734467946472 0.7523460251637525
621 0.016441499825358807 0.8993082792138655
622 0.3274233007243633 0.18613542584660214
623 0.9259108112179146 0.4529517877706505
624 0.349986588979471 0.8982607270691658
625 0.6847758905708118 0.9523926030484318
626 0.9676910208827518 0.1273583419652281
627 0.3648280614531382 0.005935910808650191
628 0.779851578160296 0.915824782253874
629 0.44454552121254576 0.8947676531914039
630 0.6994176556913574 0.48827671795011085
631 0.06995585415658179 0.5463014158250684
632 0.9692026493213894 0.6736603133713326
633 0.8877100084703572 0.3169902336796806
634 0.9018640855310627 0.06471562495419081
635 0.8557718372506351 0.1293338316413769
636 0.4658572230010354 0.030344282266018707
637 0.15878760032458583 0.7060029069277093
638 0.19087013152621557 0.33809034829258755
639 0.7315468122777132 0.0002756920609571223
640 0.32816184154372297 0.7775397950995805
641 0.6798161411596985 0.26777608819626153
642 0.7740186169674259 0.15545148160436728
643 0.14922390420879883 0.5139163977979203
644 0.2712434891523595 0.6115430296602966
645 0.34588322412709505 0.5619186176703698
646 0.5914533676905795 0.305603140268649
647 0.6851747193404705 0.5789801803080504
648 0.16192913451148017 0.5116129515946365
649 0.20846400047674296 0.6874552080766899
650 0.22924130973041124 0.6766390207213737
651 0.6331453028179476 0.431333170511807
652 0.4781594472010573 0.17312478174691126
653 0.7932587969297792 0.3611422707591937
654 0.9676231839780958 0.8977279247845181
655 0.9495244815376426 0.34981848270876437
656 0.430480571608271 0.849609223336925
657 0.42472419688833807 0.005351673722553296
658 0.8612986586086486 0.7836695557882033
659 0.8251385775649952 0.2913018033391027
660 0.1344949570939642 0.06355679724819985
661 0.8550863599695039 0.950849573069218
662 0.757784903713354 0.7788921646528844
663 0.8039741790084951 0.8956005960145976
664 0.9368094087590652 0.9706461262544903
665 0.8748802839402267 0.06623329571224001
666 0.7145020320052452 0.5351521417088811
667 0.9195531091703082 0.48749381717061935
668 0.0449626330022066 0.7805976206838289
669 0.20667125971031564 0.5124030621738204
670 0.5907987205186914 0.7707397103549144
671 0.12518841869443698 0.5818077853396308
672 0.7604965159378426 0.13093977099656096
673 0.8947486570528697 0.845955889617893
674 0.5552164414265915 0.08600988051506586
675 0.48600777692031627 0.8560199087511622
676 0.7186314406938198 0.6988674959747845
677 0.7194049920312222 0.7264902906553766
678 0.9608187062895123 0.9904707394352668
679 0.40589193080781005 0.8417270954173267
680 0.687299482315814 0.717210194986032
681 0.031029584100508822 0.8110408259676875
682 0.31595622290220393 0.6502817032326479
683 0.5103144588100521 0.07622237112517116
684 0.8371046657298009 0.9894152631478625
685 0.8797220691715624 0.20282630042053518
686 0.2819957417148652 0.007756464616673897
687 0.33109681875208485 0.3853863747251982
688 0.9515326922828242 0.74828458470027
689 0.3541314726634802 0.7455516990009682
690 0.6635322354277433 0.6111809073256228
691 0.9584101014024804 0.9011534102571456
692 0.17570000452471135 0.8503102142082822
693 0.24763054316536215 0.5343914794262427
694 0.3169801841263936 0.37230751548768215
695 0.27786808735307655 0.16349823106038197
696 0.07054318948740046 0.35393554286690165
697 0.5084981298799146 0.9362366426807911
698 0.3910794325174628 0.6907716214514822
699 0.1262400687412557 0.11816293712042192
700 0.11206047479570602 0.6278348459426798
701 0.5360306754993474 0.7464459521998387
702 0.22406247707469318 0.648557968401572
703 0.9840508316449481 0.649197543354842
704 0.8703319821610304 0.7181993524813901
705 0.07498510339836262 0.15408149427662432
706 0.3583469464822854 0.26325587249415283
707 0.7263224871298375 0.5335049258493962
708 0.24856099490916428 0.6553079390119478
709 0.7803380067501197 0.824388261035126
710 0.9749689648955816 0.11643824743344722
711 0.2254645168883055 0.38271328152399375
712 0.23555164704298404 0.13888607869134661
713 0.3321265573017018 0.16984898836783024
714 0.6111187063715229 0.5731921289880034
715 0.2511439241655752 0.6944536483155133
716 0.8893879066909637 0.20693840245095385
717 0.011350943799071755 0.08107188835323065
718 0.8477153406393624 0.37096512095571843
719 0.6212572082110223 0.5488944824853469
720 0.4419696177631136 0.6051509136623343
721 0.7126631806338068 0.827061027979197
722 0.7156708658683226 0.7790894174032453
723 0.9497595066958944 0.9920974299036855
724 0.46319385185804207 0.5727335955896568
725 0.5376845997419171 0.8180495166646518
726 0.5173657195460816 0.18413468893770002
727 0.9879263085429054 0.04678568788000126
728 0.4597627435932494 0.18840454586878974
729 0.32277362964958145 0.8412064287093634
730 0.4517568141069356 0.7023594012417522
731 0.21163087503700262 0.1392279157769235
732 0.06836499698694665 0.4866448313429448
733 0.41616454229304256 0.3792823132975296
734 0.4343973322630762 0.19798519967474704
735 0.7441070126127379 0.6856628227607895
736 0.37567577524298235 0.8712121685868951
737 0.3530530469891584 0.6912317283386392
738 0.36673808755491166 0.2664607420058359
739 0.1961784028565956 0.3013874489597289
740 0.9517890234102598 0.6458070067211555
741 0.23838601209175436 0.3610243283523811
742 0.17729798227667648 0.1924625569543127
743 0.5416075292250624 0.005377605092629634
744 0.45818387406088434 0.418576440640427
745 0.7939601203547676 0.5208964857786579
746 0.6881818664788719 0.9200484141416687
747 0.18504687028000966 0.596052330564416
748 0.5330022280819345 0.7326353485856028
749 0.45691401176035273 0.9928133243631618
750 0.42937472602507554 0.008111169778997396
751 0.15209821581052874 0.028881420186912532
752 0.568051434018419 0.7077101642136238
753 0.9719443595039869 0.9896996325566797
754 0.33780336078655326 0.542315156866482
755 0.8078424879224407 0.532967442111413
756 0.11909919790749623 0.47762470119796463
757 0.9061076502318444 0.1259362535395624
758 0.07514123167068931 0.1283895330416701
759 0.6468359858542289 0.7478426111092706
760 0.4293160200949796 0.8705205870087055
761 0.4074915252061503 0.8314080996181064
762 0.369528480840418 0.235311888553267
763 0.4144273471678227 0.7729450532437765
764 0.9122906731573293 0.6275119250575528
765 0.5877165880916275 0.09031928120758048
766 0.08466042553174791 0.4615345896208064
767 0.32279485623143966 0.35699125158339207
768 0.6179718639587245 0.1963113582169299
769 0.6921957569397057 0.7936949157394835
770 0.1399289190813272 0.37924035841773673
771 0.04872703995076344 0.6134918625323353
772 0.7078257988331444 0.979434229703553
773 0.6453172069662155 0.28420574872911275
774 0.8819623596928197 0.47987759499402893
775 0.534353191784303 0.5560236252024457
776 0.1817184314513306 0.030726688218916
777 0.4769479482657627 0.298658511133283
778 0.9799261802365866 0.35323260530488876
779 0.795797639843156 0.5315106613836551
780 0.8974084885215717 0.5228796926148468
781 0.7609443903529707 0.9382707216100098
782 0.8776847328927396 0.9764679511777693
783 0.7875398860297562 0.8189548735989012
784 0.10108519601312338 0.4403712591956329
785 0.06983798138417197 0.16271057220092489
786 0.1354556866466764 0.6156496524825948
787 0.21575508270819932 0.022342053119714933
788 0.26664831415780876 0.31381965343915863
789 0.44312063392279677 0.9418875966383822
790 0.7829727221594001 0.9600706390302761
791 0.8734318694048318 0.49474784571091557
792 0.8398278025604864 0.7593955911362354
793 0.49360165347718443 0.3567586021350343
794 0.4030021839903247 0.8344223269331779
795 0.2653055183812242 0.6418998701410132
796 0.009677601080960496 0.6640192760488818
797 0.3415658003779194 0.8108775502087312
798 0.7095526567450838 0.9873823901995787
799 0.10763358016551727 0.8365941286038434
800 0.8168136468444556 0.4903279692190715
801 0.4169559961496411 0.34695468711002153
802 0.9221272238508955 0.37294212736382093
803 0.382206163717973 0.310386347477023
804 0.6809117447032507 0.7584499017347569
805 0.2521450693282882 0.0458279055035411
806 0.8168507941105 0.7035410181610727
807 0.48883268678956693 0.32511508520085286
808 0.3174043975259718 0.634470757748484
809 0.9417522536228804 0.26785452791626874
810 0.4405317527885183 0.1768967227465894
811 0.5700123046792613 0.02483736742180309
812 0.08945119443199989 0.8341101780925674
813 0.9375442826837964 0.12008537065411706
814 0.5039805674861203 0.16847256570978775
815 0.7202887965525173 0.4228366758832197
816 0.19075800437568424 0.40462980414632854
817 0.732464617128355 0.1783348386516206
818 0.9916155218093582 0.021996617938459084
819 0.06430738263578062 0.09936381547460615
820 0.029968978633070575 0.985093072432848
821 0.507251728344623 0.08830047276414232
822 0.551218618543901 0.908255371240547
823 0.17010287521085843 0.726668976268906
824 0.6156509375802436 0.6103908034626194
825 0.20272736985180495 0.3334531581762732
826 0.8977870445362868 0.8630320678085964
827 0.26213352407069224 0.16577996291427743
828 0.7184218578419455 0.6793096138662645
829 0.6935877716360236 0.8610581296203498
830 0.2608997141346898 0.5648246796432106
831 0.25975354533420025 0.22002286887047695
832 0.927761767230495 0.01349139378604669
833 0.4954604806779803 0.2826264835060792
834 0.053257149084460775 0.9135077596239314
835 0.6574275970038498 0.11408459658239867
836 0.7819685406857037 0.9965926109523318
837 0.8234029585534057 0.681645901165
838 0.8970657648392486 0.905516573927454
839 0.9558365489748792 0.12131548395526992
840 0.8944766313422285 0.5043971136015426
841 0.13117132986844693 0.7790339684575518
842 0.7453846946043593 0.5972612863863561
843 0.6337682657039103 0.6928894445078831
844 0.47741746917848293 0.5459567961177122
845 0.13594515444276312 0.40707828981498373
846 0.29533389802654797 0.5148657636195818
847 0.4068033332634 0.25582051403641415
848 0.42504990844063073 0.6884511555933316
849 0.17102234739182998 0.7006482113750773
850 0.7526803964263599 0.28406256815481246
851 0.37317229015699593 0.7301222672841532
852 0.08360770087632607 0.18821389590542847
853 0.18239819138211077 0.9141236886870994
854 0.6265305223232139 0.6819464114780838
855 0.05577315141460293 0.26156977880992993
856 0.6434506137883664 0.32942381265814114
857 0.42607608488887316 0.05395757335357643
858 0.4513485367598772 0.9221952288668974
859 0.5082617611084185 0.11698319109013111
860 0.41244945382946385 0.24704815105502131
861 0.3891135954756818 0.39606611245620194
862 0.8932421899605962 0.6169286910545885
863 0.9971741116214309 0.4257654568135887
864 0.08375884129974387 0.8859908276906271
865 0.9700547055390727 0.3747167169706366
866 0.8193339422981075 0.46341036920415324
867 0.39267846255469796 0.633444236437995
868 0.3804787106715459 0.9859735566735799
869 0.5545203716538756 0.08303254853083164
870 0.1642268333227772 0.9876658913474221
871 0.5048409685479603 0.7523812748622578
872 0.46390019286102047 0.7690631126939449
873 0.3134005022774794 0.5137094296754116
874 0.5698922946272248 0.385946572255226
875 0.6566625987051969 0.5724578328649924
876 0.9590725583919023 0.9673343499680814
877 0.049053630439933604 0.12211155451618039
878 0.6933869860980661 0.02670194631624101
879 0.6910790790178245 0.2735146651043736
880 0.9750639040004239 0.869788380989405
881 0.23201164214445102 0.22599101977155212
882 0.8903173316528172 0.6239133332476396
883 0.13870460786033545 0.8216686185809013
884 0.8742346174159417 0.2701016439640893
885 0.2020081080862487 0.1022834187491043
886 0.18219128285185837 0.9272834321269342
887 0.9557193496338944 0.022697932133400878
888 0.5463581927784139 0.31204706212972144
889 0.8785423004966338 0.9114109589031779
890 0.7322059662720156 0.15996168881813178
891 0.31419161291986886 0.4484349013636859
892 0.7542529927367879 0.6063191583060411
893 0.5916976757648668 0.46309086490170404
894 0.14430776279825996 0.5536116595888779
895 0.09379471661495575 0.41851185341136765
896 0.5074741787130312 0.5678297179788093
897 0.4323120987861917 0.9187339544176425
898 0.5213889717739248 0.8417740446925944
899 0.5052749723212173 0.44576723160991427
900 0.21558740173059276 0.4852352895792391
901 0.39222474193762313 0.2394414965844005
902 0.004031782623445945 0.35595517448647773
903 0.04804908139353148 0.3985671059204823
904 0.4619258205091654 0.6931952582792841
905 0.4653083588798299 0.9072356304520428
906 0.14189392706313808 0.13930027159109226
907 0.6741715763346533 0.20843764331971437
908 0.6281700358872463 0.17704544811888145
909 0.653270871100694 0.6819757450769257
910 0.2069672083557228 0.33373379797993397
911 0.7520342490045645 0.7898888417102452
912 0.4886186580581583 0.07727859070161358
913 0.26632001993224574 0.5643101957217654
914 0.5933918068325635 0.06718038683979011
915 0.590045130187291 0.3009693341311903
916 0.004594281912628784 0.26826413003535443
917 0.5345729944668923 0.1941563859008265
918 0.7077844545924226 0.1843126632850277
919 0.28054900870119703 0.6432180244669058
920 0.7049305112763058 0.535556454800216
921 0.19194703614630848 0.9366131175631411
922 0.3312023770478334 0.6670965800271378
923 0.7044738559335655 0.03881570235467058
924 0.7921021729748594 0.9501176324592963
925 0.1900712344308807 0.11869732362106655
926 0.4854411532160623 0.6037279724353555
927 0.8265066305590697 0.7912411249578202
928 0.9518442538397736 0.10770880340064426
929 0.32585015441876763 0.9408112575847022
930 0.5943126795170528 0.682600376873069
931 0.48251428585951184 0.9573459565482826
932 0.3888904771416193 0.7622605639251272
933 0.9085801001097674 0.28789559523815167
934 0.5169153298030338 0.6157665997066516
935 0.700289150654725 0.3045053814720573
936 0.5855431060178018 0.5149101982113499
937 0.1059276079687762 0.7293733740094428
938 0.8719311819331867 0.8237716747909715
939 0.28880064724582777 0.07899309309713431
940 0.12664950583478285 0.16302962336876636
941 0.9479684324986983 0.894576304464848
942 0.43825858009812835 0.4588288036368132
943 0.4518559989535337 0.6323699271094301
944 0.3243646812919373 0.5394827276027875
945 0.7451373377031084 0.22348470151647915
946 0.32377611229736947 0.1478959425584191
947 0.8379321263459495 0.014194605494560308
948 0.20674481569491931 0.7809294018564805
949 0.8295571429376775 0.07345935049736951
950 0.7236940184287688 0.9240962092627806
951 0.8969888276653111 0.8712451217228023
952 0.5668928144476162 0.5494948089189812
953 0.8215082640494746 0.4788018310420832
954 0.8823683740772176 0.2747544855577374
955 0.26046920952059105 0.7317902004211971
956 0.13912161967815573 0.1988869281014065
957 0.48813816927240794 0.006071673028919422
958 0.8230408862850284 0.3861495358113085
959 0.7878072655195313 0.8961001002115697
960 0.6566354377197146 0.6494415969806469
961 0.5096519435346888 0.6108172192307422
962 0.5667280648235764 0.279537840160192
963 0.6081611380940097 0.9346914608962275
964 0.013989953857812432 0.67461134656614
965 0.5748794276909853 0.7417783835012444
966 0.4949784978082097 0.4314793490212696
967 0.6226343297082626 0.215956751601731
968 0.7172567434916122 0.12143666718780666
969 0.9246063981821913 0.7943484044967652
970 0.12583555631037657 0.5307392434515616
971 0.4108281535702262 0.9233241706598387
972 0.27854056735226473 0.30197971763430287
973 0.4024200924891007 0.31772192335292226
974 0.17502241820933284 0.8491765695276805
975 0.6333893474400009 0.20780944673102153
976 0.6297121644591741 0.5562264015984208
977 0.053679358711929526 0.6267755304103441
978 0.23166075502570627 0.314799880192985
979 0.3899746211428109 0.6669863752202716
980 0.2050922041389478 0.648776114220419
981 0.9538620644148104 0.3128285610645052
982 0.24304213012503517 0.4459857358367557
983 0.48589333294220005 0.3677300965010011
984 0.3804143244087902 0.521134230553305
985 0.8520368681615581 0.4663380178339963
986 0.7135264540330584 0.6161210823825273
987 0.3360159565015106 0.9124130967595212
988 0.8461864773712077 0.4291227069190371
989 0.93879912193908 0.4099851647205811
990 0.7558793939840145 0.9506024343142272
991 0.33542175679988095 0.8759243617304393
992 0.3669697616067018 0.5991316707674653
993 0.4870570361142307 0.5991792972002696
994 0.43734054031213754 0.05765089805263923
995 0.7084945744772896 0.6724894210890906
996 0.2287888732236828 0.697890401167979
997 0.5122046971705978 0.6894520089705339
998 0.8985138207540361 0.4770540543660642
999 0.3357475407187448 0.7408635320092039
1000 0.5540987961990033 0.40354852329215063
1001 0.11641349559817171 0.19770782217995464
DEMAND_SECTION
1 0
2 6
3 1
4 7
5 9
6 3
7 7
8 1
9 7
10 1
11 9
12 8
13 6
14 9
15 1
16 9
17 8
18 5
19 6
20 3
21 9
22 4
23 3
24 1
25 5
26 1
27 4
28 2
29 6
30 7
31 9
32 6
33 7
34 1
35 4
36 2
37 3
38 7
39 7
40 4
41 7
42 6
43 1
44 7
45 3
46 8
47 4
48 9
49 2
50 4
51 5
52 1
53 1
54 1
55 4
56 5
57 7
58 3
59 2
60 9
61 2
62 1
63 4
64 5
65 5
66 7
67 2
68 9
69 1
70 9
71 6
72 3
73 7
74 7
75 3
76 8
77 9
78 3
79 6
80 5
81 5
82 7
83 3
84 8
85 6
86 2
87 3
88 9
89 2
90 5
91 3
92 1
93 3
94 2
95 2
96 5
97 9
98 3
99 6
100 3
101 5
102 4
103 3
104 1
105 8
106 1
107 3
108 1
109 1
110 8
111 4
112 9
113 9
114 8
115 4
116 1
117 2
118 8
119 4
120 4
121 6
122 7
123 4
124 1
125 9
126 2
127 9
128 7
129 5
130 7
131 4
132 5
133 4
134 7
135 1
136 7
137 7
138 5
139 7
140 8
141 2
142 3
143 4
144 5
145 7
146 8
147 2
148 2
149 8
150 4
151 4
152 2
153 7
154 1
155 3
156 6
157 6
158 6
159 6
160 2
161 7
162 2
163 9
164 3
165 9
166 2
167 8
168 6
169 9
170 2
171 5
172 8
173 9
174 9
175 1
176 9
177 4
178 4
179 7
180 1
181 8
182 4
183 7
184 4
185 8
186 3
187 7
188 2
189 2
190 5
191 1
192 4
193 4
194 6
195 7
196 5
197 3
198 4
199 2
200 2
201 6
202 6
203 3
204 8
205 9
206 2
207 2
208 1
209 6
210 3
211 6
212 1
213 6
214 7
215 2
216 8
217 7
218 1
219 4
220 1
221 3
222 1
223 5
224 1
225 4
226 6
227 2
228 2
229 5
230 7
231 7
232 2
233 7
234 3
235 4
236 5
237 8
238 7
239 7
240 6
241 6
242 7
243 5
244 5
245 9
246 1
247 9
248 1
249 7
250 9
251 6
252 3
253 2
254 1
255 8
256 4
257 4
258 7
259 9
260 8
261 5
262 9
263 6
264 4
265 6
266 5
267 7
268 9
269 4
270 2
271 2
272 2
273 9
274 1
275 5
276 7
277 9
278 2
279 1
280 4
281 2
282 3
283 5
284 3
285 3
286 8
287 8
288 8
289 1
290 4
291 3
292 6
293 3
294 7
295 9
296 5
297 6
298 2
299 2
300 2
301 5
302 4
303 5
304 3
305 4
306 9
307 3
308 5
309 5
310 7
311 6
312 3
313 6
314 5
315 9
316 1
317 6
318 4
319 1
320 3
321 5
322 1
323 7
324 6
325 2
326 5
327 8
328 6
329 3
330 3
331 4
332 3
333 6
334 2
335 9
336 3
337 4
338 9
339 6
340 8
341 9
342 5
343 7
344 9
345 6
346 8
347 7
348 8
349 7
350 4
351 9
352 6
353 9
354 6
355 4
356 2
357 6
358 6
359 5
360 2
361 6
362 2
363 8
364 8
365 2
366 4
367 3
368 6
369 7
370 6
371 5
372 6
373 3
374 3
375 9
376 7
377 6
378 3
379 7
380 4
381 7
382 9
383 1
384 7
385 5
386 4
387 4
388 7
389 4
390 5
391 5
392 2
393 5
394 6
395 2
396 9
397 5
398 8
399 3
400 8
401 4
402 4
403 1
404 2
405 4
406 1
407 7
408 9
409 1
410 9
411 3
412 7
413 2
414 5
415 5
416 8
417 6
418 7
419 9
420 4
421 6
422 7
423 7
424 2
425 2
426 4
427 8
428 1
429 3
430 8
431 5
432 3
433 2
434 7
435 5
436 3
437 7
438 4
439 1
440 9
441 8
442 6
443 8
444 6
445 6
446 3
447 6
448 2
449 1
450 4
451 8
452 6
453 3
454 5
455 7
456 7
457 8
458 4
459 4
460 2
461 1
462 2
463 1
464 8
465 9
466 9
467 8
468 8
469 2
470 8
471 8
472 6
473 9
474 3
475 8
476 1
477 6
478 9
479 4
480 7
481 7
482 1
483 4
484 1
485 7
486 3
487 3
488 1
489 4
490 4
491 6
492 8
493 8
494 1
495 8
496 2
497 2
498 1
499 3
500 1
501 1
502 5
503 7
504 8
505 9
506 4
507 3
508 5
509 3
510 7
511 3
512 6
513 7
514 2
515 2
516 5
517 2
518 8
519 1
520 1
521 2
522 7
523 2
524 8
525 3
526 3
527 3
528 2
529 4
530 7
531 7
532 1
533 4
534 4
535 9
536 5
537 8
538 2
539 8
540 7
541 8
542 2
543 9
544 1
545 2
546 2
547 3
548 2
549 7
550 5
551 5
552 4
553 6
554 5
555 7
556 6
557 7
558 3
559 4
560 2
561 1
562 2
563 6
564 2
565 7
566 3
567 6
568 7
569 5
570 2
571 1
572 6
573 8
574 2
575 3
576 5
577 1
578 1
579 6
580 3
581 5
582 2
583 8
584 8
585 2
586 8
587 2
588 4
589 5
590 5
591 4
592 8
593 3
594 8
595 8
596 6
597 2
598 6
599 8
600 5
601 7
602 9
603 4
604 4
605 9
606 9
607 3
608 1
609 3
610 8
611 7
612 8
613 7
614 6
615 9
616 3
617 7
618 6
619 2
620 2
621 1
622 4
623 8
624 4
625 8
626 6
627 7
628 7
629 3
630 3
631 6
632 5
633 7
634 3
635 4
636 5
637 6
638 8
639 7
640 5
641 4
642 9
643 9
644 8
645 3
646 9
647 3
648 2
649 7
650 7
651 7
652 7
653 6
654 2
655 4
656 7
657 8
658 7
659 4
660 7
661 4
662 1
663 7
664 5
665 5
666 8
667 4
668 7
669 1
670 2
671 5
672 3
673 6
674 2
675 1
676 4
677 7
678 2
679 8
680 2
681 8
682 3
683 8
684 9
685 2
686 8
687 2
688 2
689 8
690 9
691 9
692 8
693 8
694 1
695 7
696 9
697 8
698 1
699 3
700 9
701 5
702 6
703 7
704 7
705 9
706 9
707 2
708 9
709 5
710 5
711 1
712 4
713 1
714 7
715 7
716 5
717 9
718 8
719 5
720 1
721 1
722 6
723 7
724 3
725 3
726 4
727 1
728 2
729 6
730 1
731 4
732 3
733 8
734 3
735 8
736 8
737 4
738 7
739 4
740 2
741 1
742 4
743 7
744 1
745 2
746 8
747 5
748 3
749 1
750 9
751 7
752 3
753 4
754 4
755 1
756 4
757 9
758 7
759 1
760 1
761 7
762 4
763 2
764 1
765 1
766 2
767 1
768 2
769 6
770 6
771 2
772 5
773 2
774 4
775 2
776 5
777 4
778 9
779 9
780 5
781 2
782 2
783 3
784 7
785 7
786 3
787 5
788 1
789 7
790 3
791 4
792 3
793 5
794 2
795 3
796 2
797 9
798 1
799 1
800 3
801 4
802 6
803 4
804 6
805 7
806 6
807 6
808 5
809 3
810 6
811 4
812 8
813 1
814 9
815 6
816 1
817 5
818 3
819 4
820 1
821 2
822 3
823 5
824 1
825 2
826 3
827 9
828 1
829 2
830 5
831 3
832 2
833 9
834 6
835 6
836 9
837 3
838 9
839 4
840 3
841 6
842 5
843 6
844 8
845 7
846 5
847 1
848 8
849 7
850 8
851 1
852 6
853 6
854 2
855 8
856 9
857 7
858 4
859 3
860 1
861 1
862 4
863 2
864 1
865 8
866 6
867 5
868 2
869 9
870 8
871 1
872 2
873 9
874 6
875 3
876 8
877 4
878 5
879 2
880 7
881 2
882 4
883 5
884 2
885 9
886 8
887 5
888 6
889 6
890 9
891 1
892 4
893 5
894 8
895 5
896 5
897 5
898 1
899 1
900 8
901 8
902 3
903 9
904 6
905 5
906 7
907 7
908 8
909 7
910 2
911 9
912 3
913 8
914 3
915 2
916 1
917 2
918 7
919 9
920 6
921 4
922 6
923 2
924 4
925 1
926 6
927 1
928 5
929 4
930 7
931 9
932 9
933 1
934 7
935 1
936 1
937 5
938 5
939 9
940 2
941 9
942 8
943 1
944 1
945 5
946 6
947 7
948 7
949 4
950 7
951 2
952 6
953 8
954 9
955 6
956 2
957 3
958 4
959 8
960 7
961 8
962 5
963 2
964 4
965 1
966 4
967 7
968 9
969 3
970 5
971 9
972 6
973 9
974 2
975 7
976 2
977 4
978 2
979 2
980 7
981 5
982 5
983 1
984 3
985 8
986 2
987 2
988 1
989 6
990 7
991 8
992 7
993 2
994 2
995 5
996 6
997 8
998 7
999 6
1000 1
1001 9
DEPOT_SECTION
1
-1
EOF
