NAME : gen1000_008
COMMENT : uniform customers, demands 1..9, generated by bench/make_tuning_set.py
TYPE : CVRP
DIMENSION : 1001
EDGE_WEIGHT_TYPE : EUC_2D
CAPACITY : 200
NODE_COORD_SECTION
1 0.8571596052880037 0.9497656412398218
2 0.1452461572674335 0.8309377396007809
3 0.1196988513824987 0.05208178102087213
4 0.4365604190282367 0.4942108686277884
5 0.3633339151241193 0.670364797018819
6 0.4259066514488915 0.27491857970969247
7 0.9145506254899519 0.8305987265766117
8 0.8905603214868594 0.7274054958729861
9 0.6395146567503438 0.4335510025504262
10 0.09143318366394682 0.8610881596932869
11 0.038966177491908116 0.9390002747651554
12 0.10303695507679911 0.48554818972582237
13 0.8967426296495742 0.00555843834030445
14 0.41690809766577897 0.5769547031154947
15 0.9143985387413635 0.15098906007695867
16 0.1448774607724449 0.23362797391173706
17 0.26674017686193563 0.37820495631100437
18 0.0874623641170682 0.02086458831365312
19 0.18047714280136162 0.027247051650440945
20 0.9364860508942584 0.6076652866771824
21 0.9979800660528411 0.26796734114783294
22 0.06288409801662653 0.31428464558315916
23 0.45970486498475704 0.3567513758890818
24 0.24898256210350211 0.9880979640276296
25 0.4094294511517258 0.8767320287229141
26 0.4774381109711816 0.2204670845083737
27 0.37437097192509616 0.25875024747289965
28 0.07089626897673518 0.2423509754768728
29 0.6060906882117434 0.5373413031705435
30 0.8566954420625508 0.06857614957523661
31 0.7551465900124223 0.9081164675591601
32 0.5416389150143424 0.22621634334065388
33 0.6620014863958854 0.97777864827707
34 0.07210737412454249 0.2791890260856368
35 0.0074337242218835975 0.8429457777250704
36 0.044904916382183524 0.09315891708192958
37 0.9484636337299421 0.1454066936117392
38 0.6373650396527726 0.8050893164178958
39 0.1354175090391493 0.6870657128098392
40 0.2737860874583795 0.6433488943053749
41 0.4395727658891122 0.03320034772094893
42 0.9535849818172049 0.4441026136891818
43 0.08642788841323501 0.7403337342145231
44 0.6030151792755382 0.9911681878721139
45 0.29450952833102617 0.16796459757387938
46 0.9517381481154964 0.48528317907295504
47 0.22337523830693162 0.048940499770886325
48 0.9721246302500974 0.12543688876154702
49 0.11987926673163951 0.6481829507722789
50 0.17739363083423387 0.24252879256999527
51 0.08732432259935463 0.6300383566147723
52 0.9547722232506064 0.7507356955810459
53 0.6036246199083148 0.6869160165389789
54 0.7699411869189741 0.17088422837435424
55 0.8040268472632369 0.4860461330694834
56 0.5569244653679003 0.37665021814702393
57 0.20796943903576237 0.2868686659977262
58 0.915964036126609 0.6127628734003575
59 0.22737590603799362 0.8640288724204682
60 0.1805201744273781 0.11048734286830153
61 0.1789994490094542 0.9722718040832182
62 0.1795968214535132 0.7843009621340017
63 0.11040965946636871 0.6302014281611842
64 0.34030417017117265 0.18398076119694728
65 0.7075125945050973 0.3441125598191521
66 0.4426318261454125 0.29272482839247593
67 0.7933963948656264 0.9363325984417418
68 0.8145320441632178 0.9650510497201173
69 0.5151174153155504 0.9774079300286621
70 0.48675876438275834 0.44394728392108407
71 0.8948090113243106 0.8299210453662766
72 0.3067390276983699 0.52116904104911
73 0.03624301721387657 0.11688300641909666
74 0.3479821544169073 0.4726727606090133
75 0.33573675720232254 0.032482456451781716
76 0.3250562280727317 0.19600207198266784
77 0.7774287607614077 0.32910603424160345
78 0.39075617167009025 0.3499444760008886
79 0.21739583189030198 0.014458671883735619
80 0.13362162588197646 0.6576564887779093
81 0.22514942238554703 0.9305111146174072
82 0.7013630962386399 0.27004176385114176
83 0.5678015575313803 0.2322728303867656
84 0.5773644494977771 0.972385859833298
85 0.3377017869090646 0.35473323879118435
86 0.9564513665216061 0.4105275254973366
87 0.7897962861580017 0.5858080696614496
88 0.04585802057068866 0.8396833469803876
89 0.7446491475340253 0.8601554053889988
90 0.08956464225310412 0.3780925053396369
91 0.08478512966828733 0.7466202463238439
92 0.02438783842107406 0.7152305115544586
93 0.534928283976358 0.6536942999035877
94 0.9879435925148896 0.04477264949555282
95 0.035693461163951 0.8935921770598564
96 0.46050515387238355 0.3828863975938992
97 0.6497568436325375 0.7578842504951908
98 0.24713322856886577 0.06927027010786724
99 0.1142270775590074 0.6150042673964891
100 0.990569637075953 0.5626047993837568
101 0.5615183213248764 0.27032981249727783
102 0.08084028414882782 0.7753582948688879
103 0.008532379211646957 0.12313723081602801
104 0.593573841006918 0.15741863749119012
105 0.6445595012079848 0.4241329424822976
106 0.959556080256777 0.6338496028647382
107 0.786748076717725 0.7198646073661576
108 0.16671336525091918 0.9206679366852247
109 0.35042702717743834 0.4243644407028485
110 0.6097269783688496 0.9362700449346454
111 0.7289128144382998 0.6587554736948098
112 0.5667739370141132 0.195391974240252
113 0.4855262300858125 0.9898295704558974
114 0.029681754887188494 0.8337670762104218
115 0.5215320288460655 0.6501159944311765
116 0.3305689829048344 0.010862885674289169
117 0.4154513013905532 0.8747445249277763
118 0.7172666115847772 0.7646110383617291
119 0.9252040504395839 0.27672011895500237
120 0.25212634804481404 0.039480304258611154
121 0.9301305102471827 0.8992187583597331
122 0.20938516258473072 0.04218106274985611
123 0.29550182330391783 0.5207741311945464
124 0.23860782941155778 0.15725598820267006
125 0.23704321095756886 0.6895583911198385
126 0.24293008757181644 0.05718066315884307
127 0.7045699930237299 0.6901733169394189
128 0.044747286239686046 0.8593525165594142
129 0.7900705877989791 0.6821653918203026
130 0.042259539406393154 0.6047075086384983
131 0.35989444815932636 0.15629149285954536
132 0.15916424293820453 0.8762471533864048
133 0.7672539352606904 0.22793933279280543
134 0.37341321273326855 0.9448229579826837
135 0.6157537656366074 0.3147157314560223
136 0.8014462323528084 0.3841510201613948
137 0.47918281118051054 0.3851716156491738
138 0.44646704861239395 0.7815545833292983
139 0.44676450023816794 0.24449832421204853
140 0.8295980770108139 0.4297057157064206
141 0.7187119274640089 0.5636103380350592
142 0.4553242457705604 0.32931360656782205
143 0.3859623070664835 0.7000312927445618
144 0.03053232754450197 0.9793954953201867
145 0.8256939004029475 0.9409714398639919
146 0.1494831135979352 0.6745409786060474
147 0.8832009115866223 0.8530110892797339
148 0.6084812454469697 0.11721982492598249
149 0.8280630118866718 0.7762507616749044
150 0.42766099391953216 0.01011860108235818
151 0.6663596480183199 0.887690837806655
152 0.6795314283089839 0.4584766567358681
153 0.5587642054592654 0.4646494030219207
154 0.02176488593098347 0.8078371914112134
155 0.1844791293026402 0.11078689634614325
156 0.010478846970453759 0.23358299726897247
157 0.3503664774474843 0.8386732749801622
158 0.4918049763241926 0.5438344701252421
159 0.27574856215959875 0.36844679943010605
160 0.6639136046565568 0.9928850866746052
161 0.23227257844097937 0.6089504926542657
162 0.02529184805600937 0.5607665582082443
163 0.5153854037864606 0.609759891972287
164 0.9206069734841977 0.5019607314282022
165 0.8381872984025547 0.02754344671450326
166 0.417157420123798 0.43471817114901945
167 0.10701657284771282 0.40693988491366295
168 0.23972865927010256 0.7239653905647936
169 0.15699184262534405 0.3516302345308362
170 0.12985491344175037 0.1699290113745815
171 0.957220667533214 0.715475961596889
172 0.23396394524905495 0.5628539744694026
173 0.1186825650466623 0.504874491667377
174 0.39117455458020534 0.7652123739922126
175 0.8936607285045526 0.6215667733919416
176 0.13968312839603203 0.6727608278877619
177 0.8377355524183627 0.18971889605946635
178 0.5617848808497892 0.6044014226581409
179 0.19387294476494454 0.504124855434124
180 0.7592522208237327 0.577880926221101
181 0.37479364930994863 0.42073428317608974
182 0.3543450663979606 0.03198067794163595
183 0.36168866359985485 0.7733893801629519
184 0.15518211732811704 0.9862777898749132
185 0.8805884011112024 0.1672890451846858
186 0.10310009030432554 0.08380757657543791
187 0.0731056330059866 0.4182074382026958
188 0.2205601185158207 0.14189161464986266
189 0.689163075095612 0.07063797983384423
190 0.6854118936977216 0.02324340537303815
191 0.211142717335982 0.5043612835782116
192 0.8935021519950549 0.19933214194070847
193 0.9733470365074027 0.38618881586464415
194 0.9589235739094298 0.19914116433590145
195 0.1504802219565583 0.14687350264856536
196 0.2647373368121625 0.8857769790962273
197 0.025139493211075115 0.5019880799226706
198 0.8949916834949637 0.027737352178146768
199 0.5815363904020455 0.9577024718658071
200 0.016825398994654517 0.846694294413595
201 0.7883860809795251 0.05985464336048496
202 0.503462997419831 0.1620738738856352
203 0.9236707649540453 0.04404549482073128
204 0.569889708037562 0.0733235726166338
205 0.6752793687883412 0.7916351729268403
206 0.05352437148914502 0.1404148965648635
207 0.04144714203913935 0.41526264833628357
208 0.5274761927999672 0.8332082645283144
209 0.6617332444036612 0.035250139701670014
210 0.8169909121485065 0.3015114251309138
211 0.05911578846941623 0.7532872442756733
212 0.2290182713151271 0.3993744667261133
213 0.18615441062581173 0.7666213474470625
214 0.8138537333261162 0.2580589192088871
215 0.9876584829187721 0.8950617361154304
216 0.5148518310266206 0.6309414405551539
217 0.2170428484358361 0.9056662183999948
218 0.3481867934839914 0.36633605040614126
219 0.8863495641187975 0.8914070119667288
220 0.16207919298124196 0.1614664887624575
221 0.39061116748209845 0.8908772010898993
222 0.5549969565455217 0.7255542012094557
223 0.8946321134085913 0.3780978908939807
224 0.8763973398581419 0.1996802338391036
225 0.8988335727423825 0.9629612938460662
226 0.3274698698537526 0.020178023938216993
227 0.08118279489717084 0.46853332082437527
228 0.049654592911426154 0.8503363054329791
229 0.9443266109067742 0.544746620263195
230 0.06986685420085337 0.9524914189771152
231 0.6446626721668169 0.317907655884312
232 0.4181239194772878 0.679177998526207
233 0.03202260893945541 0.4173755626846145
234 0.8364825126439934 0.2835090716389298
235 0.20304479670372344 0.7462830631172683
236 0.9535841924910625 0.6196198144382917
237 0.536971119455676 0.5101788001739368
238 0.86833003859629 0.5472583872744011
239 0.7887073695838337 0.39891161654886553
240 0.19471114614934526 0.7321125914006971
241 0.7229244591646358 0.16966415131533275
242 0.1322545432904596 0.018842968088931267
243 0.2007444822323996 0.18758227181567533
244 0.30215522892662394 0.33327034128163446
245 0.1976535229084011 0.9401252331755361
246 0.26873557978618545 0.636198785640246
247 0.701664131675939 0.5440882780430321
248 0.5912693211224779 0.14975685944217698
249 0.6386234839244561 0.2394241385911975
250 0.7473045060296597 0.2755323936183717
251 0.26113598962366735 0.9317315420145279
252 0.1588794690445583 0.4554238567744324
253 0.5916377280379838 0.03480696496467994
254 0.7042762078247443 0.6823621651584478
255 0.03597542984911295 0.125309093595805
256 0.10102311461142965 0.1309713682992073
257 0.6611738931579827 0.6826621302978556
258 0.24446322916239438 0.9383260297566578
259 0.18122643340435995 0.5347771618034116
260 0.46262989228135765 0.7776582049527364
261 0.06468426663450755 0.10967583900807298
262 0.21091757407336142 0.33948136055555733
263 0.7869888143196972 0.7914137749556464
264 0.9921263619035183 0.8239710081788174
265 0.6164117232179307 0.8581664467863669
266 0.14488530737315752 0.011616563722116613
267 0.19619900830207193 0.5645910996447897
268 0.8969375596491252 0.24363083579234301
269 0.16300156159550738 0.495570468693616
270 0.6878461104507458 0.4754455922887222
271 0.00853394032596766 0.21634087738199148
272 0.36811471860541034 0.4095815015717015
273 0.39554674357853215 0.290111519778783
274 0.949474344152939 0.28426531125686183
275 0.4798732233383878 0.6879732762311577
276 0.5851371520501456 0.8100849510798074
277 0.28056490549281177 0.472226957335954
278 0.4475272885135737 0.5703523739893632
279 0.3525429371420391 0.42415208220433165
280 0.8419082974122232 0.588234739705882
281 0.9316461356333887 0.45209257562056215
282 0.3013758633871243 0.8984855023400427
283 0.36364498674560874 0.42613827243698454
284 0.11528570299783103 0.635433257483408
285 0.8703374193728659 0.5953797162881691
286 0.753831257020918 0.9016588435927603
287 0.14362394009600898 0.8316995864109008
288 0.15371743053944686 0.8276513654547252
289 0.24003048964784712 0.5943940700025562
290 0.23648327711914152 0.22951554803805008
291 0.09179068953156 0.49815219325730864
292 0.5022453970292469 0.9765143620223413
293 0.19125872901081942 0.0839128328778026
294 0.023003589932900637 0.09155684814390475
295 0.6520966442666146 0.18147033606677354
296 0.8241695047212675 0.5687621179242657
297 0.8855836709647437 0.5249568421320974
298 0.34792348692917363 0.8303206037897605
299 0.8349261066947522 0.5194073787731298
300 0.6731720635375233 0.9750731461617834
301 0.02800175484129175 0.7386511956356762
302 0.9032647585992071 0.8022787004098278
303 0.5629257107988986 0.8888444873443706
304 0.09390358835306545 0.6122100244909685
305 0.23832211714459095 0.824712117713191
306 0.3919344571736999 0.29179940066980514
307 0.8148072360269784 0.6785944855948463
308 0.8370366148587043 0.7656172065506027
309 0.0032756138343019714 0.29657779567268416
310 0.9075111572873436 0.5800153729836264
311 0.23018371998789378 0.5993430601410432
312 0.23354167281951566 0.21959805894757822
313 0.027024533877461843 0.1718112223965077
314 0.8432571187291036 0.2696617899436323
315 0.4381323906685157 0.16356549112688434
316 0.803535257719076 0.0736066461053495
317 0.8874776916427166 0.5814539687879852
318 0.8253923520704144 0.330072582125573
319 0.687790855880956 0.5727300837348274
320 0.5370081822636186 0.5840867103047767
321 0.9149374270355242 0.7472129961689061
322 0.9577538167001769 0.8005803512364913
323 0.10251392684508198 0.6209825800955169
324 0.48187761709924704 0.20876231544873525
325 0.008928225286648495 0.14073303936399262
326 0.3264743726564622 0.6128172067400344
327 0.461418946183496 0.6538833953084492
328 0.8221992040372135 0.4404990577639142
329 0.9409495663737178 0.11345727020731544
330 0.9399732576845812 0.35450892558333613
331 0.29937886803387215 0.7871816117479541
332 0.6397878767710005 0.34079111084729985
333 0.7038825337665662 0.27362468969106357
334 0.9645940839160161 0.27953135749437663
335 0.4729128437853214 0.6847571719277659
336 0.8033617406851318 0.3305574613691392
337 0.9226607098772249 0.3861243251829184
338 0.7427307020181619 0.9752147724487892
339 0.5340508076241228 0.8318406882524488
340 0.8427519602691989 0.33375158908993696
341 0.7480139939268973 0.9232379765937121
342 0.46974101322737094 0.06480776160597412
343 0.8840737068747294 0.3154869363222722
344 0.27886402130262566 0.4198683954263117
345 0.5734502270298434 0.9049179600068517
346 0.11797524394990655 0.739511162241379
347 0.2920402503235924 0.10653909686041196
348 0.142483797725789 0.8321266109292347
349 0.6172539007828125 0.22020986456601732
350 0.9628194338504832 0.6967682589348045
351 0.7116959587272873 0.26542250723407135
352 0.4858263360122149 0.2455818470886666
353 0.8811184575437374 0.7244811566485795
354 0.6881713705103331 0.839342313341292
355 0.8169050476805677 0.21746372163663008
356 0.8268010963232418 0.8573547526978778
357 0.9373442776145592 0.5432220043536018
358 0.11465821536472254 0.3066687424370921
359 0.7436588298171755 0.4196265543678124
360 0.25785900667038686 0.12124777103624285
361 0.8979463887472459 0.2376533785246837
362 0.43701699242743997 0.15367615826309
363 0.8587508235942379 0.20225780161832085
364 0.9786703680519704 0.27379143604231926
365 0.4631091148523778 0.7816224961425203
366 0.16083272478745814 0.785807063734873
367 0.9732885704106432 0.39684215614388874
368 0.815156775409449 0.2485676516436276
369 0.32911212222198694 0.3090520335148065
370 0.8801200205653763 0.937950848978424
371 0.11579391275590234 0.15926404734619348
372 0.3885029947242895 0.7624604224231559
373 0.9921919907662856 0.5625871289223173
374 0.23715639006440092 0.842792458137547
375 0.7622204124029668 0.8528620554355989
376 0.07665833491688279 0.08282348995040978
377 0.6657298085932406 0.42098779425918365
378 0.4393275866958778 0.9909156918634967
379 0.34165380638176857 0.032280526465857884
380 0.751305053253766 0.6623444138598068
381 0.47452731830383377 0.31398579235275514
382 0.18899452508086845 0.30119306950843006
383 0.5541609603308595 0.5023983771924301
384 0.015587834238384835 0.9784323662087278
385 0.1171007806442459 0.2811083707402908
386 0.8174630178043301 0.3850735507622285
387 0.3456516826084324 0.74099595607147
388 0.4607356675413419 0.6434829706625744
389 0.11673497608079753 0.6843022334799734
390 0.6082381624949358 0.4106591227650753
391 0.5377254969756783 0.4336390409313755
392 0.3459066720053936 0.0031396423888496727
393 0.6000009051701469 0.43761226994409297
394 0.6836003944857314 0.19467532402372822
395 0.4777628788568291 0.825225088771463
396 0.6791595563688836 0.1872439622362554
397 0.8058895971078084 0.9009962818917594
398 0.21020687703518004 0.8884004230081195
399 0.23883748331571863 0.5256690149988531
400 0.4222126882625228 0.02136301944624286
401 0.8487683591527014 0.2525714165041415
402 0.4613913642988774 0.7119024621059863
403 0.16771741850178923 0.6656378964752878
404 0.007918447812518048 0.1194086054286373
405 0.7678057608006512 0.5332495419859966
406 0.529376039219187 0.02556417535227873
407 0.6878231657564214 0.29947390906556703
408 0.36055970763489287 0.10753263601275143
409 0.6441667349676853 0.7660000466198379
410 0.8589072462274134 0.888034085175884
411 0.7890704428230552 0.958672100004497
412 0.694678809096378 0.9607433945814032
413 0.7367680701471994 0.9826233411077753
414 0.9702028362792141 0.9390852287320343
415 0.9406954447562625 0.25641975177061505
416 0.7667446713952059 0.9768602613015327
417 0.7248859134322366 0.3205598415087194
418 0.5182377624921131 0.8920470244363218
419 0.3315056583419922 0.8527613223003131
420 0.6143695616382604 0.9907612398068639
421 0.40091406323076517 0.713154885669275
422 0.2539695101254811 0.7887695275942219
423 0.5923743873653677 0.1831263002900101
424 0.592624038051882 0.7072325477819377
425 0.6582720222056092 0.25109187590754123
426 0.11066867902001654 0.32583856587895677
427 0.5226735641921498 0.09175588015118263
428 0.5879523022335202 0.2885568918043979
429 0.27498121840836165 0.8804747517805387
430 0.23597903937998133 0.24445875554455754
431 0.3877993409137197 0.05548303181588954
432 0.05309070814816974 0.8259242142702319
433 0.15085250067031086 0.36419088792285603
434 0.9205855421748065 0.809401963231108
435 0.13434666564010178 0.03744342011785262
436 0.27397162160686495 0.7342827758019065
437 0.39268025418394326 0.1293322528855151
438 0.3704937831149817 0.35802506535185075
439 0.22105638980379572 0.20015577973862297
440 0.027060272706614596 0.4821736017085384
441 0.9344215228538184 0.7950182126410625
442 0.5034479219241849 0.18206119400191556
443 0.11141787498905076 0.004068379630636443
444 0.9775657703558193 0.5069062986951899
445 0.08475113961650438 0.7243750485057472
446 0.12437179120389275 0.4896935475169093
447 0.9561151443680063 0.8711262544379719
448 0.3327993889726796 0.3551686366199729
449 0.07254764357512455 0.8596614306970694
450 0.7911876387884695 0.8472467392453051
451 0.8477915710572016 0.6973452529290954
452 0.5403980967067927 0.9418493452149562
453 0.6241936850659959 0.46452877753694055
454 0.39312896081249593 0.13601949824163362
455 0.041770862486222526 0.3577134093025579
456 0.23737032140625036 0.7619016352612807
457 0.8345736709081739 0.6507675049033842
458 0.4223045765322355 0.6217574613723278
459 0.19586483294337587 0.8441350216801936
460 0.038899566008402164 0.05163797778631585
461 0.2323874430624132 0.20740439301738556
462 0.21288717886291952 0.9478579162530064
463 0.5537620613587243 0.07489497672378642
464 0.24551746671646413 0.9936720476547415
465 0.6007093778763816 0.2650670866539284
466 0.498707211270353 0.27041616133402346
467 0.571283375193897 0.6415372894508097
468 0.10616133358163027 0.8431455343231037
469 0.7882423844682648 0.4480266576352233
470 0.9650237934921679 0.03318272918720344
471 0.86846164658721 0.32736488065372804
472 0.0906753718148442 0.23327614493706106
473 0.20934120406294454 0.032181989319617466
474 0.4962558415480116 0.9350301681495036
475 0.9812251288157205 0.21123840042791686
476 0.9032994582511236 0.1377699216845022
477 0.5176658793732161 0.9536355686369548
478 0.8659076329289442 0.5812415643129556
479 0.3260752998376897 0.9585412526957414
480 0.3132982601038202 0.4499093177963156
481 0.5988481711814706 0.6320594384171658
482 0.5151719182050157 0.3379648232237137
483 0.04246154338870145 0.6239187677322422
484 0.11809707591661878 0.6095188705424066
485 0.9392908103967532 0.5295695812903688
486 0.31511112085648274 0.421577314098057
487 0.4938978970924356 0.9068038431536682
488 0.6829322594121264 0.9305871521981478
489 0.06903203286620074 0.8050481732070675
490 0.889710283192668 0.3580334126539416
491 0.694687861411014 0.3684963981772976
492 0.37156886234326536 0.5808042011982537
493 0.27751474542444854 0.14936911787191598
494 0.5158684165682906 0.9924937271116654
495 0.9379692271929001 0.009352442664932292
496 0.8416906883952927 0.2055331327335863
497 0.1810612441714301 0.45655259165147677
498 0.5554389392400659 0.8250272749037645
499 0.17874560323932887 0.9249892110071952
500 0.8659355118626051 0.20003270841505194
501 0.621838762766464 0.054270671041055984
502 0.8684967662087846 0.5142075427059952
503 0.5045579580205378 0.2384767335182154
504 0.7726406176004472 0.649855594722161
505 0.31547187905083307 0.015789790948629756
506 0.06484648006174931 0.060586752475102035
507 0.15409941045310183 0.1519451494830586
508 0.07570891989923423 0.5543087783208992
509 0.27238564474117655 0.8818906359707173
510 0.6401411401750187 0.1746369411520332
511 0.14601859176517462 0.43239298185224173
512 0.8865346769353182 0.589454458178281
513 0.3012473312796651 0.1925747559398554
514 0.6578136683254636 0.3666094001472505
515 0.7931216771048456 0.4608522951927756
516 0.8463936863834438 0.758287990069223
517 0.9054142825573903 0.9989646608408681
518 0.13661227700446432 0.13124644748234948
519 0.8677121207608495 0.5143542304357925
520 0.7764233091784253 0.4013657698306713
521 0.966892803375129 0.7531785319305832
522 0.04639081828508285 0.8690532225783337
523 0.5499959063399776 0.4351156066862448
524 0.01126444370288493 0.4979665854213683
525 0.7890880975876008 0.20206837962506363
526 0.8777389039801505 0.03672489577001292
527 0.8234047241282785 0.6713625457758454
528 0.3017713542214939 0.8064813978179013
529 0.4745308273565433 0.8442987528642883
530 0.9196601931715941 0.9510234314889396
531 0.09300624748163977 0.9937805842010782
532 0.26326574213849996 0.33183597805767606
533 0.6137007126436353 0.2320432257133842
534 0.7714411178839615 0.3545188600946412
535 0.3623307991312098 0.8859665973006572
536 0.24464493353059324 0.016438995094946285
537 0.5956075737238836 0.7456487073301091
538 0.17830227457105585 0.47790736216149277
539 0.5553995250584711 0.5416563950438577
540 0.8987579606537733 0.31037816862520906
541 0.10216177149751837 0.9765850915945187
542 0.40173303915510206 0.4629204168727705
543 0.544872622270648 0.8518972357466023
544 0.747417941996949 0.706833317207423
545 0.8540275005369883 0.928651610750504
546 0.10098777036626261 0.6069043206690767
547 0.520138572279767 0.33020427292374743
548 0.731115846835884 0.4080951863664769
549 0.3595657990004031 0.6950509829161126
550 0.11032876473213693 0.31696302537194665
551 0.29214473691794096 0.3037389663499457
552 0.6840520605213306 0.09101161478304198
553 0.8972599208278286 0.04494746149846174
554 0.4234580047304932 0.18505379501061725
555 0.1174999604498701 0.737947299459735
556 0.9637017958531172 0.15313716837822944
557 0.5329797157209943 0.8272151438431071
558 0.38392767272195405 0.48711157905741864
559 0.43353451305342483 0.7738704138649702
560 0.10611534792819421 0.1406588081571133
561 0.6118710374267423 0.15313382810838883
562 0.10985307056697269 0.5808497228715588
563 0.18540225946222655 0.017691234231930753
564 0.4415842280228529 0.23215764897767055
565 0.20871732882602734 0.055030812629017545
566 0.8465730851015627 0.5414769668115957
567 0.32759412120574694 0.34777344301507496
568 0.7463829998552672 0.4679301249245218
569 0.6562549548656468 0.8491630649437102
570 0.8791658275561596 0.2626238340251321
571 0.9338574784308272 0.7769379412917695
572 0.03554587406717313 0.6012491395127447
573 0.2903655313274516 0.11897901401227862
574 0.8060050290575805 0.36632603473437564
575 0.06746084792228968 0.5596661280126489
576 0.7532567472446305 0.3091184712585716
577 0.03537407804538051 0.7938497173258583
578 0.5003689936663768 0.38772407222114547
579 0.9161568414228475 0.8726778745747023
580 0.35475950895420694 0.44161458713927304
581 0.21835418055255518 0.5438919840965626
582 0.49060119473977604 0.7622992532008408
583 0.01653513852089572 0.7917915405660938
584 0.3314381830034403 0.18838354902948806
585 0.321803202557281 0.5421312451016286
586 0.9181992469456955 0.9875013594662634
587 0.9202702192738514 0.6254747473526407
588 0.6377277200416863 0.013230162044164606
589 0.7948734089700245 0.6593394795846459
590 0.08798084833190511 0.2694343111063783
591 0.8573311627117277 0.6998041816489212
592 0.886885321563949 0.7864894644347349
593 0.7011920129339382 0.8361046767608462
594 0.30991732660631977 0.7505538993914777
595 0.6778029790831596 0.2729161136630396
596 0.4742844055152091 0.8932381821797514
597 0.8590190343016896 0.538201662207378
598 0.06440719321058419 0.5112723589899504
599 0.5540561007716067 0.30723139433489033
600 0.011908789666003394 0.8303381555201391
601 0.34638716597489994 0.369192869692343
602 0.7559540444658304 0.8424111372685851
603 0.580825243714115 0.37019973965267494
604 0.15763530445259943 0.18160445503125966
605 0.8246285391959173 0.14127946030299
606 0.8179915051646535 0.07117402382954696
607 0.2966675672915682 0.6541488462172247
608 0.3284220009082359 0.8004422719247425
609 0.7234470440798858 0.11268339705604957
610 0.3089222948898397 0.48484644597489335
611 0.21586310916027407 0.6753416491171977
612 0.5862916027817475 0.7017818395221848
613 0.1474038058731436 0.33323111474909584
614 0.956732311542399 0.16428371169751066
615 0.8778059003106808 0.24486871419957124
616 0.3379750806320587 0.16675956602974884
617 0.5757076488394167 0.4246480922829037
618 0.8364935545131095 0.9754835817262497
619 0.8246985668045875 0.25219497798566715
620 0.2649529581591956 0.6329806777975693
621 0.38385521264782596 0.26440230639500173
622 0.5103991548800229 0.89375591972452
623 0.5669898258928516 0.905999003749072
624 0.8450394879011428 0.4846445546614535
625 0.5928351170080388 0.2915079286200959
626 0.5857253970297587 0.6338642485319853
627 0.8832323381140273 0.7960671656589947
628 0.16013984180671237 0.5980702238750749
629 0.5486436207405037 0.9400354709955847
630 0.15313414724271535 0.4399764351880925
631 0.6494309971127427 0.3414780289063166
632 0.8162241514744235 0.9663906016269206
633 0.9893328701143276 0.8982300037542114
634 0.5214908936043073 0.5383191741712535
635 0.537144786610724 0.5383694173496952
636 0.07459873679803608 0.9948800965306018
637 0.7079910950668495 0.21070403046519137
638 0.09442148033264897 0.5055180169762625
639 0.9141695232890942 0.14667412380839595
640 0.40728248329092287 0.0023591607321284958
641 0.6639539564586283 0.520715774688603
642 0.7699334113301671 0.7329134606550344
643 0.456991767418378 0.18524794287458668
644 0.9062354953314968 0.1414576647990332
645 0.5492673745884874 0.4162272983286247
646 0.7403639449328494 0.33681353846128825
647 0.8260879522523017 0.2105884794183953
648 0.025390814179348853 0.20649403583579318
649 0.9126306410166648 0.3617770595771199
650 0.7616185680465075 0.06606777720736157
651 0.12107528171000859 0.2878099507586981
652 0.45605609437208505 0.34880114151662944
653 0.6407942072469742 0.6615985298683216
654 0.8226936932597076 0.26986056453782115
655 0.9201603769223418 0.38484942362311325
656 0.18074158202362933 0.25909908814580573
657 0.14625236613138193 0.163053575733773
658 0.7275423122709573 0.667364889973146
659 0.05301612302845726 0.8569517614174259
660 0.7160301498302983 0.4018505766476763
661 0.829574854091078 0.6256496751042457
662 0.8310245782434275 0.4627630307829945
663 0.903883854646679 0.8572121430653477
664 0.3608896846988292 0.44560271028175724
665 0.049095296324360715 0.5827148011164672
666 0.5857862249676397 0.27373595213650626
667 0.5384289937519338 0.17765663255446706
668 0.20948919932213173 0.45203649544689384
669 0.5008658237135886 0.09175595472236286
670 0.31693396486072556 0.547196613060526
671 0.689892975793175 0.990806263967483
672 0.31265142308363036 0.2727321711240315
673 0.8401086948506606 0.22902384452015045
674 0.6514030944516968 0.6603404980111339
675 0.2869474800978715 0.37357426460082166
676 0.019676147769966734 0.8358935629686007
677 0.7405693681587012 0.39292891927551654
678 0.02638387599200831 0.7722990863930123
679 0.940399631775347 0.09961975952045776
680 0.10052782284737483 0.9097145288370929
681 0.994385745042674 0.4266756629307492
682 0.6894880072410935 0.30997336006986176
683 0.037965750121747965 0.9562472449018884
684 0.0818735870705728 0.4038896729420176
685 0.9673646510377099 0.08621089034355345
686 0.31131141950906893 0.44431884942387556
687 0.5539914864642094 0.37038984518411044
688 0.13768281034374952 0.434699737734478
689 0.6142127014733921 0.6797867534847946
690 0.3022120788870959 0.3865663653659974
691 0.4531398522150871 0.7596745579674852
692 0.5814819479597411 0.6127804420684457
693 0.2907974795139555 0.9635823426588346
694 0.69161242795417 0.5535922516917936
695 0.6480724414472626 0.07252261021695083
696 0.7740736019429011 0.8551197870087555
697 0.025815406662159646 0.9051629445535052
698 0.26578130897867314 0.7889802650514818
699 0.315394020238844 0.36414592967968407
700 0.5173152280172018 0.3180900742645574
701 0.1307834508209974 0.16348700373812564
702 0.8067292793890564 0.48654997183824267
703 0.5640741926000025 0.4052308317698996
704 0.7144293283186514 0.08904182141150674
705 0.10765714952111594 0.10316742225644493
706 0.8967530068049792 0.914409683923465
707 0.17774124585737305 0.7085024219250463
708 0.6210413663238612 0.07991109710424993
709 0.7274518802844818 0.568336551422744
710 0.8678714814330144 0.9493523752411344
711 0.5524203374831165 0.21305050441981677
712 0.6823113360036045 0.5514386918138305
713 0.9114555338561877 0.2440120234807054
714 0.32810900250483277 0.3661273594801082
715 0.07803185329564155 0.33764105891819396
716 0.48551815845668067 0.02114008358014241
717 0.8571207441881841 0.5523182575773732
718 0.930804683591067 0.16692143876837007
719 0.6737842991737898 0.557122078692359
720 0.10636504027053695 0.8441402264709783
721 0.11492351041504412 0.9297911317403338
722 0.7821852756146447 0.19421545682671426
723 0.7847032303540241 0.45858826962045807
724 0.7894994876900933 0.9893277172311281
725 0.9422130075469675 0.11726776224048219
726 0.43545187224528625 0.2703281302503244
727 0.2832423706329109 0.03052702972673227
728 0.7616162818787361 0.1237439157874084
729 0.7362264044346887 0.022925242688279335
730 0.24150494730254535 0.8387701118903331
731 0.31249678552940685 0.6822477405422518
732 0.49596494741794084 0.46150258226335217
733 0.8161668513029698 0.3348947811412474
734 0.9514633058791645 0.3573127461945199
735 0.3253403728508035 0.9920444822060644
736 0.3655686246652792 0.32117815799217553
737 0.3073147111140405 0.3290004967648803
738 0.3856687646851742 0.5797171617130434
739 0.6314773699467588 0.8769449810420354
740 0.31761923802696734 0.8573320759752003
741 0.9591335228297923 0.1598914469379058
742 0.044548284800737914 0.046690398513447695
743 0.38321531765677785 0.3545480612261692
744 0.3387800675285143 0.9308481970194815
745 0.5715734839879207 0.9262965021963308
746 0.19014737082380762 0.23694735438237502
747 0.8923502104587479 0.590146902410581
748 0.8619927139672199 0.35734249842362387
749 0.6707045784096864 0.039174585380357674
750 0.3161866656802471 0.1854260093904565
751 0.5317701801677814 0.35923686755082507
752 0.11214281025378081 0.726679670051787
753 0.6497393072651492 0.9212613348641036
754 0.18693994108565548 0.2213035113579166
755 0.9473846947480951 0.19268123877209287
756 0.3333169830922511 0.7678585617435209
757 0.10388499093197623 0.7867816110851144
758 0.15590455481799037 0.02325047141594827
759 0.3364842629323491 0.19249328244958408
760 0.3317400087939494 0.7107312598669072
761 0.5717114552099521 0.05742046532364187
762 0.6605119016420922 0.1455026655031706
763 0.7032364139385294 0.576518390671528
764 0.2584503423038552 0.031712163911780444
765 0.9106033767121618 0.8599047179729484
766 0.5214021227013502 0.025720129996677832
767 0.5730831817553437 0.9207122907289861
768 0.9675639885655973 0.5703999074959402
769 0.8841151366713036 0.4134940338242368
770 0.3167732476260575 0.04287171354636654
771 0.9035275810161462 0.034569601994080545
772 0.026213027522280385 0.6127174836994064
773 0.3229276778902712 0.6992886551156372
774 0.548664239845285 0.723639561206973
775 0.30203312618335465 0.7692455310751785
776 0.18314783912206611 0.7424888093740649
777 0.7743910291906012 0.8440401562327833
778 0.8301675244476256 0.2657845258799183
779 0.5482268398230521 0.3448338248219468
780 0.8612573321699923 0.33308655269391296
781 0.571876932079562 0.08815746770984279
782 0.2897238009287113 0.7736098056709635
783 0.36970037758070873 0.8286717443244513
784 0.6811592145280907 0.2787511657059225
785 0.7734835298267005 0.13387905894706786
786 0.9068650638394584 0.1828978443763678
787 0.48008201102342785 0.6447824746146796
788 0.740286028067598 0.24198723273099287
789 0.24337195561912905 0.5039209762896334
790 0.1864352149164501 0.7416548560166512
791 0.8336241660357542 0.9664565461508194
792 0.6498367681250241 0.8757160633205207
793 0.5572028406586402 0.1800323282508789
794 0.24162529453201476 0.5293378493393305
795 0.6805416975998189 0.15678295843703205
796 0.486251282195999 0.8096578762356841
797 0.47737771913621785 0.46130213114092433
798 0.1350450898034744 0.6936469899410936
799 0.015511452286564142 0.1567767166808488
800 0.7445719862006932 0.7706621834569563
801 0.1457842266374202 0.5603032228983478
802 0.45517872351122624 0.4075071411719716
803 0.7926398515798205 0.3975947218562611
804 0.7125830899562156 0.40702880654593376
805 0.6428059029868968 0.0847456472501168
806 0.03743408255064795 0.8765051755203972
807 0.6401463067811687 0.3310200993279533
808 0.03797937875920854 0.004034745777799276
809 0.529676715275522 0.5490629188051577
810 0.8564883009144049 0.44991994432473326
811 0.4555919856619043 0.49735631180732087
812 0.39587131199398773 0.15146722021793502
813 0.17457549192800725 0.5949832546052201
814 0.24511195832712784 0.936759372244457
815 0.7382109586586966 0.3540348773988722
816 0.11005976981589183 0.9320392360811361
817 0.48211881454741057 0.09042793875845823
818 0.08537293709099736 0.031508717117344265
819 0.7157081512204678 0.957259530156841
820 0.9015368586713425 0.3977814488983249
821 0.7077165534269211 0.5997879019693555
822 0.914776885587635 0.522441501724887
823 0.8781555947298166 0.43245577180497075
824 0.21384264847822487 0.32325112904699227
825 0.04267268429368487 0.6019080118401898
826 0.33294247135595423 0.07331513021941971
827 0.9277374886497638 0.2443189846448326
828 0.4606496286362036 0.5770945013061816
829 0.33094505956310594 0.40005193323669164
830 0.3664021707794777 0.9623526218375065
831 0.44444375347209153 0.9858867509792899
832 0.6398816042882909 0.766323116676197
833 0.2228290103019407 0.5720160255689297
834 0.03132840764559541 0.3568697287858861
835 0.9564998615485382 0.5296617244471244
836 0.0759672698151137 0.9294712679881163
837 0.2606095985976288 0.9337077161440724
838 0.6004467522473687 0.5538326372847904
839 0.35930406575271345 0.3467845771934511
840 0.8758758110321967 0.44250566773246236
841 0.8189329726803607 0.3434719568027951
842 0.3905202995868099 0.7050522928937631
843 0.5794291398493994 0.31020009086965294
844 0.09842845619909257 0.8608677945321939
845 0.9596120497987246 0.3535004012640003
846 0.8676703391599669 0.20331241754389073
847 0.3703395282679822 0.44754637258040586
848 0.07039804119345616 0.8434076097465444
849 0.4101656365741898 0.5325125529341541
850 0.7500692661939221 0.649256980837834
851 0.16932735727141557 0.18575529105968858
852 0.6544232374484954 0.3560465164030612
853 0.24901460557463584 0.1406071308145812
854 0.8251978294871093 0.8280087108629123
855 0.632998145000408 0.8103088874982435
856 0.5688846678276694 0.8121583742792738
857 0.3305168116129986 0.345089082757261
858 0.9558084247830091 0.8096342404991976
859 0.16259824287104807 0.9560922441948874
860 0.5296835561640705 0.6000108729415694
861 0.8927098071725446 0.13251901820083622
862 0.17822211752909634 0.6622000718450104
863 0.4223846342563763 0.38331131089747406
864 0.9934793929174937 0.8803204402149626
865 0.8850174459596812 0.9349975451387454
866 0.9675296020563087 0.35787044061841367
867 0.7549820847184714 0.30567354618186826
868 0.4317645032222046 0.5541935860984953
869 0.33805268525361964 0.9758168693445074
870 0.6560426000020665 0.9981145928285668
871 0.5481630603230419 0.18033781751874445
872 0.42102902190879854 0.45884985557806135
873 0.8002068850756672 0.1218051452887341
874 0.2443201797489909 0.4297938652959066
875 0.11789757403107837 0.7626821671669136
876 0.509812849977951 0.5144091550758739
877 0.916116306370728 0.4376786410682132
878 0.38769347704307566 0.1718394680729184
879 0.298090363984863 0.4996200407031557
880 0.673897861342542 0.24805336620080898
881 0.32725249392738887 0.3993463296987363
882 0.8952080494544055 0.2668057477035102
883 0.047973277203317455 0.041514132927337744
884 0.617874335807914 0.9645067343267055
885 0.41637174535100097 0.1534779352914346
886 0.31899557864089134 0.12910174357226256
887 0.5720218079225682 0.13966004884432381
888 0.6825005733101371 0.29535590528978073
889 0.04142989561880528 0.8863021613377375
890 0.14906914347055844 0.3380772201360218
891 0.8080898302473581 0.9530525859512861
892 0.016330004289414224 0.0599396591353899
893 0.1619347038384259 0.24597383259605676
894 0.4169087271178097 0.18878676183268295
895 0.2082073641560267 0.8739928088968695
896 0.7654749473249202 0.4895353265245239
897 0.7102041387986887 0.6577088638399986
898 0.5489068511147314 0.4006345378378685
899 0.1687970165952306 0.09422690358478425
900 0.7476134664461973 0.9215272829229156
901 0.35035984374609785 0.4784191210871861
902 0.5514522248278375 0.9015304869533434
903 0.8070589590395886 0.7348813755077366
904 0.6893761071980616 0.993480477178269
905 0.6164370061276501 0.796714723619643
906 0.48137839945980365 0.16758288670295374
907 0.8300263692921959 0.28358651291053716
908 0.6362742460411785 0.28915958063197944
909 0.2954854534759612 0.2592664480155934
910 0.16581493803435543 0.7381731780483982
911 0.5485576841105286 0.9504040916167508
912 0.571958090421861 0.6129582007548363
913 0.8200131787982683 0.5707596204783733
914 0.9045867976580765 0.014825925747806279
915 0.3650973680478804 0.11489270660265483
916 0.31733781601258404 0.28558399405417
917 0.9286876313479744 0.1415396295089114
918 0.27834935282044115 0.7169464035638319
919 0.8943894283850755 0.21858454614645018
920 0.18546850280723404 0.8668462449979033
921 0.35643295800071884 0.6950680050983034
922 0.21922281516423847 0.6794065532903929
923 0.06000335472241025 0.9966998832308688
924 0.22275798411398917 0.8137181943920739
925 0.08685719961387717 0.5107954825861325
926 0.1942079494594655 0.4192204397292677
927 0.27239322420746637 0.23450103239513076
928 0.02107657329588719 0.6154729619918405
929 0.39975535423006503 0.8352717006453393
930 0.8154936025747371 0.41349510735091466
931 0.0890182873870522 0.12068873898218657
932 0.054908452297781185 0.8478202159862367
933 0.06978882215800553 0.5003432933116839
934 0.43143303775409503 0.015660718202945456
935 0.6788847001012762 0.6490445268666883
936 0.741832432414544 0.26121016120907137
937 0.3649400169526368 0.5058854950758764
938 0.08376092879365438 0.8375266617565174
939 0.8536400980013158 0.502208114467687
940 0.8698956086216911 0.3912751120656598
941 0.6662586424126272 0.915058284573967
942 0.7362661644596128 0.504631707374597
943 0.12425679681281143 0.2922007345864178
944 0.7419261733610693 0.2936347578483308
945 0.3654047267617756 0.10511575863117029
946 0.6121039910380919 0.41694291267081773
947 0.30705442287424844 0.96216099890549
948 0.6475941849584806 0.7734760639394249
949 0.777037831927167 0.6252219579608279
950 0.9075574335126531 0.9851311412043826
951 0.7262251800469325 0.7918165231007464
952 0.5467537798058391 0.19587537842761515
953 0.28446366877194296 0.32914660658925576
954 0.009997883181877887 0.023518039039986838
955 0.7885300367432609 0.9644076905817254
956 0.3189679412866938 0.15384750192091123
957 0.9332460187094902 0.0958975996303163
958 0.4456000183523102 0.27585566476677437
959 0.6892593666399444 0.6458098354414007
960 0.1580613022630517 0.026797365231693404
961 0.14700474471183766 0.10992315754393989
962 0.15006805217737262 0.18519617948793332
963 0.6024015537093563 0.7407876654937874
964 0.9059245503242682 0.4169220160075038
965 0.4676365913466486 0.9259334071541186
966 0.7691393848573587 0.07162746250035879
967 0.3486371954888593 0.4586858148733368
968 0.9345473221024541 0.481047735489754
969 0.2239212291035747 0.8088921323124482
970 0.26385011278010584 0.09176065347996809
971 0.8518237065502664 0.6242616416582483
972 0.8036005669716912 0.32122317477694773
973 0.8647501726373914 0.3495454191929027
974 0.2686057374073094 0.5264535273798376
975 0.9318612344938331 0.19451167753804743
976 0.8966873688233306 0.5045597150119723
977 0.9548578031449934 0.25083758377415044
978 0.3130600084459928 0.6950239490093374
979 0.8580412491190935 0.5761483168024454
980 0.793311971859582 0.9791222112511669
981 0.9379528667663758 0.37070005737226297
982 0.9334232847133912 0.7541161874124771
983 0.9628860479958798 0.3566473317658756
984 0.8112531630744895 0.6447198136977957
985 0.9536025077163552 0.9736058851859977
986 0.4366259979231706 0.6433458881145478
987 0.46323206563580077 0.18043968120377862
988 0.12284204780541486 0.8744248133709892
989 0.7336632035256031 0.028727487153336506
990 0.7403132244790962 0.5097447335736416
991 0.03259937097974197 0.3860464842630471
992 0.1412413227893189 0.511347261694993
993 0.5305841584674297 0.920552368176314
994 0.646970492426856 0.2741567444481007
995 0.4539294670507277 0.945915741010571
996 0.5293361859383647 0.6570943382527079
997 0.09324969618634305 0.40640243542774646
998 0.5079450722811125 0.5893229828478687
999 0.7015922556232036 0.2485363955215779
1000 0.7631740854236095 0.9870473913524681
1001 0.9369399790130246 0.3161264822160943
DEMAND_SECTION
1 0
2 7
3 8
4 2
5 9
6 4
7 4
8 8
9 2
10 4
11 1
12 8
13 7
14 1
15 7
16 2
17 1
18 2
19 4
20 9
21 9
22 6
23 9
24 8
25 7
26 7
27 6
28 8
29 3
30 8
31 2
32 9
33 6
34 8
35 4
36 1
37 9
38 5
39 9
40 8
41 3
42 7
43 6
44 3
45 9
46 1
47 1
48 6
49 3
50 6
51 1
52 9
53 2
54 7
55 7
56 5
57 4
58 8
59 8
60 6
61 6
62 2
63 3
64 8
65 5
66 8
67 6
68 6
69 5
70 1
71 6
72 6
73 2
74 8
75 9
76 3
77 2
78 6
79 2
80 4
81 2
82 3
83 7
84 2
85 5
86 1
87 1
88 4
89 3
90 1
91 4
92 4
93 8
94 7
95 9
96 6
97 8
98 3
99 4
100 1
101 7
102 9
103 8
104 9
105 6
106 9
107 4
108 4
109 1
110 1
111 1
112 6
113 7
114 9
115 2
116 4
117 9
118 2
119 2
120 2
121 7
122 1
123 1
124 8
125 9
126 6
127 9
128 3
129 8
130 8
131 6
132 2
133 6
134 7
135 3
136 4
137 5
138 3
139 2
140 2
141 5
142 9
143 2
144 6
145 1
146 5
147 4
148 4
149 7
150 7
151 3
152 5
153 1
154 9
155 2
156 8
157 1
158 5
159 6
160 8
161 6
162 6
163 8
164 2
165 9
166 3
167 8
168 7
169 6
170 6
171 5
172 5
173 6
174 6
175 9
176 3
177 3
178 2
179 7
180 1
181 1
182 4
183 7
184 4
185 7
186 8
187 7
188 8
189 3
190 7
191 4
192 9
193 5
194 8
195 1
196 9
197 3
198 8
199 9
200 1
201 3
202 5
203 6
204 7
205 1
206 7
207 7
208 4
209 9
210 3
211 6
212 4
213 3
214 6
215 9
216 6
217 5
218 1
219 6
220 9
221 7
222 8
223 3
224 8
225 6
226 9
227 9
228 1
229 5
230 2
231 1
232 1
233 2
234 1
235 5
236 1
237 5
238 7
239 3
240 5
241 5
242 8
243 1
244 9
245 8
246 1
247 7
248 4
249 3
250 4
251 7
252 6
253 6
254 6
255 8
256 5
257 9
258 9
259 6
260 6
261 8
262 2
263 6
264 1
265 2
266 6
267 2
268 8
269 9
270 9
271 5
272 8
273 9
274 2
275 7
276 4
277 6
278 8
279 7
280 3
281 1
282 3
283 4
284 5
285 5
286 2
287 5
288 2
289 9
290 8
291 1
292 6
293 4
294 5
295 8
296 3
297 7
298 6
299 4
300 3
301 5
302 1
303 3
304 4
305 9
306 1
307 3
308 3
309 5
310 1
311 4
312 9
313 3
314 6
315 8
316 6
317 6
318 5
319 4
320 5
321 8
322 9
323 5
324 9
325 2
326 9
327 6
328 3
329 6
330 3
331 2
332 9
333 1
334 1
335 5
336 8
337 3
338 7
339 1
340 9
341 8
342 1
343 9
344 9
345 1
346 2
347 1
348 5
349 5
350 1
351 5
352 1
353 7
354 4
355 5
356 1
357 7
358 7
359 5
360 9
361 2
362 3
363 8
364 1
365 8
366 9
367 4
368 6
369 5
370 8
371 6
372 1
373 3
374 1
375 9
376 9
377 5
378 8
379 6
380 1
381 2
382 5
383 7
384 8
385 1
386 7
387 5
388 6
389 3
390 3
391 2
392 8
393 8
394 7
395 1
396 5
397 2
398 9
399 8
400 2
401 8
402 8
403 2
404 4
405 2
406 8
407 5
408 9
409 9
410 5
411 5
412 5
413 7
414 8
415 1
416 2
417 8
418 4
419 5
420 1
421 3
422 9
423 8
424 5
425 3
426 1
427 4
428 3
429 6
430 8
431 6
432 4
433 9
434 3
435 2
436 4
437 9
438 1
439 1
440 1
441 9
442 9
443 2
444 2
445 5
446 3
447 4
448 3
449 8
450 4
451 8
452 5
453 3
454 1
455 2
456 1
457 9
458 6
459 8
460 9
461 1
462 2
463 1
464 3
465 3
466 6
467 7
468 2
469 1
470 8
471 4
472 1
473 6
474 8
475 6
476 9
477 7
478 4
479 8
480 2
481 4
482 5
483 6
484 7
485 4
486 2
487 1
488 3
489 7
490 3
491 3
492 7
493 3
494 4
495 4
496 5
497 3
498 9
499 9
500 9
501 4
502 8
503 4
504 8
505 9
506 4
507 1
508 9
509 1
510 3
511 4
512 5
513 5
514 5
515 1
516 6
517 4
518 9
519 7
520 1
521 7
522 5
523 7
524 4
525 8
526 3
527 3
528 4
529 5
530 1
531 2
532 4
533 5
534 8
535 7
536 6
537 7
538 7
539 9
540 6
541 4
542 8
543 9
544 2
545 3
546 6
547 8
548 8
549 1
550 5
551 7
552 9
553 1
554 3
555 2
556 2
557 2
558 1
559 7
560 4
561 8
562 5
563 5
564 9
565 8
566 4
567 8
568 6
569 9
570 5
571 9
572 3
573 6
574 2
575 4
576 5
577 7
578 5
579 8
580 1
581 5
582 1
583 1
584 6
585 7
586 2
587 4
588 7
589 6
590 1
591 3
592 2
593 5
594 1
595 8
596 4
597 6
598 9
599 6
600 8
601 6
602 3
603 7
604 6
605 6
606 1
607 8
608 1
609 7
610 8
611 2
612 1
613 9
614 4
615 5
616 7
617 2
618 9
619 4
620 7
621 4
622 1
623 8
624 2
625 1
626 5
627 6
628 2
629 8
630 9
631 3
632 6
633 3
634 5
635 5
636 2
637 6
638 1
639 5
640 8
641 8
642 9
643 4
644 8
645 3
646 8
647 7
648 9
649 5
650 4
651 1
652 6
653 4
654 3
655 1
656 3
657 6
658 8
659 7
660 9
661 5
662 2
663 1
664 1
665 6
666 4
667 8
668 6
669 4
670 9
671 2
672 1
673 5
674 9
675 4
676 2
677 4
678 4
679 5
680 5
681 7
682 2
683 8
684 5
685 7
686 3
687 1
688 9
689 3
690 2
691 1
692 8
693 7
694 6
695 9
696 3
697 2
698 8
699 9
700 3
701 8
702 6
703 3
704 6
705 6
706 2
707 8
708 8
709 2
710 2
711 8
712 4
713 5
714 7
715 6
716 5
717 9
718 5
719 8
720 4
721 5
722 8
723 7
724 3
725 1
726 4
727 6
728 5
729 3
730 9
731 3
732 2
733 6
734 6
735 5
736 1
737 7
738 1
739 6
740 7
741 3
742 8
743 7
744 7
745 9
746 1
747 6
748 1
749 5
750 5
751 5
752 4
753 9
754 2
755 2
756 8
757 8
758 8
759 3
760 4
761 9
762 4
763 8
764 6
765 7
766 3
767 9
768 7
769 4
770 8
771 6
772 2
773 3
774 5
775 2
776 9
777 5
778 1
779 6
780 8
781 1
782 4
783 1
784 3
785 8
786 8
787 3
788 8
789 4
790 6
791 3
792 5
793 1
794 8
795 1
796 6
797 6
798 5
799 7
800 8
801 3
802 8
803 3
804 1
805 1
806 4
807 8
808 5
809 6
810 5
811 6
812 2
813 4
814 2
815 6
816 3
817 6
818 5
819 1
820 5
821 8
822 5
823 9
824 4
825 5
826 1
827 2
828 6
829 9
830 6
831 8
832 9
833 8
834 2
835 5
836 1
837 7
838 8
839 2
840 2
841 2
842 4
843 2
844 2
845 5
846 9
847 8
848 3
849 1
850 3
851 1
852 7
853 2
854 2
855 9
856 7
857 1
858 1
859 3
860 3
861 8
862 9
863 5
864 4
865 5
866 2
867 3
868 4
869 6
870 9
871 2
872 7
873 4
874 5
875 8
876 3
877 1
878 6
879 2
880 5
881 1
882 3
883 1
884 5
885 2
886 2
887 9
888 5
889 1
890 8
891 2
892 3
893 7
894 9
895 4
896 6
897 7
898 1
899 6
900 1
901 3
902 7
903 9
904 9
905 4
906 5
907 4
908 3
909 9
910 6
911 1
912 1
913 8
914 5
915 2
916 7
917 3
918 1
919 9
920 3
921 1
922 4
923 4
924 1
925 5
926 8
927 7
928 5
929 4
930 2
931 6
932 5
933 9
934 1
935 3
936 3
937 5
938 3
939 8
940 8
941 3
942 5
943 4
944 1
945 2
946 3
947 2
948 8
949 5
950 9
951 3
952 9
953 4
954 9
955 2
956 3
957 6
958 7
959 8
960 8
961 2
962 9
963 5
964 7
965 2
966 2
967 6
968 2
969 2
970 5
971 2
972 6
973 8
974 8
975 5
976 5
977 7
978 2
979 7
980 3
981 4
982 8
983 1
984 6
985 3
986 3
987 9
988 3
989 5
990 3
991 4
992 2
993 7
994 4
995 6
996 4
997 9
998 7
999 2
1000 9
1001 6
DEPOT_SECTION
1
-1
EOF
