NAME : gen1000_014
COMMENT : uniform customers, demands 1..9, generated by bench/make_tuning_set.py
TYPE : CVRP
DIMENSION : 1001
EDGE_WEIGHT_TYPE : EUC_2D
CAPACITY : 200
NODE_COORD_SECTION
1 0.8915265001092697 0.13701145900933154
2 0.14791430568065622 0.04670716391898222
3 0.37110493916180987 0.07282299277619508
4 0.1468748628952229 0.8245385340013827
5 0.5549107796787993 0.2816153111330161
6 0.9147546404735385 0.7001432212015519
7 0.5684785742301787 0.8397060167456498
8 0.473069379078476 0.24884494835674142
9 0.44955887432585684 0.8359336116167658
10 0.030575448054935728 0.6050872902528736
11 0.8539946048422628 0.24219093185301055
12 0.8675457741010194 0.7790351554868302
13 0.19599994194920756 0.8335798829817509
14 0.8133091311123729 0.5309326092699779
15 0.32045401815808705 0.35172433401272796
16 0.06941828653041793 0.09289498585503053
17 0.4092481234228037 0.9356566299605587
18 0.6565953126622428 0.622574398722654
19 0.4212596371278846 0.5892488025917044
20 0.46614063632909364 0.9028182702235307
21 0.6961237346535609 0.7369485452734764
22 0.7315807724862902 0.2538910803090243
23 0.7260040491901362 0.8791350815756076
24 0.017433203476165504 0.37877831012365937
25 0.24539466227849815 0.9711839042627285
26 0.4873791313727076 0.08129742980107002
27 0.49042576045934805 0.6190093544082815
28 0.826305383354207 0.43891995559223673
29 0.5073262619909642 0.2066544487183587
30 0.7625105985223316 0.054014570894437175
31 0.4594522202084107 0.24289991822575974
32 0.7136097611484454 0.31610941528126846
33 0.8728160931328595 0.7203098297364873
34 0.23104548942432368 0.33687878562611784
35 0.5953658753934581 0.06520521277997904
36 0.08371592793181692 0.4464113280577062
37 0.5626532088415281 0.10272384310976634
38 0.9712931783000696 0.7142994295988326
39 0.5240347406557035 0.5375572520329576
40 0.9683332716793303 0.09032937461831636
41 0.27484737281049054 0.7882679293065958
42 0.15930182523843694 0.4710383945416634
43 0.01567589626683319 0.04861746120863286
44 0.4983732705310333 0.8846195298682283
45 0.9777632495840747 0.15430831363428943
46 0.5372146221998313 0.6226511132641753
47 0.7383908385030525 0.8636397098426821
48 0.9158811813603207 0.5271959698166689
49 0.7944590224934506 0.5505025298771933
50 0.6392021587359006 0.18528919735558735
51 0.05163824801440009 0.6424759601594364
52 0.057072911869177845 0.8014356571756458
53 0.9407611201108504 0.44119477364460136
54 0.3076457266767242 0.41370820142288656
55 0.8761449587742158 0.4493141196004037
56 0.6964630596111183 0.6881606202368572
57 0.6168835063481842 0.17576363952266338
58 0.809465251298586 0.01517202216225777
59 0.2609258117093388 0.7254071487454622
60 0.40495593034809996 0.3103504023130883
61 0.9979710469157007 0.7804994359053817
62 0.4518735693608604 0.30052217884074195
63 0.027675942551683486 0.2557962066336038
64 0.26255230822327225 0.5121208570559282
65 0.13773656170122872 0.1234132648148184
66 0.02374668285749071 0.6626197376042893
67 0.21815974844350694 0.3999208060515116
68 0.9357488204504931 0.7748342545050181
69 0.18582113770755782 0.6798155941038784
70 0.9801639240905597 0.5179479167061071
71 0.09999164446151676 0.4117281446254847
72 0.49594881723698125 0.6025264249017802
73 0.6257922265328875 0.29711249685308894
74 0.5812589124470029 0.08049434773789743
75 0.5360961096496107 0.4405969923033902
76 0.8832923421912373 0.6698372393365525
77 0.7169147722100073 0.0018589620194983114
78 0.25494476055919735 0.16446170400698856
79 0.6060657933816881 0.4528425801504661
80 0.746385877814869 0.6878095407715542
81 0.9030830713354683 0.020844646949253587
82 0.05292830725916331 0.7131507084135053
83 0.5182028554978237 0.4260512182617543
84 0.06499849979909145 0.22411917877690835
85 0.47793158756314913 0.5316257763914687
86 0.6116169734981295 0.9470911543571444
87 0.31348506808025 0.9935097334599816
88 0.8999200953317819 0.21725114962260061
89 0.8823445590215859 0.08773103239812685
90 0.18490873084680526 0.8199570483389472
91 0.6071020517394274 0.6034494561892447
92 0.6192041324563914 0.26476177298733294
93 0.8890475324170816 0.00440390790404821
94 0.8887788538879126 0.5908758111494337
95 0.1067902723335944 0.328490016395685
96 0.5789714981996539 0.664604541071673
97 0.6461156698328219 0.06475420409182542
98 0.16015755261111786 0.8987260063460077
99 0.3440751107342348 0.801691873749316
100 0.3264197294956689 0.6222763736997631
101 0.5421282949220103 0.6494821075590661
102 0.8929502012486202 0.5202085969638012
103 0.4506959527594603 0.9614566062314263
104 0.9725057780033977 0.18831147943336413
105 0.11479480492167227 0.9697423476205129
106 0.47672595207437807 0.919095992030122
107 0.9932021394057261 0.9606418860746329
108 0.9801287902348257 0.8501900031132649
109 0.0940265612209179 0.5886354819315149
110 0.07787891257276891 0.35229789476657714
111 0.5726827250603214 0.7086896587144915
112 0.9253283320253312 0.21097764049642498
113 0.3108438825185663 0.31177340831412315
114 0.9474933244734141 0.37777047427921195
115 0.21088193578718528 0.9355313223877212
116 0.3620874537683 0.03999519564370413
117 0.4898344277322336 0.5544673824278818
118 0.23128583417176218 0.8133876182569061
119 0.9193814489325881 0.9165453747048998
120 0.3865243126050182 0.00342765405510137
121 0.3856260280732814 0.8952214871247371
122 0.3586594832121329 0.7575158728351379
123 0.5437128298342013 0.5826881878878402
124 0.11553406488550177 0.2742465470178117
125 0.8223846888364832 0.14781520694915473
126 0.5965727337213105 0.28908964136584436
127 0.18548719762240906 0.6436017855352438
128 0.9501733092882071 0.8183072147040733
129 0.8630787403016047 0.8826477620833421
130 0.3154032870013854 0.8818265323570047
131 0.07316553852626306 0.0047099346266604725
132 0.85035867761394 0.6121435731552645
133 0.039390543284547386 0.826424454981047
134 0.07809948254813803 0.10244306284955873
135 0.7567021558829241 0.9401878827762458
136 0.7112784600847764 0.09715783111452736
137 0.5451509013147193 0.7069824756915128
138 0.3621130553104185 0.405209748232612
139 0.34374619666383155 0.5415774498935005
140 0.8526317582599998 0.855534069838873
141 0.7800527680517966 0.6268786130261733
142 0.3566475226266387 0.6818687722701245
143 0.4535824692056514 0.9800156094066182
144 0.13463323534745852 0.8117808893311542
145 0.7539044348343348 0.9370298022697803
146 0.18690768510419975 0.39114753166357297
147 0.2311510011461212 0.1308736193416442
148 0.9321688858465946 0.7368112086148982
149 0.8740530345327779 0.4862012405333125
150 0.8464071078396663 0.30097085917913524
151 0.5627973624341785 0.2571491142801344
152 0.324291490333781 0.4975591696960009
153 0.16954929355800885 0.4749488128346715
154 0.8736378163007613 0.8004892347382938
155 0.5498729904036508 0.07231049879863716
156 0.9791528717705706 0.14742115839525338
157 0.24943112273480084 0.6657387987495255
158 0.34583016410279566 0.3224788333900547
159 0.43401936381800565 0.6349916005261871
160 0.9596311504538522 0.9684499174390039
161 0.5500711687167554 0.6277795222867738
162 0.16763059359008192 0.5300886299850844
163 0.05945626543556237 0.37666577139862234
164 0.09067399507227769 0.04574092237391192
165 0.3350364331799065 0.34721434587351485
166 0.10747926217599257 0.7047486896969671
167 0.9594608438557932 0.8176854066404284
168 0.6306488809122732 0.059666538452532225
169 0.9280092543150751 0.9322193095829063
170 0.7890512491308714 0.7153251944423774
171 0.5169038039917995 0.6502258678874946
172 0.10143081475296611 0.381429642611276
173 0.26192574002485036 0.9032505359885548
174 0.4428210016349521 0.148061881984753
175 0.4391464586871655 0.9575567438787039
176 0.11559522656891186 0.4143423300892336
177 0.628526166093459 0.977968802449962
178 0.12267495510722415 0.8366489105268587
179 0.7042837191197932 0.18132610861065523
180 0.10025917406830731 0.5282188757215002
181 0.7114006490111823 0.4970952134787332
182 0.018975475807520015 0.7843563297824802
183 0.2295479599801118 0.08674310469155466
184 0.14606488490863445 0.062735671477537
185 0.5513481933306963 0.3612461668565382
186 0.7451752296103836 0.14443065118080978
187 0.83647255420754 0.3545658839451662
188 0.9925669272987078 0.46237548128033223
189 0.42145231735165334 0.29058993442947945
190 0.5081720502270732 0.46465229387577955
191 0.8457368083863404 0.09169532621543608
192 0.6139869052695883 0.9203802943185323
193 0.2548998200681216 0.47395428292413044
194 0.8715040720445913 0.1474373773347979
195 0.29673781553550227 0.27354308561571383
196 0.570437057479066 0.17787731309690324
197 0.875186943553418 0.3673655848995623
198 0.9177006914117326 0.254465154378949
199 0.3740646000596578 0.7994544300601728
200 0.7320046339534708 0.2823479771349011
201 0.8369684110081225 0.9028859136303176
202 0.33685888113151374 0.296013736163535
203 0.8013865538405149 0.33521426317054726
204 0.7594751031221263 0.8140952431894308
205 0.7519052028890414 0.08059061892978436
206 0.9887500830785387 0.7274739432681688
207 0.030894782343039107 0.7419842879560672
208 0.6401957693623782 0.856141437727425
209 0.6879576402325527 0.5426122369764127
210 0.2200711833869361 0.8070724054591306
211 0.8299138663768989 0.3999802815258777
212 0.386805575476843 0.022123854719913183
213 0.20926345512729583 0.801574090688069
214 0.7521031256668201 0.2554362172403921
215 0.14201295459926488 0.973041242184201
216 0.6512000105768588 0.2514400725466728
217 0.2196865745116191 0.9417624361105693
218 0.11385777577197975 0.24283835444088786
219 0.04588253713192969 0.9919879026530297
220 0.42830496806157636 0.44465394197904184
221 0.06065834263780834 0.8574615114613618
222 0.7624851143270732 0.4742899864390707
223 0.03764289277184374 0.4962226755287876
224 0.17723656127099396 0.1667718077945396
225 0.045572855873255214 0.9934452760670691
226 0.12247063189632845 0.1914324154257956
227 0.3000678693770297 0.8577145047264191
228 0.47907476450768394 0.19052459405460653
229 0.7297734107273771 0.7219272712131474
230 0.461376195692618 0.5835256107738281
231 0.2579967450712639 0.16942571679335594
232 0.25625369729449954 0.23556909275315052
233 0.4300898241649692 0.5767043358386831
234 0.23772636546585757 0.0029372688160080873
235 0.10386958488157794 0.6364413920069504
236 0.20865077527021492 0.5967437285427574
237 0.2666690546715784 0.9433651368588978
238 0.5001244063608117 0.5407266110323687
239 0.11317410510171122 0.4244615343288807
240 0.8228738620311663 0.810990829730373
241 0.9437156228455618 0.3767395326562062
242 0.6601074851615172 0.08842087109001551
243 0.30019531539769573 0.05487054054329632
244 0.08531658316036472 0.28176544631632705
245 0.19225190864388753 0.12172768078718588
246 0.9541293749441413 0.6895520982686253
247 0.3316996418682826 0.23713950193676792
248 0.9775711329140224 0.21695280059901534
249 0.8191347650898617 0.6400283427571308
250 0.8756926995849108 0.8230795036061541
251 0.17590648289827893 0.0827811321013826
252 0.34010271521263435 0.10315989830756656
253 0.2075995661010771 0.8816101504911216
254 0.34664669317411767 0.7636297126919601
255 0.15215962543975226 0.19417203216404688
256 0.39522495010743497 0.6584604190853574
257 0.26967564822804013 0.45668291344091394
258 0.9825798648649533 0.5836999331766187
259 0.19209702720407884 0.6640415316746475
260 0.3654829163195342 0.9552532348084061
261 0.8901547268906557 0.5477061854897518
262 0.5573115576233896 0.013822265789453114
263 0.7625743105309094 0.07434145885004007
264 0.4347621896617042 0.5204002747643982
265 0.665838682154906 0.375263054866002
266 0.3671783404091914 0.6381335520791235
267 0.9513134589809971 0.6498822789610288
268 0.6906619953576788 0.2572798537396872
269 0.3727278770335397 0.4260498943643466
270 0.8422799447251297 0.22796951338454396
271 0.8279612485540073 0.5598985831294774
272 0.36779526691210807 0.2591903271999221
273 0.2894534014736415 0.46372628362926693
274 0.10529473412263535 0.7756389667934275
275 0.2027642617968426 0.8797349987048171
276 0.7568244167975603 0.09164829695140808
277 0.9687032487460984 0.2422406611202338
278 0.9093910415295806 0.5580380997319072
279 0.3737006517345919 0.0767124819746986
280 0.9882050124827124 0.08063630851335146
281 0.004432929068654112 0.6821742373499301
282 0.39011070578993645 0.5500326812849713
283 0.21602532937664376 0.33830538939808663
284 0.9724255671446945 0.1915576532097284
285 0.4630768625059878 0.18292083505944334
286 0.6152330546773616 0.9080516187894199
287 0.9821652047879146 0.2207682318628278
288 0.45649083817455716 0.6596759121637809
289 0.0023055149574034983 0.11141658805718246
290 0.9796237744863926 0.2548399257524039
291 0.4236426274302654 0.13899734927239138
292 0.9095120710953059 0.665895359456507
293 0.32181227678262114 0.16456898575749568
294 0.5640112955301337 0.04810471629883184
295 0.12836175500245095 0.5220304949613912
296 0.38050012486601914 0.9559796207981596
297 0.11358565616271799 0.8574086469708553
298 0.7323673073693071 0.2872481895322462
299 0.4677298878369055 0.8955119804521153
300 0.4897964415965059 0.8570678397823701
301 0.23857880582964985 0.945947016569447
302 0.8894610202446925 0.7463254445957438
303 0.2829111835193844 0.844082649493479
304 0.9945265125696681 0.8377661237967465
305 0.48500633032947726 0.5353581519698215
306 0.29286376001196257 0.22215910394943572
307 0.04372356652956133 0.8349047714206138
308 0.8618960686351094 0.136397458897226
309 0.2242435768847859 0.8382062719117549
310 0.37950416841527324 0.9400469311512323
311 0.5735794563211607 0.2521748750755709
312 0.6672835542243936 0.6610092251144672
313 0.8838358244725093 0.40014921677944426
314 0.8565486748304679 0.6564890979423448
315 0.8186267605037022 0.029128665205879756
316 0.21473349522332408 0.0016566303620888512
317 0.1258457790783668 0.9393835065572008
318 0.4695726812984019 0.6665703212367023
319 0.5574505177463301 0.22389927662235676
320 0.31186686259349583 0.9289482220781335
321 0.017416368614348254 0.8833638762226387
322 0.128247481445682 0.2001902775761173
323 0.015191642927999238 0.3083436783771353
324 0.4055051799145529 0.6989593426332138
325 0.9039956784759885 0.7969574609787556
326 0.7156520313645442 0.3935240897049719
327 0.7262953196995036 0.03459308313558951
328 0.5191668962441957 0.6996930816910263
329 0.16460411088689808 0.1846526065351184
330 0.9188006364921282 0.004176885996756918
331 0.5801128215778038 0.6929959620030692
332 0.6213568074863536 0.47532753112897375
333 0.452428305346934 0.15054757248205974
334 0.7638603754713916 0.9835575877446374
335 0.6396311258809305 0.017087346582233987
336 0.7137938227597356 0.8010577287997708
337 0.837238866244183 0.2210988953582893
338 0.5433556435300892 0.6604947156888946
339 0.31460577525971956 0.8410428777636001
340 0.297370921253305 0.5074974141778186
341 0.08325180068595583 0.5663392756209837
342 0.7394792636036086 0.42525418975439844
343 0.4864368024622482 0.9134122802359339
344 0.1891208127683991 0.3171868657508713
345 0.37729554126699705 0.5932141869857352
346 0.5281453485855665 0.08804318335870998
347 0.8460698641909896 0.3188221473191356
348 0.5919313896716999 0.007356715908726441
349 0.2988346987791596 0.09196533430251763
350 0.5664443275176703 0.66762242078869
351 0.22365165198697745 0.03162353638465054
352 0.3688515243373506 0.7335554716279012
353 0.3388934705239367 0.44276006582342053
354 0.322499807151428 0.09186358218077262
355 0.3990091824773323 0.7743482964015701
356 0.5130899658774234 0.529483171948884
357 0.534886586457296 0.9017263206429431
358 0.48391033215553214 0.6745934021843989
359 0.015529849173233856 0.9607046053551336
360 0.3904252188626053 0.730942647923707
361 0.3676714159642904 0.345685900425337
362 0.10213521824504024 0.5837560290555398
363 0.5861860502471502 0.6781673355045948
364 0.8469368271955354 0.39579246288823733
365 0.6959531163539824 0.5233047409152185
366 0.2838315670623861 0.9155900952471141
367 0.3842418101373313 0.24697724432553358
368 0.07068186608052718 0.28457237151686243
369 0.1774472164068972 0.032479403892769154
370 0.9597278318222819 0.9287020489628582
371 0.7561505698308809 0.8441427922078781
372 0.8973614770828627 0.9739898142179391
373 0.8470248537272326 0.2952753207631529
374 0.19201422343466445 0.49614268001450956
375 0.7983303759537912 0.989521896226277
376 0.5578968005767712 0.40679158354795486
377 0.2758510853745425 0.19017683342160796
378 0.6739521225433055 0.8978514041595608
379 0.962345971367537 0.5997020280162009
380 0.07788126993158517 0.7046231423425258
381 0.8385012495148497 0.44652840236314273
382 0.6929509994286238 0.06264875128224956
383 0.8474408339797568 0.7300843573127965
384 0.2390134241660059 0.11160733497389697
385 0.8715081190421388 0.023915341912031707
386 0.660254547201602 0.17432822005090476
387 0.6442139201868778 0.7364782159272565
388 0.9296400135211823 0.8621586286347159
389 0.5578605714645462 0.08556623262070029
390 0.5450162308929547 0.7552664693498305
391 0.5759921380024826 0.8020348717011226
392 0.6008719393033808 0.8758012112425473
393 0.24597160312258493 0.9640584770723145
394 0.07469446805628399 0.10364621047791311
395 0.9781420934636159 0.4217755804967003
396 0.8799608722918164 0.7524950496715298
397 0.37986929900427424 0.09824201922714548
398 0.23168389100125608 0.5236568697748679
399 0.7559599935708793 0.8762708098748814
400 0.41228373387440576 0.022521212822767644
401 0.3545781375169157 0.7853763154978054
402 0.826185928892398 0.2016032652383044
403 0.07434736950655352 0.17596884076157293
404 0.1525558116504876 0.45051851427113
405 0.9868169678120966 0.3673348291854154
406 0.9932031638847642 0.8467034561951533
407 0.4082835471899039 0.2111182983956269
408 0.33375219069219597 0.010018596837244265
409 0.9683720902622528 0.4937643235610949
410 0.007997462489659712 0.6760401541533576
411 0.758147605732491 0.7976604889924583
412 0.145671689428012 0.4273011052941096
413 0.04542860827119666 0.3658891237599182
414 0.4691784034551374 0.15495612118695135
415 0.9591676839943204 0.9086686276363478
416 0.42459375489071505 0.07412212139356023
417 0.26894167657372336 0.04728565701253218
418 0.9494008357805379 0.614350400358584
419 0.5376929256987676 0.2908483422603433
420 0.5355290090401453 0.967058395646164
421 0.8864963087959059 0.3598212272186565
422 0.442964276056128 0.46535872152776847
423 0.6006764975887716 0.2741530101632239
424 0.49622668301643846 0.12927530246037866
425 0.5623913333086861 0.3614907225274733
426 0.08755850044282976 0.20415996718968965
427 0.7448122419506334 0.9183642482845523
428 0.5349481575435908 0.20663756423350133
429 0.2656070174367724 0.2096234984012082
430 0.8508501591031055 0.9181068238005263
431 0.19381060298722164 0.28165252265563134
432 0.5739578852146313 0.9512313228874678
433 0.2961212534092553 0.8440526182183926
434 0.9814743169858642 0.7711694641198504
435 0.7080910176646088 0.9235640768181334
436 0.9056156601898324 0.5518047581101658
437 0.9175845982107467 0.9436078588758863
438 0.8201556533790324 0.6359001165085246
439 0.27558553589223955 0.2647255440533526
440 0.022570952010780854 0.4410966261036937
441 0.6070601049023635 0.7713490347970228
442 0.38287549963957357 0.6981484541992272
443 0.9536000479629546 0.981463771020659
444 0.9568477514815478 0.06022866541262151
445 0.28596834854129305 0.3051603415166281
446 0.9078282287986076 0.5863431223269248
447 0.7531993393341264 0.671543354178189
448 0.9316730276237255 0.4726234817418784
449 0.19807181245023353 0.3756136014475655
450 0.9744662391359108 0.3766488333538367
451 0.0608764767825678 0.9103563602961792
452 0.4712450717580877 0.7015005579503526
453 0.9366503715325268 0.708530334497889
454 0.9610292649145692 0.9745060511411384
455 0.9168225898815011 0.5924120717647672
456 0.5398632936282418 0.46326581729752203
457 0.7409181659122289 0.5281468298181905
458 0.5009415823621843 0.28663276454983944
459 0.4316009188804921 0.3669498066925688
460 0.6324547299281018 0.5581352417735564
461 0.5698569269083701 0.3825471366500207
462 0.937375298257348 0.6191340686837036
463 0.25923212948346197 0.30787147839784157
464 0.2217368042775535 0.01343694250694727
465 0.7099574861516523 0.7922240551001206
466 0.24138069116716565 0.3507025500754486
467 0.42980371339857104 0.6047481582662818
468 0.4779250112132909 0.5853922350040727
469 0.9697602374433456 0.7737426294454478
470 0.5500193678746557 0.5783535419526565
471 0.6874179604955413 0.5024287413566206
472 0.26842990617510853 0.4538844693739097
473 0.4620866489576565 0.0924075048541545
474 0.9752171865382209 0.3180857439875906
475 0.7163986414302664 0.6099249107606067
476 0.9982866886851013 0.9971144245039292
477 0.34145463058929604 0.7166327465442708
478 0.8452497038946849 0.31020439876951655
479 0.6536941301830903 0.23485432411162122
480 0.8431634353230493 0.9647295994724738
481 0.5557075383843183 0.6522826220049388
482 0.41755966876234296 0.15286430652616256
483 0.011631410828662148 0.6631234871436471
484 0.9415512199292796 0.9137748538635055
485 0.7674400354596635 0.6581514121152675
486 0.6517336457574735 0.07179516010123055
487 0.9424672856629158 0.045582530258527765
488 0.519966332410312 0.3303133599282244
489 0.833749060972428 0.330039269396478
490 0.7713258727737238 0.4107940704631581
491 0.9448557040839314 0.22374138728280724
492 0.2943542613719182 0.6675165402234479
493 0.7219136948134823 0.15615763797064863
494 0.39993804557913415 0.318772423008706
495 0.5258439705118804 0.11631001445816247
496 0.1425462152865432 0.9256502407180763
497 0.5527198318935602 0.6448203077375623
498 0.7729140068217535 0.5907059756211337
499 0.10951670280159831 0.807948788625952
500 0.28841079185771346 0.2050039703613975
501 0.9895155200427411 0.15952444049428205
502 0.48428440188224775 0.8080532259453261
503 0.28147417039357003 0.6344999022899361
504 0.5453979474530671 0.9113669129680767
505 0.5256096218792137 0.06573437222599943
506 0.0169182596668922 0.9745450373397742
507 0.7410806897842245 0.43053268533304756
508 0.35185307236769636 0.7488524578149569
509 0.40643842600757585 0.32148267057051383
510 0.7097388704578588 0.744678554169282
511 0.3576971785390791 0.6579572168938478
512 0.7633913946278924 0.7785570254729821
513 0.5872242526540936 0.5701664184745928
514 0.8325821085270481 0.7876265495136621
515 0.8095083042456193 0.09509895843437466
516 0.45374070748247763 0.6667729542626578
517 0.10038996300328917 0.41870253204509167
518 0.2365081053924255 0.8170945303148487
519 0.4307893819147107 0.48105954172213916
520 0.8733658029825808 0.9757157008688199
521 0.36030000578486365 0.6847840820270006
522 0.24508775256983784 0.277457406586358
523 0.3809649652455963 0.9792660999074084
524 0.17050123643940196 0.05561592433723683
525 0.2952831748821343 0.009653973867456256
526 0.2156610333776494 0.9560245985440184
527 0.939026034530828 0.8256445094811413
528 0.5966011806200231 0.3963783242498957
529 0.01839237099111568 0.17246314319326428
530 0.20784112012665112 0.008701035789776657
531 0.7567722439814274 0.10653075008643709
532 0.8267245289324594 0.36905164227835097
533 0.3691451889433969 0.3727758334835035
534 0.2781007475572227 0.8726060467728105
535 0.8039831623912949 0.11707871338287568
536 0.02156516024513544 0.6446203994667765
537 0.05604955216514729 0.7209911493766498
538 0.0145993970503846 0.06576747014393225
539 0.2600129440116652 0.45507041239554213
540 0.6745224994162115 0.9840650019297982
541 0.8319573713598749 0.4086795765421355
542 0.2506555449736356 0.435473377998545
543 0.7671539902797417 0.6908714240363586
544 0.5155250361216638 0.9363441329827521
545 0.07293788690425795 0.12449955050983108
546 0.04878026294440929 0.11382995123574613
547 0.774034385052993 0.4431247478922359
548 0.653073414150472 0.7982317728278008
549 0.6137505549296327 0.5700602021352568
550 0.05675374233217978 0.03662714488559027
551 0.8546831863396509 0.15017088216635954
552 0.6318908238317084 0.9005054690692471
553 0.34349810677506243 0.9400895899935965
554 0.056379748482967895 0.6609382678199511
555 0.7240432083674853 0.4827154825578691
556 0.33186591579944347 0.98960495420994
557 0.9574937788387077 0.226479542264845
558 0.8924264341880925 0.9958964572776219
559 0.35486833676875984 0.9189525899971185
560 0.000577411249985671 0.8650766411075366
561 0.7822721319365312 0.8527353798223422
562 0.6310819379986943 0.5639086983094158
563 0.426750912108145 0.7345133354947011
564 0.7919059017713082 0.012370415620110653
565 0.9049254885909308 0.330255160056669
566 0.32749067479878924 0.3961801634120733
567 0.21238832309344857 0.7967091622183046
568 0.3946671556409259 0.08247685450817122
569 0.3397073911887636 0.7024055611886305
570 0.8306629329524201 0.7275500152978096
571 0.3162680373471676 0.5874738262600172
572 0.11358163121414444 0.1566279398948367
573 0.020166039622531495 0.3818540548927888
574 0.2471634750678856 0.8821336364751677
575 0.5890176668762772 0.6861381171184605
576 0.12384311205069032 0.5458958783506043
577 0.595954395561635 0.5876531285510872
578 0.23747501163894635 0.4340138113889014
579 0.8824883733906024 0.7638717399571593
580 0.6368694199938345 0.9254776436088408
581 0.3446603823137451 0.4159705813846112
582 0.8040788638631018 0.9451981326485872
583 0.30034573238842943 0.12424162728743593
584 0.4332175844790911 0.7753369560781388
585 0.6182352839877503 0.4907439381331772
586 0.5043531883094823 0.24938686110711716
587 0.6619487953762552 0.3830370549686257
588 0.45292853755607354 0.665260949160597
589 0.5196258512917485 0.09979699388552388
590 0.3630450065294095 0.6583201351308601
591 0.32097881107743365 0.1011594070152877
592 0.30383146668643213 0.1941139950818188
593 0.8376503417638532 0.2699191069921192
594 0.5280073087593191 0.8929316787977485
595 0.7955426142456641 0.6162441451391301
596 0.6144637890239643 0.652338451389863
597 0.16463495559203356 0.6035376843687439
598 0.7020430371544683 0.26428311583008657
599 0.18803937369088475 0.34263849528328805
600 0.7051809247508003 0.2521635688828131
601 0.6642986520050931 0.8157814890722654
602 0.025779922445609893 0.8550009023577189
603 0.795348350144596 0.04382197610931593
604 0.865679229559021 0.5735525575358891
605 0.42584842548547086 0.04789962401368686
606 0.39008734394085964 0.6197775282497776
607 0.8352939436508918 0.4364288687082427
608 0.33287457137532084 0.6368336853426667
609 0.32516974677784816 0.2711968843232274
610 0.9333445215780105 0.6306530694887682
611 0.6879238325896365 0.6823117278301357
612 0.41448211962566606 0.008639666000796131
613 0.9292859752012763 0.9230152054190744
614 0.6431659464053349 0.243521334673917
615 0.14946658238334876 0.6688752656090524
616 0.43970202430294014 0.7890565738321227
617 0.205563863146646 0.08252191087925442
618 0.5595788443053986 0.6629938644732328
619 0.014972956277500615 0.17031657599062988
620 0.8584305737896758 0.6184214840673563
621 0.4986275560477701 0.6230362974147715
622 0.8729789791563295 0.8184213076300219
623 0.22880148363903496 0.9798490828840603
624 0.959286100006957 0.976362026515675
625 0.29534896441313396 0.10386204239561236
626 0.10907295310912268 0.7817062921531348
627 0.6793772754285455 0.3329589567839346
628 0.9310784582121252 0.016052206069127384
629 0.17828130844262358 0.4510519340941286
630 0.05947751932697809 0.6296880094604104
631 0.15679974231534433 0.04741970628976511
632 0.6952095510034123 0.6954511741205376
633 0.20257930783473876 0.7985827341839966
634 0.5390712456777349 0.6534085557903575
635 0.08122906918530459 0.06945383326625931
636 0.464783098632669 0.4779363846015653
637 0.7045379788306873 0.9942711427518915
638 0.3063301901618939 0.9090950137607808
639 0.059864746634135324 0.9684539452886732
640 0.06776274965032503 0.9878736015108427
641 0.9217170682230669 0.2868896951778299
642 0.16721038942981736 0.7962144995713896
643 0.034001472105653185 0.7128934567797826
644 0.9954596994657607 0.338388437830455
645 0.29372308288503346 0.5128171774723215
646 0.1110807006099448 0.9446009171690487
647 0.6586482996901397 0.2935100567830321
648 0.9229474896660431 0.33952895267401195
649 0.8352520049870485 0.325207920652519
650 0.7588648887350417 0.060436819385596974
651 0.8769922207592413 0.6495189383886671
652 0.7471935923461892 0.19983044703587993
653 0.04326655484612285 0.9167361767045344
654 0.5935119491860761 0.9156705243995336
655 0.3511893886576849 0.6669329061882088
656 0.20805794166952007 0.1937951270086573
657 0.9172294920934481 0.28009857465477594
658 0.420451704825337 0.8204363680248019
659 0.12566214451334845 0.10894647870439267
660 0.7939595757913598 0.32750622811177077
661 0.3049451595200682 0.8444187377622594
662 0.8177185517594653 0.036212525217589886
663 0.6898519140965877 0.7981608512500826
664 0.177243609185061 0.3881840395857503
665 0.9308968243832979 0.10978560862863962
666 0.1587728837979756 0.30946018446808465
667 0.8179842603872777 0.35325439312398677
668 0.1426008672938096 0.7453013951596295
669 0.6005720810963232 0.29763174974946627
670 0.18874582887124103 0.813331255137488
671 0.47163901082001447 0.27318040012920186
672 0.2925120655701091 0.17521151975716387
673 0.21451463570530904 0.5485416857406762
674 0.29816812700507356 0.6195947382681062
675 0.9061882721045462 0.1911399026628421
676 0.16765332365659857 0.5899763901871042
677 0.32341605390541217 0.7396212964615684
678 0.1509974874751564 0.01788877476381623
679 0.9580883433948411 0.0857521551858138
680 0.9533623619923508 0.7877199469969759
681 0.27134464302551653 0.7662090978308278
682 0.12799656118881486 0.9350327594128295
683 0.6702610171984509 0.9003629312488816
684 0.326861181169087 0.5831403826926548
685 0.8841246963636173 0.19983758373517413
686 0.4615868780504262 0.6961359518642151
687 0.3533391978262852 0.5280644749383394
688 0.4511351328786768 0.18327219643226045
689 0.6866553338473007 0.8296702453625485
690 0.4942676708694955 0.001257018648419539
691 0.5517688676859472 0.4753482216257957
692 0.3759701789456702 0.4412952895671296
693 0.45252279703546594 0.08573875553703791
694 0.7027838297749979 0.8500148803399822
695 0.7752667920709825 0.255155864985668
696 0.4394538786266273 0.8048247978237674
697 0.32214859724042966 0.803789895746763
698 0.5179316460906167 0.8489081194525908
699 0.35539237544502666 0.10570489394759774
700 0.24751382653236242 0.5500999771562289
701 0.7700765912184164 0.368306183351075
702 0.6951633191434093 0.10864745089442407
703 0.22119551145462835 0.4114976818485677
704 0.08397090821081354 0.8578929718184413
705 0.7770101802842881 0.2819786540070769
706 0.05264950883399977 0.015347520864918196
707 0.07941379427835837 0.7014960437893528
708 0.0005674107108403215 0.6027153227977959
709 0.09861745597102789 0.21046185417851715
710 0.13000985474128546 0.08147065662586428
711 0.6368821707743206 0.0010171136610197529
712 0.5778304316806047 0.5660733432252081
713 0.10673433753695982 0.0010976774315357707
714 0.5831357183948983 0.7526561603912085
715 0.6598986301588117 0.825555593850084
716 0.698962913035848 0.9280338023423647
717 0.8184698777952878 0.08032823739032224
718 0.29223187400140505 0.8803128184208449
719 0.2867913930300712 0.07592639999455819
720 0.28673926446886855 0.024224585552742206
721 0.4478846318046583 0.022431556399411745
722 0.1241881507004371 0.7286022345509124
723 0.8356104617620825 0.3587926400315431
724 0.627569262317981 0.457757060990186
725 0.8178661187177019 0.9235654280358958
726 0.8413745578631379 0.5458371232620395
727 0.4245275739058434 0.594942446901954
728 0.5145421780779057 0.3866227886055277
729 0.2892840687699071 0.631263694077104
730 0.1358671013947207 0.7392447379030689
731 0.5163709523175717 0.78668132360155
732 0.8235407224782353 0.0014828792544804292
733 0.5109769133837181 0.32502827858381245
734 0.09983808908631897 0.9724770238155767
735 0.4102414551278488 0.5390385317228623
736 0.359969341980789 0.023224372984853026
737 0.3356404408613326 0.8674173450848697
738 0.9642687103292785 0.3131740032307525
739 0.052096391851299106 0.15317155056445675
740 0.3096307255926153 0.6195349196521504
741 0.38695684806120323 0.07552332908561177
742 0.7595968338871926 0.7271164755135789
743 0.5447966294748272 0.20447966705918297
744 0.5976587491026126 0.8018745102878869
745 0.28133984514819677 0.1415238420243875
746 0.38364952210475034 0.09544321972149394
747 0.0936044851543244 0.4829946063894527
748 0.668849703959098 0.9362394018381819
749 0.925593484195525 0.9517767654111855
750 0.6582275410794277 0.9742751167657515
751 0.6982765056221079 0.501820174768966
752 0.10228448079156005 0.17059299436191744
753 0.5942349777615942 0.2655492223016913
754 0.2661557132661676 0.8186050603166631
755 0.3527897122113334 0.06015438256077732
756 0.00321886322716769 0.3560631893829056
757 0.06394010292380703 0.9394962383703476
758 0.6969613843282888 0.4005811400150445
759 0.05958569959784965 0.4415108198877673
760 0.008116924885543053 0.891459270046352
761 0.23533453153055062 0.8577068736890825
762 0.49390010722360234 0.2765820013750415
763 0.39716895514877937 0.5308768497296318
764 0.626305561120278 0.7914596649757694
765 0.27374584209835484 0.28809674012683373
766 0.09310713552897487 0.4447848438534846
767 0.7694666405909903 0.5865927766148397
768 0.19332426935394897 0.22801790163396107
769 0.7291082632408884 0.2009517377648996
770 0.37438622953737033 0.05282471629447916
771 0.8378805412500309 0.40374422590501136
772 0.9453480128396297 0.855823582244599
773 0.6208743853248115 0.6227426313458181
774 0.22820232219293535 0.831294805546296
775 0.6292535665868174 0.338412462029689
776 0.36975448098525954 0.5957767375237356
777 0.26007819866073145 0.711367359390249
778 0.44355083663375783 0.17474835973483815
779 0.5935562322126089 0.6070894386450367
780 0.48324513832774796 0.12870889167969635
781 0.4073114161934861 0.6296558847479826
782 0.7691767311477343 0.030057296342999584
783 0.2550628225105249 0.04700154056158201
784 0.353105742237135 0.925955590517926
785 0.27937853441173244 0.868506312554826
786 0.18399779951768291 0.17495717209296002
787 0.03518311127857243 0.15248374496091865
788 0.001057627793326299 0.013333069643819417
789 0.7287283103371369 0.7622409645817693
790 0.8046220528372824 0.8256075736794409
791 0.9509225801561179 0.9314155758245648
792 0.7140783804123767 0.04926400256243024
793 0.20426449269404034 0.7619744814749639
794 0.8599276860717269 0.7744257665008503
795 0.9947493676919068 0.1255149975454667
796 0.0004943069100742381 0.2828601317335171
797 0.1234608992642009 0.027007371002925495
798 0.44833307252319143 0.6801625544461669
799 0.5778843216864675 0.45475103857893795
800 0.6233535192416456 0.2949658382934206
801 0.7060636338506563 0.9525112818534213
802 0.7161838576609612 0.28347896544880236
803 0.7367804606486015 0.687695744297434
804 0.8437258193605813 0.18062924980469675
805 0.7292673476414844 0.11811683961989228
806 0.0528818867468176 0.9890122744642735
807 0.5595385326311345 0.3491486233594818
808 0.3403475274076241 0.5294718516038476
809 0.5597240554980686 0.16993057274081436
810 0.7778536970201119 0.08746794359078969
811 0.6942269223903788 0.054526528659396556
812 0.4772599521568086 0.4304874321366008
813 0.5079535488509556 0.26855914602580366
814 0.6127934314482443 0.9416118034260421
815 0.5346512017532751 0.06623882646512069
816 0.022971555155002044 0.504482465054014
817 0.05940250617101861 0.38825535564021707
818 0.14947998347219948 0.5933798456978616
819 0.7607495867042101 0.9354837876645482
820 0.2097300325616026 0.4228469020578377
821 0.165434942809917 0.5560324549523132
822 0.028694686249057577 0.3292247364961819
823 0.8328393001954387 0.21931977289938076
824 0.6405480372383869 0.6741033719425752
825 0.8633236103518999 0.09576453731425427
826 0.27811332368202335 0.3239189787602559
827 0.5708688310779718 0.7032371959784123
828 0.7898771490724475 0.023677506133257586
829 0.959771166021435 0.8165757641400567
830 0.6304574814456254 0.3674794359682779
831 0.755272657756041 0.9047245220533892
832 0.32733964336137245 0.8376801817314361
833 0.8854259456858602 0.19330103863233472
834 0.07454718483954392 0.4678950111474208
835 0.398286107688791 0.3818247050313832
836 0.49587369105566126 0.7869667874155334
837 0.6296629725662101 0.30035958403872876
838 0.057154514426019154 0.7731472783126127
839 0.6864712153001988 0.7325142145598542
840 0.3398145810788973 0.9713865114398559
841 0.9203589502263033 0.9870630970042814
842 0.46140584784034067 0.28985896124770827
843 0.4284154259053178 0.4891211974668992
844 0.3674171432571084 0.5319912621967378
845 0.9285796752255514 0.28984352979855865
846 0.5300166787599411 0.0321783267615402
847 0.21453684209761936 0.4533148652625998
848 0.6898836341098069 0.9637947357012535
849 0.654034363408135 0.7459833912905279
850 0.32782822049742766 0.41257894692372765
851 0.7528426959923287 0.24402749041573368
852 0.6141297622026927 0.568292543066601
853 0.1788547233198099 0.8323511563040757
854 0.06040537974602578 0.3377464613454466
855 0.6510935319819854 0.15239540450899447
856 0.18811681794610946 0.44968292659230913
857 0.5012044259812067 0.2568343191641701
858 0.5258533004272579 0.6849798159420812
859 0.7252614404964178 0.6211229281392949
860 0.5584427176665638 0.8996642965337641
861 0.8542746891175875 0.020092914491335656
862 0.5450917737073896 0.07102757047344466
863 0.7463652282517157 0.0813514747213836
864 0.3039699878460358 0.6461724880620634
865 0.37074477066442635 0.9633953735257913
866 0.5959559899834216 0.918488361173391
867 0.7024220075946153 0.8985739818468788
868 0.7380586893087238 0.8667562604709259
869 0.07751080889310336 0.9375163890737076
870 0.8260968787164057 0.8834145341846155
871 0.05509676637448835 0.10361100676872703
872 0.49620217570558456 0.8085261248059041
873 0.47989172196917984 0.05086218819462862
874 0.818941715091943 0.11527111264901713
875 0.44239327934312533 0.009106456470296176
876 0.5579865049262311 0.09405971354399922
877 0.7102975933509621 0.9364958078232157
878 0.986706346503902 0.301774322323485
879 0.3512900085760091 0.25429867858760713
880 0.3150899036152419 0.16205621764659062
881 0.9438299320137362 0.23444745636352526
882 0.002646650371870618 0.38811405435263757
883 0.6783209196805923 0.4190451833062918
884 0.10479320184186658 0.779135868738109
885 0.6821185527256248 0.20172694644620193
886 0.08650877801099521 0.3462893844309767
887 0.8381221475303969 0.5958810796555399
888 0.6498365176814995 0.8785032950173193
889 0.5731821341372396 0.24918017148286842
890 0.3762878849520488 0.16039262481716543
891 0.4622412318928204 0.2272418774646906
892 0.4943205956235247 0.9054595767224357
893 0.6585097719699234 0.7895172467779464
894 0.5873273094592855 0.01724983485684284
895 0.01596388832624629 0.04662155873169005
896 0.055611938187342336 0.9258929947083653
897 0.625975441420399 0.2490609540799431
898 0.01906760164321719 0.08556744126068239
899 0.20472089287352435 0.5605692769951265
900 0.7101854778055421 0.9934050002978742
901 0.8911188251679412 0.9491090505542115
902 0.534810181313795 0.8263056198836474
903 0.6535188047789507 0.276898451699668
904 0.277751783366585 0.3079521979612828
905 0.9088901347998698 0.8642315457389501
906 0.9208610430439274 0.33223985072630935
907 0.008072222967891007 0.10194750487619741
908 0.14116643549383956 0.06462093086492249
909 0.23527025525611123 0.7519916651895877
910 0.04638660696268093 0.5838320667445314
911 0.3144631347402317 0.3828258066554474
912 0.6747815306192876 0.208502259764914
913 0.1895920845084812 0.09435994276587856
914 0.5023654779343539 0.39251426893510044
915 0.7512879545891118 0.4096593293545573
916 0.7123919786242521 0.06429886758831982
917 0.019320693469101258 0.10151260612800606
918 0.5585080158104598 0.9366365631639001
919 0.8071250648276386 0.012446882306311857
920 0.40820185069631154 0.6923516171087255
921 0.7995531525069555 0.9818403532583664
922 0.9453766970000801 0.4579364568020613
923 0.7567967953739542 0.5427663614620145
924 0.8188518113354761 0.5191884946886257
925 0.5841322985511518 0.8854640473786712
926 0.6557245605178683 0.08766981866333023
927 0.30238225018486764 0.5550314156564785
928 0.6840191314107767 0.19694726653674943
929 0.1334036147330746 0.9314708871671049
930 0.8195608394489049 0.8034931991789811
931 0.08972815818778124 0.38741571145323495
932 0.9805307974533389 0.992021388574302
933 0.924258926117194 0.18745580872262047
934 0.28011625733407575 0.0697179211160297
935 0.8735607272527448 0.8325575132858947
936 0.6737112492916449 0.926149045927829
937 0.02507161585890405 0.26661531129365224
938 0.1721795680529168 0.6841797010784375
939 0.4838037963743532 0.7393848844844503
940 0.793431928786227 0.9883225386324092
941 0.549013562315415 0.48520850615780997
942 0.6232522123081979 0.056674441905680384
943 0.5208326705916902 0.8955170641775604
944 0.6435557970589628 0.9789057113986271
945 0.4461433830788172 0.40730273197352174
946 0.25864256583458445 0.8903441549216667
947 0.9015015163030813 0.5514001080147563
948 0.05633014653849955 0.14590953510164928
949 0.14530725994627625 0.02291620392302296
950 0.7128669407035669 0.6660829546529929
951 0.7463790956169004 0.6007497195402037
952 0.7903720021158023 0.0018689920658325754
953 0.11041715050944334 0.16768226770345307
954 0.7626858851372681 0.609200422709657
955 0.22855891131972628 0.22682604866911948
956 0.246223521667436 0.018909479783834837
957 0.8340565781588132 0.1395762684604328
958 0.21860224356610902 0.8871298717039255
959 0.8261067927894935 0.18582409458991422
960 0.41457522680056513 0.3186979569335784
961 0.5324922794627119 0.7408687187002729
962 0.5170127130871921 0.6529970236523829
963 0.4070970294967369 0.6425790423942818
964 0.4450455243645435 0.3670948798112674
965 0.06958873869567195 0.43515778394699
966 0.5942230395639673 0.5811203541365227
967 0.6821086690604931 0.484809682213985
968 0.664692746227982 0.4834364427590254
969 0.45909357742965407 0.6071862579492878
970 0.16892388860229457 0.5471577945763428
971 0.17376989195458703 0.3764545056572741
972 0.7068186154077107 0.17779763445603092
973 0.30162797901922855 0.6081755907440912
974 0.33555534479985716 0.4057144932364096
975 0.5948397394844855 0.8749998141377264
976 0.7402967074836696 0.4126016923464393
977 0.10496590972560815 0.7228670334261432
978 0.43250626561944405 0.40971545927689945
979 0.14602730838007083 0.6104806011400634
980 0.8744993218943968 0.9935943326631019
981 0.4087754311815731 0.6155065206907566
982 0.6251628275518603 0.1721002475759964
983 0.646447702583912 0.31588008389774935
984 0.26730948346397587 0.008648977687880421
985 0.2970560701600441 0.11175546964423333
986 0.2708190188454266 0.9664796664323103
987 0.5485571091791513 0.9422163249580316
988 0.08437553551303256 0.44979897306171956
989 0.7641418206360723 0.4691744933856379
990 0.06332902919712691 0.35437962461692785
991 0.9215939366712994 0.3605782417334237
992 0.5948423924889883 0.5518945664153215
993 0.8386006338268117 0.29461419149854673
994 0.06657681620680511 0.5044509353915163
995 0.14291578181542552 0.9380399908086517
996 0.6764502029591111 0.048862517870950195
997 0.5797015664669775 0.8979561388413126
998 0.006602150537128537 0.4270492084129405
999 0.1174902554839008 0.7393681294252262
1000 0.4860177678481057 0.9887874214309703
1001 0.06080245004563667 0.700258584902325
DEMAND_SECTION
1 0
2 4
3 1
4 4
5 9
6 6
7 6
8 7
9 5
10 3
11 6
12 3
13 3
14 9
15 5
16 7
17 9
18 1
19 1
20 8
21 9
22 4
23 8
24 1
25 7
26 6
27 8
28 1
29 4
30 7
31 2
32 3
33 6
34 9
35 8
36 3
37 7
38 3
39 7
40 3
41 1
42 9
43 2
44 2
45 3
46 6
47 9
48 2
49 8
50 9
51 3
52 7
53 3
54 1
55 6
56 4
57 2
58 5
59 9
60 5
61 6
62 5
63 4
64 7
65 4
66 7
67 2
68 3
69 7
70 9
71 5
72 2
73 4
74 1
75 9
76 1
77 3
78 1
79 9
80 6
81 9
82 2
83 1
84 8
85 5
86 6
87 1
88 7
89 1
90 5
91 3
92 4
93 6
94 2
95 7
96 7
97 1
98 9
99 1
100 5
101 6
102 6
103 9
104 3
105 2
106 9
107 1
108 4
109 9
110 3
111 4
112 1
113 7
114 2
115 9
116 1
117 5
118 3
119 6
120 2
121 1
122 1
123 2
124 9
125 9
126 8
127 9
128 8
129 4
130 8
131 6
132 5
133 3
134 6
135 5
136 1
137 6
138 5
139 6
140 8
141 8
142 3
143 6
144 7
145 2
146 3
147 9
148 3
149 9
150 5
151 9
152 5
153 5
154 5
155 6
156 9
157 3
158 5
159 1
160 8
161 3
162 6
163 5
164 3
165 1
166 5
167 2
168 6
169 2
170 2
171 7
172 3
173 3
174 4
175 9
176 4
177 5
178 2
179 1
180 2
181 8
182 8
183 5
184 9
185 7
186 4
187 3
188 9
189 6
190 7
191 6
192 9
193 4
194 3
195 2
196 2
197 3
198 6
199 8
200 1
201 2
202 1
203 9
204 7
205 5
206 3
207 9
208 4
209 7
210 1
211 8
212 1
213 4
214 5
215 9
216 1
217 8
218 2
219 1
220 4
221 3
222 1
223 5
224 7
225 8
226 1
227 1
228 9
229 1
230 6
231 9
232 7
233 2
234 4
235 2
236 3
237 9
238 9
239 5
240 8
241 4
242 5
243 6
244 1
245 7
246 5
247 8
248 2
249 5
250 3
251 4
252 1
253 7
254 3
255 3
256 9
257 7
258 5
259 7
260 6
261 8
262 2
263 9
264 9
265 8
266 9
267 8
268 9
269 3
270 6
271 8
272 6
273 9
274 4
275 9
276 4
277 3
278 8
279 3
280 7
281 6
282 4
283 5
284 5
285 6
286 1
287 5
288 8
289 1
290 8
291 2
292 4
293 6
294 3
295 1
296 5
297 1
298 3
299 2
300 5
301 6
302 2
303 1
304 4
305 7
306 6
307 8
308 9
309 8
310 1
311 9
312 9
313 5
314 6
315 2
316 7
317 1
318 2
319 6
320 4
321 4
322 7
323 4
324 5
325 1
326 9
327 8
328 4
329 3
330 1
331 5
332 9
333 7
334 4
335 3
336 2
337 5
338 7
339 9
340 2
341 1
342 8
343 5
344 9
345 6
346 6
347 7
348 5
349 4
350 9
351 7
352 7
353 5
354 6
355 8
356 7
357 8
358 7
359 5
360 8
361 5
362 7
363 9
364 8
365 4
366 9
367 4
368 8
369 5
370 3
371 1
372 3
373 7
374 8
375 4
376 1
377 4
378 5
379 7
380 8
381 7
382 4
383 2
384 3
385 4
386 5
387 4
388 7
389 2
390 9
391 7
392 7
393 8
394 3
395 2
396 6
397 6
398 1
399 6
400 4
401 3
402 2
403 3
404 5
405 2
406 6
407 5
408 2
409 2
410 3
411 3
412 1
413 8
414 6
415 2
416 9
417 8
418 9
419 4
420 2
421 5
422 1
423 1
424 8
425 1
426 8
427 7
428 3
429 8
430 8
431 6
432 2
433 7
434 7
435 6
436 9
437 7
438 5
439 3
440 1
441 3
442 7
443 9
444 1
445 4
446 3
447 8
448 4
449 1
450 9
451 3
452 8
453 1
454 7
455 6
456 9
457 8
458 9
459 1
460 3
461 4
462 6
463 9
464 7
465 6
466 7
467 9
468 6
469 6
470 2
471 6
472 8
473 9
474 7
475 2
476 2
477 1
478 3
479 3
480 3
481 2
482 1
483 9
484 4
485 8
486 5
487 4
488 1
489 9
490 9
491 5
492 4
493 3
494 7
495 5
496 5
497 7
498 1
499 5
500 3
501 4
502 9
503 9
504 4
505 6
506 9
507 8
508 4
509 5
510 7
511 5
512 8
513 4
514 9
515 8
516 9
517 3
518 7
519 6
520 7
521 7
522 4
523 2
524 1
525 8
526 7
527 9
528 3
529 2
530 6
531 8
532 7
533 5
534 6
535 8
536 5
537 1
538 2
539 6
540 7
541 9
542 3
543 3
544 8
545 3
546 8
547 9
548 3
549 2
550 5
551 9
552 1
553 3
554 5
555 7
556 7
557 5
558 2
559 5
560 9
561 7
562 2
563 2
564 4
565 2
566 2
567 4
568 6
569 6
570 3
571 4
572 5
573 1
574 6
575 7
576 2
577 2
578 9
579 3
580 6
581 7
582 9
583 2
584 4
585 4
586 6
587 2
588 6
589 6
590 4
591 6
592 6
593 5
594 8
595 6
596 1
597 1
598 7
599 5
600 9
601 2
602 3
603 7
604 4
605 4
606 9
607 6
608 3
609 3
610 7
611 8
612 2
613 1
614 9
615 3
616 6
617 3
618 4
619 3
620 2
621 4
622 9
623 8
624 4
625 6
626 1
627 3
628 8
629 1
630 7
631 4
632 7
633 1
634 3
635 4
636 5
637 9
638 8
639 2
640 8
641 2
642 8
643 7
644 6
645 5
646 9
647 5
648 3
649 2
650 1
651 3
652 3
653 5
654 5
655 7
656 9
657 6
658 4
659 2
660 2
661 1
662 6
663 7
664 1
665 9
666 6
667 9
668 2
669 6
670 3
671 4
672 1
673 5
674 1
675 7
676 3
677 8
678 5
679 5
680 5
681 2
682 8
683 8
684 9
685 1
686 5
687 9
688 7
689 6
690 5
691 2
692 3
693 1
694 5
695 1
696 6
697 9
698 5
699 5
700 8
701 3
702 5
703 5
704 1
705 1
706 4
707 6
708 1
709 9
710 2
711 5
712 8
713 3
714 2
715 4
716 7
717 5
718 6
719 5
720 9
721 8
722 1
723 6
724 6
725 3
726 3
727 3
728 3
729 2
730 6
731 5
732 7
733 2
734 1
735 7
736 3
737 2
738 3
739 7
740 4
741 5
742 5
743 4
744 7
745 7
746 1
747 9
748 4
749 6
750 5
751 5
752 3
753 9
754 7
755 7
756 9
757 2
758 8
759 7
760 5
761 3
762 8
763 7
764 4
765 5
766 6
767 7
768 7
769 7
770 5
771 2
772 2
773 1
774 7
775 4
776 8
777 2
778 5
779 4
780 9
781 5
782 7
783 8
784 3
785 5
786 6
787 5
788 6
789 4
790 3
791 7
792 9
793 3
794 5
795 2
796 9
797 8
798 8
799 9
800 7
801 4
802 8
803 4
804 9
805 9
806 5
807 2
808 7
809 6
810 6
811 2
812 4
813 1
814 5
815 6
816 2
817 2
818 2
819 4
820 6
821 7
822 7
823 9
824 2
825 8
826 9
827 1
828 2
829 5
830 6
831 7
832 6
833 8
834 5
835 9
836 7
837 7
838 8
839 1
840 9
841 3
842 3
843 4
844 6
845 7
846 5
847 5
848 4
849 3
850 1
851 6
852 5
853 5
854 5
855 9
856 5
857 1
858 1
859 9
860 5
861 4
862 2
863 6
864 5
865 6
866 7
867 2
868 3
869 4
870 7
871 8
872 2
873 4
874 1
875 3
876 2
877 2
878 3
879 7
880 8
881 8
882 5
883 1
884 9
885 6
886 7
887 8
888 7
889 1
890 8
891 2
892 7
893 5
894 3
895 1
896 6
897 7
898 7
899 7
900 9
901 3
902 3
903 1
904 6
905 2
906 7
907 2
908 7
909 9
910 7
911 9
912 6
913 2
914 2
915 8
916 9
917 4
918 3
919 2
920 3
921 3
922 8
923 5
924 2
925 9
926 9
927 4
928 1
929 3
930 9
931 5
932 4
933 4
934 5
935 4
936 4
937 3
938 8
939 6
940 2
941 1
942 6
943 7
944 4
945 1
946 8
947 5
948 8
949 2
950 8
951 8
952 5
953 3
954 4
955 1
956 1
957 4
958 5
959 2
960 9
961 8
962 3
963 2
964 6
965 9
966 9
967 4
968 9
969 8
970 9
971 6
972 5
973 1
974 3
975 5
976 4
977 2
978 8
979 7
980 3
981 2
982 9
983 7
984 9
985 9
986 1
987 6
988 1
989 9
990 1
991 9
992 5
993 9
994 7
995 3
996 8
997 8
998 2
999 8
1000 7
1001 5
DEPOT_SECTION
1
-1
EOF
