NAME : gen1000_011
COMMENT : uniform customers, demands 1..9, generated by bench/make_tuning_set.py
TYPE : CVRP
DIMENSION : 1001
EDGE_WEIGHT_TYPE : EUC_2D
CAPACITY : 200
NODE_COORD_SECTION
1 0.3533382606030342 0.9989634377904164
2 0.5739122778830491 0.6230959421669532
3 0.6217018350598351 0.005775491426013191
4 0.818439379439416 0.8623693541427696
5 0.797555492503254 0.1699065215716684
6 0.986896034649804 0.6325693184967793
7 0.9185234582814688 0.22947016426986133
8 0.7557029589761236 0.2232893384531729
9 0.0054992953129602284 0.9041046211509668
10 0.3186876345025029 0.024202628902343926
11 0.17120951673599172 0.7941331310636147
12 0.25750912240862756 0.4886494035580268
13 0.51544269587062 0.5249954225972031
14 0.4388442064825767 0.21742590651831328
15 0.2313897289710357 0.2605022829704119
16 0.023140835901555357 0.07650575433091678
17 0.1626190090044788 0.9967452149611342
18 0.0318536522400209 0.3353417116606974
19 0.3778139472998182 0.9259621594624098
20 0.9514939769586644 0.48432104521139085
21 0.6981074881268825 0.21409675533962058
22 0.38099884071693313 0.553598529140988
23 0.3839712528076339 0.363217257589164
24 0.22609412361639236 0.20380673713974795
25 0.1292809499465929 0.9845874131219136
26 0.7227903236768534 0.8754883940052653
27 0.3333161670413515 0.8422329219649963
28 0.2581646636660977 0.4795380681005569
29 0.3810688649594941 0.08447085788539921
30 0.4633784511459639 0.8574109587214097
31 0.4131521783449419 0.3917733892630305
32 0.07411636501758478 0.6096260679922654
33 0.6397814733948921 0.13485952532557022
34 0.7471068899297877 0.5463642224702185
35 0.47129473063512195 0.019313358923003676
36 0.26512295634593064 0.6952359065562635
37 0.4396186471653203 0.9446776961259294
38 0.2249144588198183 0.16296905744608425
39 0.8570472071659662 0.6349752815979833
40 0.3505855718838752 0.30612163127809633
41 0.9272240345680925 0.08343779970277798
42 0.2672780489012776 0.7152798226381203
43 0.9401124114111373 0.36823877830399765
44 0.619437354817558 0.24059187261543769
45 0.16992028171518248 0.7671001016940663
46 0.9432486953689273 0.8428036381249735
47 0.853552539408556 0.9046363799600775
48 0.8265934755300135 0.046117532665776007
49 0.08355458039884323 0.5126875052967484
50 0.9114174126364804 0.43924974780110815
51 0.5267165848618853 0.7517332791635658
52 0.21698831464924928 0.22989912555889558
53 0.1501278218384463 0.09738062743915876
54 0.9964714411633941 0.2423132179603804
55 0.4236713026437784 0.662672902759146
56 0.06208133887987921 0.16367666078079812
57 0.9303302754402779 0.6346411676850428
58 0.2761400230597212 0.834394709151427
59 0.26642500414387427 0.6687287462345566
60 0.5209457325815923 0.7660027722269597
61 0.9502917193087068 0.07496586888546686
62 0.12982308975237344 0.08855631479121462
63 0.39559573450543717 0.9846260904867776
64 0.3199592480410193 0.1027627756017997
65 0.4372722788132186 0.39899365535491405
66 0.2658606340514872 0.8090607635025251
67 0.5864321070148992 0.15227998283591848
68 0.45493598366404686 0.7800942006551339
69 0.2808555366848309 0.6435130646625026
70 0.7490751825312755 0.9223266689708026
71 0.28561220408410415 0.522735549359025
72 0.6231295590027419 0.23880198836791222
73 0.6410468415712066 0.9927804394225471
74 0.3958030214132491 0.5724576513694457
75 0.6910983726695935 0.042107300112569024
76 0.7065198663037648 0.7910715433526938
77 0.7352081514790573 0.7167873763579717
78 0.09559133739518877 0.8573608002337564
79 0.39827832659062035 0.6131167777855532
80 0.08332198274228031 0.683541652360892
81 0.13248804499342903 0.07514298499297478
82 0.868612892902881 0.6313132661457621
83 0.8573924610654365 0.6669160153189966
84 0.9139035008019023 0.9708025309430611
85 0.947657327522934 0.033299313656562135
86 0.5386321847472458 0.5764638305796711
87 0.06179899961700275 0.6685132348825287
88 0.18558864442508471 0.05240310897046219
89 0.5796352249284222 0.15034778696088602
90 0.14843916916733668 0.621706884346908
91 0.43506115086868224 0.9729065149032368
92 0.492909099750621 0.3552548890286139
93 0.22233019028327605 0.18442247991420246
94 0.047323936816653034 0.9626754413672599
95 0.9410662189123981 0.3269984924617234
96 0.8938449381482867 0.2147310845613386
97 0.04350822928546605 0.3195982641423536
98 0.8162259935478373 0.3813449049760351
99 0.6781241884864203 0.6042330673129518
100 0.4232282984472864 0.4796351637324493
101 0.5848324761390354 0.3550630685833488
102 0.5686053903511553 0.24174570932113726
103 0.7486303961789744 0.34710394523065946
104 0.39756653971707423 0.6359346640422728
105 0.6816836428055145 0.11329529120478621
106 0.5197033142287745 0.46873274550193633
107 0.43217204559143707 0.9513910661827993
108 0.39296977100183794 0.38673964579209563
109 0.5020291497971819 0.7941226590195238
110 0.8068666738833116 0.8657168123012572
111 0.5155350231858695 0.5708843417729571
112 0.4650413283545778 0.19104200896948798
113 0.8778312721828339 0.5147009503272542
114 0.6540361167889804 0.08455162043735265
115 0.7228981604287551 0.7696748887034643
116 0.012359026744940382 0.9036562210001111
117 0.020012957018330835 0.20818380999144592
118 0.35093810338738907 0.2906790631836922
119 0.9124517258819758 0.3685115359614506
120 0.5032424437206734 0.23985978712972988
121 0.9352409738373734 0.6859947501319908
122 0.9017644998176837 0.30422872576080373
123 0.3656750030196737 0.5876782657126679
124 0.8398298733301022 0.6608460298510478
125 0.5123124666608553 0.9571689566886012
126 0.7731312607444694 0.9831740600415512
127 0.7704114720979935 0.04910126020295125
128 0.8276558412422301 0.7630701013764465
129 0.23327977176835324 0.7401023915544032
130 0.3181252895841328 0.890717517373627
131 0.6584400948162628 0.5580348528718506
132 0.6313922044765701 0.2961732612830946
133 0.7614007962084904 0.13890604506271909
134 0.135902320483817 0.10209599005911196
135 0.1175881185656481 0.4837168103315871
136 0.4259780101271986 0.3723431433636293
137 0.5949133587856019 0.31569722182666404
138 0.39056657823925056 0.8959482595119029
139 0.78831932350697 0.6290604227488612
140 0.5566573899570254 0.7850700285237949
141 0.3267998178882816 0.09270000777142973
142 0.3574182054822018 0.6201885026905924
143 0.4809695035905299 0.47952739955547596
144 0.8861593857227055 0.9820482083604023
145 0.7922890076178417 0.5397319223283805
146 0.0006739613096762298 0.6022795113820104
147 0.044939247680182426 0.4319494060745521
148 0.7858430696709523 0.10056574803904683
149 0.08004096323213794 0.761756884523543
150 0.43824430427764693 0.45517255932701706
151 0.9154586670357557 0.24915010345260957
152 0.7183929999368581 0.613725289072252
153 0.035072405642682436 0.8851184023031224
154 0.004489764693440534 0.5275910620163323
155 0.8819925745420029 0.8009544821656235
156 0.5937333270101196 0.7514745273761598
157 0.44601466012426727 0.10726516801824681
158 0.2528789261423138 0.8170984282019816
159 0.3746386557087753 0.2017068249406333
160 0.9705189880731191 0.3931755311272054
161 0.17687955209492845 0.36105895745052585
162 0.08187447210328491 0.45316256642161923
163 0.01482049214661818 0.24650565204461583
164 0.5522059674152261 0.194569523378878
165 0.7269039323895061 0.05804503485206136
166 0.7819857129238355 0.5717285054369488
167 0.2913578188245346 0.4899483491959583
168 0.4535720583440752 0.3555410469804572
169 0.85173067513854 0.4476042155621369
170 0.38212397365708883 0.430624635815122
171 0.39183591670412576 0.33447502756765035
172 0.2382276355849854 0.8266305667605167
173 0.0831560384442579 0.3987055487902015
174 0.6308493940837234 0.8492630392109151
175 0.6544298974594212 0.16719304138761348
176 0.3584430126353495 0.525026968363045
177 0.5956809237757302 0.140420402425108
178 0.284478462509114 0.2636214121814052
179 0.3715899270307994 0.052932955614945154
180 0.9991932105600253 0.819803592541626
181 0.6842036710543428 0.42604565460861155
182 0.39910332213583855 0.0211147375608014
183 0.7729866270145512 0.35488438062567285
184 0.4024883900671473 0.48136698873795747
185 0.6827147218268035 0.3083445819488192
186 0.24184099105306311 0.4078694847385105
187 0.22600287712442013 0.7398464522007325
188 0.4538539864033657 0.6192357068116895
189 0.045485754740147044 0.27765299381550934
190 0.8499922135996608 0.40883820666246173
191 0.07715158916048004 0.2437556047532613
192 0.5379753090423091 0.608624308441237
193 0.3037746661213474 0.6767778164126358
194 0.5576374027489509 0.3147507664787117
195 0.14325616372592098 0.21414689499940864
196 0.28648169949832136 0.8726365935973383
197 0.9927209257246737 0.12175843670759012
198 0.30826503415332596 0.4242688865447135
199 0.16590704874550055 0.0752245015054217
200 0.8270700710279392 0.5177292487067643
201 0.5475489486920252 0.5675942260063006
202 0.4811057700792115 0.1853822450931868
203 0.2982468628295215 0.2643697049038677
204 0.7979609318935037 0.33699138220863634
205 0.07355539365726471 0.8445169155887751
206 0.6184411420893803 0.6148936927193053
207 0.5603806467914993 0.6089184330916384
208 0.23145942777022777 0.11007622934934402
209 0.9133078068620504 0.8957143034586794
210 0.7232601024416757 0.6905611515149251
211 0.7748748275490139 0.08915479470400567
212 0.8228330339329598 0.6498954032929757
213 0.5105015878619837 0.8295028616093074
214 0.23723435894952039 0.2886260302865816
215 0.48825777031882145 0.047736721224684864
216 0.22260798721858877 0.19046459625267864
217 0.9230684942044872 0.0445148152860958
218 0.8069964157179929 0.08555554201634741
219 0.3238201621132517 0.6163619367274166
220 0.23677871315499166 0.9576255559274697
221 0.838323749552661 0.7532560142646015
222 0.7773936706369113 0.4805384874604881
223 0.747062219497074 0.5811898791099949
224 0.10794117756033117 0.5599870182284151
225 0.4568427005754331 0.5359434804887342
226 0.3726368389743667 0.5355520255999309
227 0.07510772766808671 0.2941008450073481
228 0.9227185702014884 0.13931219847546528
229 0.6926701588926334 0.3613864065701313
230 0.19425660158434066 0.12768085991708733
231 0.06105416786655149 0.5234754942568132
232 0.33662029275693617 0.11140693414864655
233 0.08424319526253043 0.783991868537717
234 0.1628681894658771 0.5411327054733682
235 0.1496500694637114 0.4988034604760828
236 0.30352693582763135 0.9467836772421712
237 0.5587545047999585 0.5105939726262636
238 0.6904342353139865 0.21950034197740786
239 0.31534402897427305 0.5491125565975465
240 0.1866165926944554 0.38494963017207273
241 0.06938741711484786 0.6830898380833733
242 0.13546791780096368 0.7355253491623437
243 0.9551915102625752 0.10636119636079189
244 0.2291027809428171 0.5812349919458392
245 0.6283454668020849 0.354212337944281
246 0.6806182642127198 0.5703205351122121
247 0.0007413236185702665 0.31585206900763474
248 0.44326189527316506 0.8602610894485317
249 0.3613276380467332 0.8977186506688238
250 0.4552177523222096 0.7491629132691662
251 0.8970556819808598 0.6816723373955527
252 0.6212077759827731 0.5112607142822725
253 0.9951514325697943 0.29135412155032914
254 0.9757351141151729 0.6720732523970611
255 0.6243200472762569 0.4536253060357128
256 0.7909497960639524 0.33710935887117155
257 0.5173357203360447 0.7252874316067545
258 0.9773783276697384 0.5273540282384982
259 0.4058741800766521 0.495962072151354
260 0.09658567556828057 0.641390028363386
261 0.16621130367721937 0.49054202967107996
262 0.036207877534062294 0.9454820849553319
263 0.892157587168926 0.8331933987871883
264 0.9270722425303911 0.9221027597674345
265 0.11655400588306897 0.6488536298574574
266 0.4288990741820009 0.954175491443172
267 0.7402050483893391 0.029665295732204
268 0.3181131261047532 0.12175403806908058
269 0.7824659489630157 0.9575212777320681
270 0.7276371986585225 0.30011912596566015
271 0.9976148160336175 0.11115887807714908
272 0.9818997340787173 0.10951364977779754
273 0.8733454799744356 0.5850014466665917
274 0.7136303578459381 0.47269003612678473
275 0.7420701463322787 0.06409852165786234
276 0.3057971970630545 0.5756210244890265
277 0.6646929575837774 0.32075121503570436
278 0.9891757845990433 0.11503432511935308
279 0.7480670065331481 0.8948668531400443
280 0.5250346663935525 0.6665397915338218
281 0.9246212079780302 0.45534375505492664
282 0.5216345324386736 0.06967977217227161
283 0.2457368664678118 0.01658470557296965
284 0.4566124110331977 0.10061635579050754
285 0.2955803685408409 0.5093663428273629
286 0.8887096405385088 0.8897496344488873
287 0.4813782891898476 0.5734952376544412
288 0.7829992760026773 0.6482856179816316
289 0.7025440530128128 0.3247894835861542
290 0.7260052624937708 0.2012005941531675
291 0.43314306316525086 0.7410203202164346
292 0.8184742858624625 0.6850829675361627
293 0.7910926564952153 0.4464897211287533
294 0.0186876705580854 0.6432833868848761
295 0.5128618818264455 0.09039424892351022
296 0.7754260873964882 0.027658704386114175
297 0.46329080320228555 0.13320171138715664
298 0.8551744308654676 0.6634868911072735
299 0.6027712944016794 0.9538352445890866
300 0.8503453650943235 0.905348238939512
301 0.09553234104104646 0.7813735152097405
302 0.13558947351001494 0.23873680758754
303 0.4435605122642826 0.5080138911789982
304 0.9782114139329291 0.13009144528355954
305 0.022958486778012044 0.16729748981179882
306 0.9723476876829102 0.16774997482919374
307 0.7866144407442589 0.5779728813799645
308 0.08424665253583574 0.36011442116655035
309 0.15631088360880707 0.3333329291300927
310 0.37424179659003975 0.2759476718111322
311 0.9696134267175854 0.11576917121916352
312 0.7106743963440556 0.9783064297765766
313 0.3017356724040836 0.8636865298768456
314 0.36270746490816985 0.03717362943122393
315 0.025410898380810565 0.574105062295333
316 0.20206047176048525 0.9339202896743928
317 0.040684477369828276 0.5546396372582494
318 0.928357929994877 0.1471496677045755
319 0.14850497816014474 0.35905914875200906
320 0.7570501387206191 0.3810696902710681
321 0.00801307846611754 0.872831378104766
322 0.31649632641541836 0.0890272798334204
323 0.43090337023115277 0.9402353842839112
324 0.09373300491797831 0.5127324691979708
325 0.43682939942552546 0.900390804093396
326 0.7028529391789985 0.7732920338127831
327 0.2330777360880476 0.2380755310589121
328 0.9532872251111438 0.18565168589919256
329 0.4658703212913784 0.6994350405812326
330 0.6451524375362764 0.7648339140761102
331 0.6330582819523861 0.1876079488790281
332 0.11594918668912158 0.4595636128578986
333 0.8641899420013417 0.9080289863284893
334 0.22092572855802117 0.0710286538354441
335 0.01962814131460966 0.7880395068533563
336 0.6923890824828768 0.860933919880748
337 0.591127243560731 0.787055292824555
338 0.42007916237474463 0.6885379251213232
339 0.07434072599635932 0.45752311697393455
340 0.8960880325045248 0.8154215648178793
341 0.6783330320485811 0.5849948917842157
342 0.862678837336415 0.4834569853217412
343 0.7523021501092736 0.11891485765741805
344 0.19617305148884046 0.1869393379927976
345 0.5535584380570964 0.015861031944837012
346 0.4774052433977817 0.6223772838162157
347 0.1347804691877913 0.18974656742549156
348 0.9737476815109433 0.282960848333905
349 0.9160760845489172 0.25826233269321464
350 0.745019923871638 0.3479431568455139
351 0.2036320755634533 0.8811162562753493
352 0.48862337791615773 0.6747463562840077
353 0.2013984259764412 0.8609415409984509
354 0.3249859670040045 0.18533240569960863
355 0.4860969921451428 0.039415148238933995
356 0.5080186948935295 0.782055667311622
357 0.2387222739061058 0.8842649057434221
358 0.5470392137077692 0.5345844177117234
359 0.3937789133148437 0.24988605047163892
360 0.617680403803611 0.4200701810281672
361 0.21009138905883085 0.6889965321964518
362 0.7860946286088247 0.9917469618518808
363 0.4642034431380173 0.6324813026706942
364 0.5186930609660679 0.10884735123612033
365 0.06216519258642039 0.7274630736820734
366 0.5045385929837046 0.003906396333161033
367 0.1276710573703863 0.3384985746306778
368 0.8556336695641182 0.9431029453643244
369 0.5819196508142845 0.0005198939195022456
370 0.7833446625903453 0.839538076500427
371 0.6746961291203277 0.10503743517521158
372 0.21300756242746888 0.3103038135176174
373 0.9056018933776286 0.02587648279349264
374 0.3210249339137078 0.12066571977648122
375 0.5037492721503248 0.5965450612809401
376 0.5047078039895138 0.5725417233694441
377 0.23118045184107472 0.056578191467353545
378 0.030777807432081805 0.03791579413243118
379 0.0585446027681541 0.5817143600409279
380 0.9817973330505384 0.4715271656650729
381 0.34622750917747436 0.4725995057679033
382 0.020958928024592427 0.3569196863998958
383 0.8954106919361502 0.07960251510473837
384 0.4056833374670129 0.6549124404619544
385 0.024272713828121795 0.4726481546808057
386 0.9639419734706081 0.5219595927883707
387 0.41315778137420656 0.11870281755598067
388 0.9548271920859706 0.12984229314392104
389 0.08383738364224536 0.023717116859520493
390 0.8106670682128997 0.10366474467897713
391 0.5375999345954187 0.7722281117559047
392 0.8779508150276797 0.10529265807759303
393 0.8187945429033414 0.08273717149640925
394 0.24320725117954223 0.2701993096563393
395 0.5788962108379357 0.7321509277046796
396 0.032393295767789154 0.8900698272636822
397 0.944890579619111 0.5980968263822996
398 0.34953407030024675 0.6092266125092296
399 0.654410270396942 0.259173074903028
400 0.17678200693007062 0.42803334205574695
401 0.15954049141138416 0.019932860040352995
402 0.11282098479094904 0.5127019031543923
403 0.10830292471384062 0.659670800620903
404 0.0548103652806573 0.7735422512078084
405 0.6077233653246944 0.4516900740112628
406 0.8747161993555941 0.7457043987628145
407 0.665324279468969 0.5382587636786215
408 0.024821180884006422 0.0976568064446679
409 0.5803033788145558 0.3281197279803607
410 0.8437881959028692 0.5087472354589484
411 0.9291571569272102 0.5896254132984269
412 0.0041543677905050425 0.718482846410711
413 0.3352731962063614 0.7906839256737155
414 0.9953622168698626 0.7862149838512685
415 0.3962621164139122 0.14908287410165932
416 0.8089621839517857 0.542752323455217
417 0.14669083577172504 0.7799661391452785
418 0.817083770522351 0.7983661535331538
419 0.6819373515461091 0.3218554214191359
420 0.22033964490103986 0.235114422715742
421 0.28170461489630594 0.76823746240354
422 0.6184172294074528 0.7134704273402803
423 0.12289393757312139 0.3429815491991677
424 0.36210921246527195 0.51664939166023
425 0.9725884982039114 0.0013133541950177685
426 0.14108291642384874 0.8395592141332674
427 0.41775849609260196 0.8083948959143151
428 0.1264228254076798 0.18242088827700298
429 0.6218225454166263 0.32079334634879064
430 0.49109461430506174 0.7984373466342477
431 0.35148465640257953 0.4822916179440162
432 0.6803144310500474 0.31573193113850206
433 0.35256546462132154 0.35819716927536926
434 0.7613100108758989 0.32741502349563667
435 0.8860091432568896 0.9170322203830515
436 0.9156933812698302 0.7312984051879717
437 0.4416616779414856 0.9751939754193764
438 0.07296083103754392 0.031004776172297577
439 0.08340247986842164 0.8537095073434725
440 0.861935920779929 0.892065045418425
441 0.6930257965747071 0.3640711671600355
442 0.28845315375520775 0.34598979202513314
443 0.8104228332260816 0.4878867592820797
444 0.09360920873909873 0.312991383815452
445 0.27696183362241733 0.5615684162645932
446 0.05468140937614818 0.5239396831876549
447 0.9665575650541159 0.9206725140253341
448 0.7687551299180021 0.5250440011978162
449 0.7888501129034553 0.976666992692244
450 0.21133007722087482 0.39625982921687497
451 0.4630179500974667 0.07553361344568954
452 0.45073507264522406 0.40975274047582877
453 0.8718062175720712 0.033741138333221454
454 0.0026649484276796143 0.6842245380605829
455 0.6647376418714128 0.9116929588306202
456 0.4974680939296261 0.5190839114988723
457 0.3434421537879151 0.03838598885363842
458 0.6751853070019357 0.4895554615124613
459 0.8576811178338141 0.20479197718331021
460 0.3084181783205754 0.10118994766076583
461 0.30508238151491984 0.8163292845080709
462 0.9050380027357664 0.4766883543111988
463 0.5908931222363564 0.9497773965235874
464 0.4200571993362041 0.6890926068714718
465 0.47694842570161755 0.5969748006846731
466 0.3030858012677923 0.3384863604192536
467 0.8067308295482174 0.44018433886774133
468 0.03256109552210551 0.5870313361501734
469 0.09554013988639709 0.2990993540837592
470 0.8632511301264958 0.4457452702173733
471 0.5495746696034485 0.32775761130699843
472 0.21112986312482707 0.7248990698703326
473 0.2050577341823221 0.9293147795464439
474 0.11670686916302775 0.5022509271702903
475 0.6496909623349645 0.38205875629743524
476 0.1702276422608231 0.8302487087592417
477 0.8239468915097128 0.9937432750562797
478 0.05013940200567102 0.531931951654482
479 0.5544930967776317 0.8192823131206515
480 0.9571668897716572 0.5130206812781256
481 0.12307658212541317 0.015529536624327767
482 0.20672332458343645 0.2113441595105845
483 0.8281462722360985 0.8432491161152653
484 0.7425605133757577 0.7619300636068786
485 0.36076069039935066 0.4063525546106581
486 0.24139187051773703 0.06653073949490707
487 0.6304784503824189 0.2910002073106992
488 0.2197134528417113 0.7331863670731198
489 0.657503864638435 0.9805333459618212
490 0.1573466722412279 0.5580833831491075
491 0.03044555524664816 0.2539058189901998
492 0.4869227250138445 0.6831372563260791
493 0.09121109645060288 0.3644052377982545
494 0.09254463172216121 0.9179303602456066
495 0.16285179392494564 0.2998369624500651
496 0.8551956633823705 0.4587580410738171
497 0.13501279384881026 0.05610543173080329
498 0.012474379892715382 0.5540954094892253
499 0.8393718462298341 0.10595799220381352
500 0.20460547498287096 0.5105145550233949
501 0.9881148385459737 0.7040059206964058
502 0.808505490148013 0.5625994415959402
503 0.4240141452253332 0.39513623441494794
504 0.14459780886188 0.6261983319199114
505 0.9641474878622105 0.41923720613341775
506 0.7515269633817876 0.9634924774171959
507 0.7712312685746169 0.3797963762446568
508 0.034797297643040404 0.1990215385343046
509 0.36696397008177173 0.7432940457133095
510 0.2938195218765327 0.6037818344894501
511 0.762790899764437 0.5548359178990884
512 0.6469209428924118 0.5570574523187621
513 0.7273772468301241 0.677675459201593
514 0.011654295321949282 0.31378151076084915
515 0.3121027204536788 0.2729637359033451
516 0.46106750899454985 0.6203428875297511
517 0.963019022040499 0.7446916789505649
518 0.34791927797624755 0.3718552149392583
519 0.3493836256930011 0.35905218064716016
520 0.08566124250362128 0.892455955276095
521 0.5236661662286398 0.49404420332422627
522 0.15760075230620985 0.41120351959078083
523 0.5044799430209509 0.5624187505555585
524 0.2098888942887842 0.40023511044883064
525 0.5642039170942473 0.6738839255463392
526 0.0974293042844484 0.043863116594523355
527 0.7001977913005956 0.009129305465826132
528 0.7475000963484076 0.3177956150051642
529 0.3510679055141379 0.5218528108707058
530 0.7774494964640143 0.5739732504801967
531 0.6115197312919882 0.13605819382968398
532 0.21989924297076546 0.8886882737937294
533 0.4210508776583213 0.9825160005669075
534 0.5199776568149603 0.12016512979705962
535 0.5178592180662824 0.3592208653825302
536 0.7103455837675795 0.5049684713876231
537 0.7499201231290971 0.05348843638362455
538 0.47660925675688104 0.3088685890362288
539 0.6081394175512741 0.8002044337615174
540 0.23869564564274526 0.8255663880530154
541 0.30255938288556516 0.4977473211719011
542 0.5853209832012078 0.8130345227897231
543 0.2990768017008253 0.6915071209790421
544 0.07659623856246445 0.34898660996702024
545 0.4095016496803884 0.2867491820991467
546 0.4219534701271491 0.35724479980998614
547 0.6549101743406455 0.6638055949198934
548 0.7075961843964242 0.9001234845638058
549 0.2090082905977051 0.8063946488182921
550 0.31841131787171095 0.46688495210443137
551 0.3331179891151761 0.6470609874485356
552 0.27797408729046025 0.7705671694970416
553 0.42593357535884535 0.26268927178048207
554 0.013709206839031207 0.7667444496627095
555 0.7344145627184965 0.1661742841037891
556 0.9975438777514536 0.8116026863742417
557 0.5482207428512025 0.8227016281288683
558 0.16475543494935208 0.3715637286134249
559 0.5016837566946958 0.9502426698887676
560 0.800568022423082 0.18704547695947515
561 0.7522533194774305 0.36971235603725716
562 0.5583370425396951 0.038361641658975154
563 0.8655877458648534 0.13199350323197223
564 0.5449871964877011 0.33388965833730355
565 0.6543242519690566 0.1761118996547485
566 0.9690848154325908 0.08522943853405329
567 0.8156726078410078 0.141334508147394
568 0.18173688764522777 0.3212932241915317
569 0.4834672926890695 0.8009757504417362
570 0.2970299673248725 0.49482838491314296
571 0.8233907824393121 0.6980586445558593
572 0.8536587719130263 0.4839552942554194
573 0.6964201941537455 0.40584248160394176
574 0.24514208558309059 0.8937603859323232
575 0.5235869884589561 0.4148375815191685
576 0.7860150253378959 0.3467803396260499
577 0.0015214986077747295 0.30289863149869256
578 0.8221242936616958 0.5903825232440145
579 0.7247491832720421 0.5736841598395346
580 0.6339177521764474 0.2605473340822704
581 0.8407925319549147 0.6773910471960197
582 0.14791625178456846 0.2724976858158096
583 0.38777480718916146 0.25763792096290405
584 0.7655282645704675 0.4226587170862831
585 0.19356194888071865 0.5167332579367999
586 0.5767229074254154 0.12058036317006282
587 0.46279979819775463 0.5093868761891914
588 0.03415673569756583 0.42849893381158277
589 0.36125972987756017 0.35266148498675876
590 0.6165080404268116 0.35197025209729305
591 0.9907509387177087 0.41373474433729407
592 0.40907895604849975 0.691849699667405
593 0.06124041761450971 0.22650916575432045
594 0.42266754122586436 0.517031838802546
595 0.0601708782677256 0.6781745382485387
596 0.29549829194745847 0.3221615233144757
597 0.276184529825771 0.27635569121429504
598 0.5735862622624629 0.27671378242067257
599 0.11196903406805447 0.08540332302583453
600 0.691655762973405 0.3098399445611384
601 0.1323265951021928 0.07098973617503823
602 0.9962122225399093 0.004266412002438602
603 0.31399091257942435 0.7550365864601724
604 0.1200097852486931 0.33960490763967655
605 0.19972388967150834 0.10973955020546267
606 0.8742633642374932 0.3137672828195812
607 0.8450509238091406 0.5953583141295342
608 0.7916283307670349 0.035655334151093454
609 0.5121501937239478 0.5956403073399935
610 0.70596284501109 0.15745869621470765
611 0.7983143256878937 0.4498736083912962
612 0.5861950537897068 0.8386988330388501
613 0.5020343834327555 0.2794519075202714
614 0.9526094677939214 0.00445629967894301
615 0.3546082671224343 0.015527152410497291
616 0.560528446659774 0.8031232887515927
617 0.5524638799886663 0.8567403386042498
618 0.7743781060719441 0.013161700567393742
619 0.9118797639526259 0.4023718095841452
620 0.886755280076808 0.8986105524948834
621 0.8898883786139646 0.1510300484929259
622 0.3499957910071525 0.8844382355359701
623 0.009351899821134046 0.6698828015019237
624 0.3899128001500102 0.31009605244113037
625 0.3827970697241643 0.9138287764448032
626 0.4075495591804107 0.09062031291012684
627 0.18705123236283805 0.7035166814516984
628 0.1878912505296063 0.5146109371054431
629 0.5481714707916223 0.7177263585329129
630 0.6421102023126342 0.44255730504642654
631 0.006333598303086552 0.9694774420466532
632 0.840284836130947 0.5302955668994283
633 0.755563369506428 0.41940386815835484
634 0.6155472159506526 0.7613161291909691
635 0.46486525580962923 0.6561147850235819
636 0.04676838258444438 0.5777937115138381
637 0.09516271234383744 0.1881969529449431
638 0.7664326449725338 0.8246054827670989
639 0.32682586718395457 0.23006532420027803
640 0.29106249003718054 0.9779178150711904
641 0.48509777641709206 0.34614340869582516
642 0.9058489954670175 0.4189818215730545
643 0.7746987475852836 0.7570967248086223
644 0.4005127620234181 0.01650016330957127
645 0.07926987141600994 0.09239887585602102
646 0.026482099083666277 0.5835819691341266
647 0.4930920364182926 0.9872524340166291
648 0.023115639951080458 0.7225535078027003
649 0.9037797409233416 0.27319729910712975
650 0.0676800897772486 0.3425587061616303
651 0.8427817724940814 0.14009456593442826
652 0.5927212633775001 0.2636455590351927
653 0.12064670010348244 0.3803883197007778
654 0.2865185755043296 0.010135019422508051
655 0.7485471641811972 0.16757444874093896
656 0.1495923668097182 0.102377505381965
657 0.28036939061386146 0.8503486577496534
658 0.9833962443829437 0.6898943414138228
659 0.8306433950185043 0.2554578395031126
660 0.7423997923856435 0.6375124112466263
661 0.2644808842831755 0.9106506702964762
662 0.62337487102505 0.6366995085198579
663 0.9318573118076983 0.9016437344275696
664 0.672383925324803 0.8065558043576451
665 0.3938834157174158 0.6465153577587233
666 0.3956017152076352 0.5822307700300129
667 0.9990791471674444 0.9819439072581045
668 0.1698029496014315 0.1418950057486189
669 0.45943243953294166 0.7743362645581136
670 0.42147095164389925 0.5261271579598479
671 0.36044236357848247 0.616482854701139
672 0.47066542583071047 0.7078488328408663
673 0.26021248526694063 0.8069856351128296
674 0.6070477711762471 0.2610933928298247
675 0.12289498253867381 0.7380779656777866
676 0.9507492706784159 0.46848134202166136
677 0.17752251275564213 0.874130300831698
678 0.37265754788887306 0.20826937009028912
679 0.4594363382081118 0.5872778908867189
680 0.17826802137746545 0.7920512458615853
681 0.0706612632980087 0.7596482750389281
682 0.34105483489104027 0.686183530739515
683 0.8868751925240158 0.8699365871661183
684 0.3514546873254101 0.67971513246463
685 0.7833421297672893 0.694076011438078
686 0.808222808004596 0.23146926617940766
687 0.6747699687292585 0.1558028674927633
688 0.6916114168297673 0.6613089684378489
689 0.8420037079131555 0.5650404657573284
690 0.6681249576820353 0.6558112748840997
691 0.8454295556214473 0.2903133116413058
692 0.04032268195981403 0.7784002041593328
693 0.19977136255904437 0.6694210544074198
694 0.08749052642975153 0.13524602988811585
695 0.3812683928321806 0.2723643412185801
696 0.6196981852799145 0.9093889924004359
697 0.018133273718826892 0.08061182018681778
698 0.7028988240443208 0.03639004322861483
699 0.3936444594903541 0.15944795512982657
700 0.9705233110768794 0.44514309253281426
701 0.28729583503257994 0.9146127788380581
702 0.3950407252909186 0.9323657543819314
703 0.3032565956044404 0.5412970803203925
704 0.17607484398209317 0.8806881733414138
705 0.6388534618700835 0.7890922825478197
706 0.3112244814452487 0.019701107525418315
707 0.8602023650499775 0.44209683643519204
708 0.8564504901059936 0.4930644341065279
709 0.23608083733923713 0.3552022564471061
710 0.9427995351761117 0.32266705555198094
711 0.8332487692895275 0.03867035311236611
712 0.8839080258417887 0.8164345946801173
713 0.6615106751428622 0.6908893567761851
714 0.07357931936658768 0.04961158321425485
715 0.5844724749150946 0.103303315915517
716 0.8980988049568129 0.5525382203552683
717 0.5173352400367037 0.007438695487792968
718 0.8670195923054979 0.6203546079140364
719 0.9795529919543591 0.26348520593637925
720 0.799900922635969 0.13234888845021953
721 0.279631125240139 0.41107136922177445
722 0.9289411020042 0.4029885761577625
723 0.0036545837153987293 0.3326196141024802
724 0.9985027469893828 0.6616989950405016
725 0.7774838810710684 0.6157983464862966
726 0.9408529002965974 0.359414991377885
727 0.9985647879216171 0.0644929253233465
728 0.07978331725315202 0.7487236196164949
729 0.4258676028219459 0.7024579897388322
730 0.19853003161098126 0.31403585472952944
731 0.5357432275078458 0.0482409574448639
732 0.36947414545396295 0.8171882026307546
733 0.12789733148975047 0.08996800677907513
734 0.5589132342079521 0.15700478051489608
735 0.40331302508697975 0.5049787733294873
736 0.8785295022632013 0.05919005646232389
737 0.7368492079294421 0.2775611816749345
738 0.004304290191680993 0.4091589750983723
739 0.6228902139191302 0.08313686140970589
740 0.3085294751885205 0.3289290567731783
741 0.5296163982427571 0.4574706493527979
742 0.1682429902361905 0.05600703807982543
743 0.8391121898527677 0.2906491373362948
744 0.07031400705685364 0.7306796096489644
745 0.2858496314405874 0.14509868329754527
746 0.9539248087886765 0.17229968146504104
747 0.2731513963670772 0.6203863130165636
748 0.2885732075756119 0.9333041877147572
749 0.49934930519413945 0.927529071330012
750 0.42559574752485607 0.1994888220275004
751 0.8390772704634628 0.10907127062247657
752 0.7755345344330652 0.3339214442148931
753 0.11984339718248849 0.01862278577864196
754 0.9012609875071164 0.24189124685473817
755 0.330767479428561 0.4256793501567693
756 0.6339278953050121 0.1934243540811793
757 0.14102142043459387 0.3554532555227904
758 0.07937776478994962 0.8765501921337506
759 0.21024513153275848 0.052484737664125425
760 0.34736554400229147 0.32131966145110824
761 0.8983358877955434 0.02810329295148506
762 0.567767255632142 0.839399896385816
763 0.029214534534841796 0.5952699724800066
764 0.07514331762539539 0.24147712769894825
765 0.49624633261429674 0.5626940736371069
766 0.23750215011863474 0.27017816812466267
767 0.3944657589485516 0.05461200571387137
768 0.9642169652107774 0.3864828450350526
769 0.423326594884216 0.21490987905812697
770 0.16618757609349621 0.15793805080097045
771 0.8210028085843779 0.07108304717971947
772 0.48810696370828377 0.22511217600308964
773 0.4761501142405904 0.9305855008496777
774 0.877382597461163 0.035742122854927616
775 0.8147078908316157 0.5652542856511198
776 0.20961701010882994 0.2901672436704219
777 0.6465893996896895 0.4609251361071055
778 0.7887637908752302 0.8398229071744789
779 0.5676763659380301 0.38096342799457683
780 0.9186764741464368 0.8281366042186732
781 0.5984310689322904 0.42913201025748593
782 0.524431981219404 0.9329017828815733
783 0.19225179723467256 0.587291748484315
784 0.25352242502624955 0.5687854837582075
785 0.9920640369480846 0.37913323685716593
786 0.7004322697611258 0.802231386314624
787 0.9777273307868722 0.35399831789136205
788 0.1262641663028925 0.17038206113625431
789 0.621717887831269 0.9810439727862347
790 0.08500058495446516 0.9056514326879294
791 0.48136897182689997 0.41701028109116567
792 0.28958889971380497 0.626780973903273
793 0.13894162338058613 0.5708547043742336
794 0.41672045774957744 0.7669653318635143
795 0.11426458240731341 0.9807936167095319
796 0.8610157237060801 0.6092676460955593
797 0.16282035301179099 0.9544351107513045
798 0.4856487738272306 0.29471268296829756
799 0.15910317411145636 0.37865247210766995
800 0.5862200111402838 0.6776455591986336
801 0.058199997012348015 0.05029122799094954
802 0.9948371556585228 0.13212586913447288
803 0.5169125683141845 0.39553909498559126
804 0.5991436707489259 0.5239191880466775
805 0.059074775257115686 0.6158257464691043
806 0.0897003912530927 0.23611976391569922
807 0.5984751519530515 0.7247647024331209
808 0.16011067045289518 0.9959369608186729
809 0.915394802759727 0.21482636587550985
810 0.29550970336216864 0.7560414661755707
811 0.1592730923538609 0.8840626563658777
812 0.20714139592010694 0.5290192919384857
813 0.2536743797533725 0.5915260246424072
814 0.7762567877212292 0.008082527035568665
815 0.39375816893909465 0.9953978768802786
816 0.029567792482587008 0.8024629495635915
817 0.3238890851537134 0.7779403046200364
818 0.5799284696659958 0.8172935346314915
819 0.25421578399793743 0.2980200293793529
820 0.4054117064520867 0.9465266118406057
821 0.9325772433756766 0.25011914153615067
822 0.335411760643302 0.5841416599346371
823 0.4074712450310083 0.4617946105168438
824 0.6823661038499639 0.7336510602816886
825 0.5278501923771987 0.7188828340843573
826 0.8804699000889428 0.8435158488915028
827 0.07205130210924349 0.6071914135720656
828 0.652036974379729 0.9180934883187252
829 0.23830925406095405 0.9284892457697812
830 0.1979627062831112 0.08766883371552225
831 0.8783927658392492 0.7123819020664863
832 0.29934184450615586 0.461896771156435
833 0.20018744459942261 0.42701357446409915
834 0.02927208617449195 0.14553394307520584
835 0.09544857593288014 0.5105154577273412
836 0.2633160837854718 0.7949635778429072
837 0.03253759621798846 0.6226050184743193
838 0.10919223853316906 0.27842033058039073
839 0.40753645952479445 0.09632847742295148
840 0.9167650104300761 0.9278940980872721
841 0.265188196916306 0.21589608119352066
842 0.9191702210567129 0.9159235083374476
843 0.309862284870135 0.6999209150092877
844 0.6389316559181519 0.4139936931678112
845 0.2685926379384119 0.7211559567468083
846 0.6360508488322352 0.9721907205814403
847 0.5310938693981883 0.41546909710744984
848 0.12136486712697214 0.2845488827942947
849 0.49553581773222755 0.8342871494868648
850 0.3354285298123314 0.06456391579639353
851 0.624582843028188 0.24787223938426783
852 0.8419675851979379 0.9882579251968958
853 0.5415018884092112 0.5402376018581063
854 0.3524965971819525 0.45291093622328094
855 0.43124360618878255 0.6476801356871191
856 0.0212802883585681 0.8817811089011448
857 0.5613301019889009 0.847605110015385
858 0.4270418869169377 0.9612734696258523
859 0.5669151353436458 0.4477081091791376
860 0.09088641385396479 0.2460032978378357
861 0.7228425302034066 0.1752774925931122
862 0.8365030830036311 0.8025015716898211
863 0.041207702562059856 0.33512688972469795
864 0.7100683910059387 0.2873886584257833
865 0.7462154770070002 0.12249259612253582
866 0.40935040012547796 0.97305785713231
867 0.14294038559649946 0.5602372357648295
868 0.5576590091109084 0.10734054461278209
869 0.5662248025266721 0.7892792956969616
870 0.03463139828200312 0.9186637838672554
871 0.4354802683852531 0.001023127580283112
872 0.10571012467953 0.9404747577842199
873 0.16511845079412868 0.8440662635210543
874 0.5376965157323876 0.04491578979925104
875 0.8497821631557294 0.844736212836057
876 0.15698096821986185 0.8086153239466596
877 0.5504211848680673 0.4402778190190496
878 0.07710252062363365 0.3390495094916359
879 0.820074882434214 0.6855538390520376
880 0.3481821667874102 0.6966835279697202
881 0.3526121134773388 0.3640564670452382
882 0.914088172399371 0.8112592988958308
883 0.40755608243493613 0.12937314590710014
884 0.5832038017433946 0.7283174477765525
885 0.48547550454718047 0.5547078013470333
886 0.9599502006008922 0.5149729964256442
887 0.9963887251506002 0.09162779253808473
888 0.1271616380090863 0.5749269158140579
889 0.5437762889852368 0.38061344179957024
890 0.48651957679652513 0.27353905665500955
891 0.7821306967702212 0.10109164919675573
892 0.5610127093616003 0.1009571336900068
893 0.2858599850147334 0.8103762789354292
894 0.8639124616655194 0.37824705198499065
895 0.35623346402407496 0.36489778835675013
896 0.6191600141065837 0.4233308387796205
897 0.8028443468226397 0.1307893700892242
898 0.146852542845189 0.26177431956839514
899 0.7799176534073488 0.8125247290375547
900 0.23602670885793964 0.9657383422027516
901 0.9614756823759644 0.7227444848436279
902 0.609399190819482 0.008555645646224797
903 0.3140195538937868 0.18961086813093897
904 0.7486597624794501 0.780565506916377
905 0.40677247779199 0.7027596865512238
906 0.1270057020371741 0.6260344647340925
907 0.6223349016157707 0.5918736752449019
908 0.36944310031898175 0.9113311428745521
909 0.5141066250311128 0.7684849384106306
910 0.43089190428482216 0.24747320401735695
911 0.3332202444646998 0.9709385262901833
912 0.030543787473220285 0.687749424718235
913 0.5742258176810365 0.4577933332543217
914 0.8266871759681421 0.5919520788122387
915 0.1005453542128305 0.05508001334871426
916 0.035627557675378396 0.5597006872021676
917 0.36343115075771437 0.7760212290213806
918 0.41101264347628874 0.9290556629328145
919 0.9669606008314493 0.279868072029997
920 0.8815920165978641 0.8919420932604907
921 0.4251939777032885 0.5632993028462404
922 0.2904070176066196 0.6145927309226705
923 0.47494083107821017 0.12124049722086305
924 0.8000298562315183 0.9110191244558512
925 0.023812020483289453 0.9683277814016076
926 0.9719399754649379 0.20914890090768767
927 0.9185307129497647 0.3482773230392142
928 0.20812450753630463 0.956299288377549
929 0.2513313186992604 0.19215504270585348
930 0.8184585371680619 0.6915147895769048
931 0.4119219727900677 0.1501583680979085
932 0.10310031566731725 0.24290771348504825
933 0.33132457464123366 0.5936783600786477
934 0.2916558759404374 0.2479588242927715
935 0.08228052475423042 0.36286198750620047
936 0.8604847018271596 0.3492088806456862
937 0.9912485389169701 0.8764377104907072
938 0.0018707110005815597 0.9606868644799796
939 0.0024382725276581585 0.5221969932889708
940 0.3050035880205926 0.1230498994572834
941 0.7002899119095369 0.15443261048020396
942 0.7406172565013756 0.07806442165449523
943 0.17311364305256272 0.28973610119317816
944 0.5750094097826041 0.7681493556092557
945 0.9017844538661274 0.9437792185692532
946 0.2038892611515053 0.8832695342144974
947 0.662833540466972 0.34821633719105705
948 0.8220089642754367 0.04865306196053798
949 0.26378817970581425 0.940310223104014
950 0.7904990753719051 0.6913094750700486
951 0.8826947384110184 0.35318914925042155
952 0.7344437811953615 0.7050327381404015
953 0.9351281683258489 0.9772870401063055
954 0.08465680829491407 0.2571372825723095
955 0.7297944311304534 0.8643601045951668
956 0.2403680669571553 0.9435871876484998
957 0.626074521643305 0.26260183474353305
958 0.5096281039025544 0.2885156292789943
959 0.5501794099210104 0.8803702308146801
960 0.266105400651804 0.8252098998010222
961 0.3068848969143977 0.5012688695435017
962 0.6420594339689094 0.014471844216260799
963 0.8531846159080712 0.28221229332938647
964 0.5884592044630839 0.5568135674870207
965 0.37651683952844284 0.9531120920150657
966 0.43829596562133344 0.7449464661218427
967 0.49770003845563027 0.7144131095774467
968 0.5061508814880549 0.021229476043959417
969 0.3953123391670573 0.6865185133676523
970 0.35091407102940175 0.8962585007762774
971 0.10714335764599858 0.9000569825349773
972 0.09879492310252902 0.17583167803564614
973 0.14288017471311842 0.5214493538589281
974 0.09469502881061231 0.7179212153559977
975 0.45008065217073223 0.2477385665199766
976 0.08958988164586235 0.3261896907973154
977 0.6946898687660908 0.641205028003451
978 0.18861944083646864 0.45837957734818546
979 0.30417798190246426 0.19487291732068412
980 0.7146081423909378 0.5546033336089906
981 0.6188715963027407 0.8342112270582481
982 0.2243757154877506 0.5909766941042759
983 0.48800406100031213 0.3072998007260582
984 0.8353092061038451 0.6846337910363162
985 0.6911130586815131 0.49003640196865794
986 0.5035991762635313 0.6272582920174605
987 0.22699718670848346 0.7831747679063664
988 0.9087025526231362 0.7592830325820098
989 0.5689816515840136 0.4684502539090727
990 0.1609910619482876 0.04213424193042392
991 0.48995721664492653 0.923366576088986
992 0.9343109870146044 0.5100220256971726
993 0.4487330859638029 0.39186449856412175
994 0.1483630665251211 0.542925753999133
995 0.2592632463883009 0.007121981706004754
996 0.888543622751396 0.3251594058486801
997 0.9508252138531519 0.07803460094010095
998 0.49035484117697525 0.9733419137935879
999 0.6365299706561054 0.3227518835612593
1000 0.5343654871107563 0.5432071680083606
1001 0.5338676664416898 0.4189313997879457
DEMAND_SECTION
1 0
2 4
3 9
4 6
5 9
6 9
7 3
8 6
9 7
10 9
11 5
12 3
13 9
14 4
15 1
16 7
17 2
18 8
19 2
20 9
21 3
22 8
23 9
24 8
25 7
26 3
27 4
28 3
29 5
30 8
31 8
32 7
33 7
34 1
35 3
36 7
37 5
38 8
39 9
40 4
41 6
42 5
43 3
44 9
45 7
46 1
47 9
48 2
49 2
50 8
51 6
52 1
53 6
54 1
55 9
56 4
57 1
58 1
59 2
60 2
61 1
62 9
63 3
64 3
65 7
66 4
67 6
68 4
69 2
70 5
71 3
72 8
73 4
74 3
75 2
76 3
77 4
78 4
79 3
80 3
81 9
82 5
83 1
84 4
85 5
86 9
87 8
88 9
89 5
90 5
91 3
92 1
93 9
94 4
95 3
96 9
97 4
98 1
99 9
100 6
101 4
102 6
103 2
104 3
105 2
106 3
107 4
108 9
109 3
110 5
111 6
112 7
113 8
114 1
115 5
116 2
117 6
118 2
119 3
120 1
121 7
122 3
123 7
124 8
125 5
126 4
127 2
128 7
129 7
130 7
131 1
132 1
133 9
134 7
135 8
136 1
137 4
138 7
139 2
140 7
141 5
142 3
143 4
144 5
145 2
146 5
147 6
148 9
149 3
150 4
151 7
152 6
153 1
154 4
155 4
156 7
157 2
158 7
159 9
160 3
161 3
162 8
163 6
164 2
165 2
166 3
167 3
168 2
169 4
170 9
171 2
172 8
173 6
174 1
175 5
176 7
177 5
178 8
179 8
180 4
181 7
182 9
183 9
184 9
185 6
186 2
187 8
188 3
189 6
190 9
191 5
192 6
193 4
194 3
195 4
196 5
197 3
198 6
199 5
200 1
201 2
202 5
203 4
204 8
205 6
206 3
207 1
208 3
209 9
210 5
211 5
212 3
213 9
214 1
215 8
216 6
217 8
218 7
219 2
220 6
221 4
222 4
223 8
224 3
225 2
226 4
227 4
228 3
229 3
230 1
231 8
232 7
233 6
234 8
235 7
236 8
237 4
238 3
239 2
240 9
241 5
242 2
243 6
244 1
245 9
246 9
247 5
248 3
249 3
250 4
251 8
252 5
253 1
254 8
255 2
256 2
257 8
258 8
259 6
260 4
261 6
262 3
263 7
264 8
265 2
266 4
267 7
268 9
269 2
270 4
271 7
272 2
273 6
274 9
275 5
276 1
277 5
278 2
279 7
280 6
281 7
282 5
283 9
284 1
285 9
286 3
287 8
288 9
289 2
290 1
291 9
292 3
293 9
294 2
295 7
296 9
297 1
298 6
299 1
300 3
301 9
302 3
303 1
304 3
305 8
306 7
307 5
308 7
309 7
310 9
311 8
312 9
313 9
314 5
315 4
316 7
317 1
318 1
319 9
320 8
321 2
322 8
323 9
324 5
325 5
326 5
327 6
328 3
329 6
330 8
331 3
332 5
333 6
334 1
335 8
336 7
337 2
338 5
339 9
340 7
341 8
342 2
343 3
344 8
345 8
346 1
347 3
348 3
349 5
350 8
351 5
352 1
353 9
354 9
355 9
356 9
357 3
358 6
359 3
360 3
361 6
362 6
363 4
364 1
365 9
366 8
367 1
368 1
369 8
370 1
371 1
372 5
373 5
374 2
375 2
376 6
377 1
378 7
379 1
380 3
381 3
382 8
383 1
384 7
385 1
386 4
387 4
388 3
389 2
390 9
391 6
392 7
393 8
394 1
395 6
396 7
397 4
398 1
399 9
400 8
401 6
402 1
403 9
404 6
405 8
406 7
407 6
408 9
409 8
410 4
411 4
412 3
413 6
414 7
415 2
416 9
417 4
418 1
419 9
420 2
421 6
422 5
423 8
424 9
425 2
426 4
427 1
428 8
429 4
430 8
431 5
432 2
433 1
434 9
435 2
436 8
437 3
438 5
439 5
440 2
441 6
442 3
443 6
444 7
445 9
446 2
447 3
448 2
449 5
450 4
451 3
452 1
453 9
454 5
455 4
456 2
457 5
458 8
459 3
460 2
461 6
462 7
463 1
464 6
465 1
466 7
467 1
468 2
469 5
470 2
471 5
472 5
473 2
474 5
475 5
476 5
477 6
478 5
479 4
480 2
481 9
482 3
483 5
484 7
485 2
486 6
487 7
488 6
489 1
490 4
491 3
492 7
493 2
494 7
495 2
496 4
497 6
498 3
499 3
500 9
501 7
502 5
503 4
504 3
505 9
506 2
507 6
508 7
509 3
510 5
511 7
512 9
513 5
514 8
515 9
516 1
517 2
518 2
519 5
520 6
521 9
522 8
523 2
524 8
525 5
526 7
527 3
528 4
529 2
530 2
531 6
532 7
533 2
534 1
535 9
536 8
537 9
538 4
539 5
540 5
541 8
542 2
543 8
544 1
545 8
546 3
547 8
548 1
549 3
550 6
551 2
552 7
553 9
554 1
555 7
556 1
557 4
558 1
559 4
560 7
561 3
562 9
563 2
564 3
565 4
566 8
567 9
568 8
569 1
570 2
571 3
572 2
573 3
574 4
575 3
576 3
577 1
578 2
579 5
580 1
581 4
582 8
583 5
584 7
585 4
586 6
587 2
588 9
589 5
590 7
591 1
592 8
593 6
594 6
595 9
596 1
597 5
598 6
599 5
600 5
601 1
602 7
603 9
604 7
605 1
606 5
607 3
608 7
609 1
610 4
611 2
612 5
613 8
614 6
615 9
616 1
617 9
618 6
619 7
620 8
621 9
622 1
623 4
624 9
625 2
626 2
627 8
628 2
629 3
630 8
631 9
632 8
633 8
634 1
635 6
636 5
637 6
638 6
639 2
640 1
641 2
642 6
643 1
644 9
645 8
646 6
647 8
648 9
649 8
650 3
651 7
652 5
653 1
654 9
655 4
656 6
657 7
658 2
659 4
660 5
661 6
662 7
663 9
664 3
665 3
666 5
667 7
668 2
669 7
670 1
671 6
672 5
673 3
674 3
675 8
676 6
677 6
678 9
679 8
680 6
681 4
682 8
683 2
684 6
685 7
686 7
687 5
688 5
689 6
690 4
691 2
692 5
693 4
694 7
695 8
696 4
697 7
698 4
699 4
700 5
701 2
702 9
703 1
704 2
705 8
706 5
707 5
708 5
709 3
710 2
711 5
712 8
713 9
714 8
715 8
716 2
717 8
718 3
719 7
720 7
721 9
722 7
723 3
724 7
725 8
726 2
727 9
728 4
729 8
730 8
731 2
732 5
733 6
734 5
735 7
736 4
737 2
738 7
739 8
740 6
741 8
742 8
743 6
744 7
745 3
746 6
747 6
748 7
749 4
750 6
751 2
752 4
753 7
754 3
755 3
756 9
757 6
758 5
759 4
760 1
761 6
762 5
763 5
764 6
765 8
766 2
767 3
768 7
769 6
770 9
771 4
772 2
773 1
774 1
775 2
776 9
777 1
778 8
779 1
780 1
781 9
782 4
783 3
784 4
785 2
786 6
787 2
788 4
789 7
790 7
791 4
792 7
793 8
794 9
795 4
796 8
797 5
798 5
799 5
800 9
801 6
802 1
803 3
804 2
805 8
806 7
807 5
808 8
809 1
810 8
811 2
812 6
813 7
814 2
815 6
816 3
817 8
818 5
819 3
820 4
821 1
822 8
823 6
824 1
825 9
826 1
827 6
828 6
829 7
830 4
831 5
832 1
833 3
834 6
835 9
836 8
837 9
838 4
839 8
840 9
841 2
842 2
843 1
844 8
845 3
846 4
847 3
848 1
849 2
850 2
851 1
852 4
853 7
854 5
855 2
856 7
857 7
858 7
859 2
860 3
861 2
862 8
863 6
864 3
865 3
866 6
867 8
868 7
869 4
870 4
871 6
872 2
873 9
874 3
875 6
876 2
877 2
878 4
879 3
880 1
881 6
882 7
883 3
884 4
885 9
886 7
887 6
888 1
889 5
890 7
891 8
892 7
893 4
894 8
895 4
896 6
897 5
898 7
899 3
900 9
901 4
902 8
903 6
904 1
905 1
906 7
907 5
908 7
909 9
910 3
911 2
912 6
913 6
914 5
915 5
916 1
917 8
918 6
919 4
920 4
921 9
922 3
923 8
924 7
925 9
926 8
927 8
928 2
929 6
930 2
931 4
932 9
933 9
934 2
935 3
936 9
937 3
938 8
939 8
940 5
941 2
942 5
943 4
944 4
945 8
946 4
947 3
948 6
949 3
950 2
951 8
952 4
953 3
954 6
955 2
956 7
957 4
958 4
959 1
960 3
961 6
962 4
963 1
964 6
965 1
966 2
967 8
968 6
969 3
970 2
971 3
972 4
973 3
974 6
975 3
976 7
977 2
978 3
979 9
980 5
981 9
982 3
983 2
984 6
985 6
986 8
987 7
988 2
989 6
990 5
991 2
992 3
993 4
994 4
995 8
996 6
997 2
998 3
999 6
1000 5
1001 2
DEPOT_SECTION
1
-1
EOF
