NAME : gen1000_009
COMMENT : uniform customers, demands 1..9, generated by bench/make_tuning_set.py
TYPE : CVRP
DIMENSION : 1001
EDGE_WEIGHT_TYPE : EUC_2D
CAPACITY : 200
NODE_COORD_SECTION
1 0.10022772630965981 0.7561669655765656
2 0.3573852059154987 0.5575783003309852
3 0.8038172817941411 0.1179944667034768
4 0.38251905736545766 0.594308286630703
5 0.4579933994686537 0.4282376549648754
6 0.5249349643097138 0.2546368120850977
7 0.4460127235164003 0.8433448202640873
8 0.39009487625708794 0.6134720704148051
9 0.2725675507554778 0.5194201740366247
10 0.5087098672283891 0.8472004177108824
11 0.801681837687375 0.3900964461171401
12 0.2525605165279887 0.29552490089374817
13 0.04567892708556365 0.4101780480556473
14 0.7509395028503085 0.8100282483915804
15 0.014642224851929675 0.2759334088035106
16 0.31594421736992906 0.5411096441033317
17 0.20109851662008427 0.3422790717457659
18 0.4786265580818898 0.6226666799413108
19 0.555478181242379 0.675235672115128
20 0.03080638006848868 0.6082281830577568
21 0.26656550443557747 0.2513886048693207
22 0.12412601344817364 0.9694306594394883
23 0.8243193147265714 0.1342470784276648
24 0.7153774707712875 0.8302044042761404
25 0.8492541277536818 0.3016218441633868
26 0.8216671444207405 0.4657402403969071
27 0.17061039490833474 0.8715579344293757
28 0.39577624053703 0.08120498050898084
29 0.24740609563545535 0.4087972320414899
30 0.13452353761669467 0.33907513179382553
31 0.22508919935838434 0.187021491536696
32 0.22886986260860387 0.11278655259905968
33 0.8888687033659879 0.17790561570500085
34 0.7039278548454937 0.5140083720175088
35 0.2381491319753004 0.2569154762136633
36 0.45261763844139014 0.08953622052520849
37 0.8781031251365126 0.9627801663352425
38 0.5434266424842384 0.5967297311713036
39 0.959558091637247 0.29987746557918515
40 0.7771450729187963 0.7737389428062983
41 0.28207914751464336 0.49140241752519154
42 0.9009531392116916 0.00564283966304957
43 0.150768276763092 0.7213107136810674
44 0.6117206041101982 0.009106458372581505
45 0.9463908774332102 0.1729021992294858
46 0.5814332884122325 0.545790089986748
47 0.07053900613898889 0.7828482704204767
48 0.5909481267429515 0.7913497869616618
49 0.9222215129975878 0.2508415481033851
50 0.6339750832851293 0.610854020002001
51 0.39519412836336487 0.22698617055166403
52 0.0990006564698036 0.6817843838894927
53 0.08406248586293086 0.27694588340827064
54 0.5342989807894563 0.49564072520674096
55 0.5899937842619947 0.5591298531674146
56 0.7489166671669101 0.1371021027411572
57 0.5071691514879102 0.5177384203787452
58 0.8957475934909677 0.17307943849799012
59 0.7157245230465626 0.03481509439003316
60 0.41808881699916534 0.5859425607907327
61 0.1961847451349641 0.33356818455976533
62 0.1049486174642692 0.49856312470710495
63 0.8295592523139874 0.6263827699342396
64 0.8545431815840869 0.046321138666602146
65 0.9952519163242312 0.012159295067556974
66 0.41493205707353764 0.7877139668225
67 0.016397297613664485 0.3735340812784437
68 0.927390893134119 0.26762308944078617
69 0.1071462191304805 0.3151236772306709
70 0.47335581459795517 0.1412738349270919
71 0.31846181947792396 0.0986092018875182
72 0.008426997407616765 0.7086719346367403
73 0.2840950779286582 0.11076451680199118
74 0.4743125649591382 0.3363016734309816
75 0.6845565503413124 0.968642025604777
76 0.31995596228105716 0.25036310583197496
77 0.7634071174261293 0.6029723160947305
78 0.22529723457639728 0.8791363469074904
79 0.22118669243120603 0.65455308621256
80 0.5670044166844364 0.19494649936452157
81 0.3059552934852112 0.0667328513467591
82 0.29564620707805334 0.9300696456552214
83 0.11077073765829815 0.8300101666820299
84 0.4047497195990375 0.7868524523582288
85 0.26659128631697904 0.2738159630818564
86 0.38184876128926604 0.9903245907204539
87 0.6560052590154283 0.8076362970626367
88 0.908665564098133 0.15911208762690965
89 0.7489486929441224 0.3537030974033958
90 0.9612562907570223 0.24634222637706193
91 0.19007287980965815 0.9543260285921006
92 0.9805163495230984 0.6093302428055213
93 0.38663772611282554 0.23842717541144776
94 0.6209338301743723 0.005874182968135577
95 0.6238155529614816 0.2386161077180381
96 0.3749664213363231 0.6027314533962925
97 0.6007113461768204 0.7137008482685172
98 0.09125495702711306 0.5525452887941434
99 0.4402852632182199 0.8569054470821168
100 0.08619460737343443 0.5407774898458294
101 0.3186912901687231 0.7852701064482984
102 0.22299012538938268 0.19126651776927572
103 0.3574229306626827 0.5148014212873991
104 0.2811108761750961 0.5759754060564141
105 0.3870758241575888 0.5313693312436868
106 0.7034371165647274 0.6861680694522487
107 0.6503383674200681 0.874441447428727
108 0.5155928787708459 0.432627642482028
109 0.7188343264514899 0.7332062717513925
110 0.47478926457861603 0.5375380751943277
111 0.4470554007856703 0.6272703925270361
112 0.7119705675797875 0.21468962427806915
113 0.5657263084353187 0.4035939013985449
114 0.3431495559007731 0.21297782916223595
115 0.4524183164282991 0.820948014308709
116 0.5231043735747982 0.29211793326476676
117 0.33541829388572675 0.248055475005591
118 0.8028093583927485 0.6468052323555654
119 0.5918081902492105 0.44776232925815485
120 0.7400431600385131 0.8403793793191309
121 0.8770119344252483 0.689558608581054
122 0.22865166892063948 0.8150330774929299
123 0.14596898660655877 0.10769755364377065
124 0.6332618698464839 0.2680206655776838
125 0.206441231113756 0.6087785078018815
126 0.47202155824484027 0.6838123953009546
127 0.9297819894291484 0.4496244062454431
128 0.7603837316460949 0.5278545904901895
129 0.7402073436334903 0.8526187821815308
130 0.15120671662256224 0.9401333673191143
131 0.6257157909670086 0.06418911701543784
132 0.3241460323078189 0.6788367278369122
133 0.7583742822403605 0.9333052632713619
134 0.07073366774176826 0.5279073439375804
135 0.2033717177098655 0.8798903075604743
136 0.568622546826355 0.6103187106064187
137 0.36120890861606114 0.8035383463669469
138 0.49731739856123036 0.243633460887138
139 0.48228421696442025 0.8530002443959406
140 0.7961496063030351 0.2758480117372617
141 0.15259103301575427 0.24432728113606883
142 0.2723016315039747 0.07848548353649543
143 0.05638119956495902 0.8429973336383667
144 0.37430802219833115 0.5655875396016973
145 0.11787954456359495 0.22475523206461046
146 0.26462551700226156 0.18452572140678036
147 0.004800928188300246 0.6975492155683425
148 0.9279345909140321 0.11287667200018581
149 0.8151989727818798 0.5911560530906262
150 0.7059879928910063 0.4862679935679076
151 0.5096668569075312 0.050169931128694945
152 0.09788619018973643 0.15700334613542377
153 0.31170476405950254 0.5822267409362032
154 0.539742941980662 0.6368556156222316
155 0.15958672430363674 0.7063514776371738
156 0.6367413485846989 0.3565483869669275
157 0.9497696193239942 0.22513272961200592
158 0.12418614736637013 0.2117056210752445
159 0.6465116090467311 0.20613318450245888
160 0.22837200966724758 0.9886172770359468
161 0.8134426121132994 0.6557998176777735
162 0.7786909765848546 0.6377740268325098
163 0.012544787025517312 0.8850580106848087
164 0.8168942671486761 0.20984925292747092
165 0.3592453641794141 0.9626143661498711
166 0.9357305830899942 0.41911372950882064
167 0.6774432131154963 0.18712782720856125
168 0.922833726690515 0.024126527696580635
169 0.44254596092278065 0.9276828475366768
170 0.29863321775826357 0.0962937866790079
171 0.06363579361702731 0.08742840425873155
172 0.5646845403564502 0.18083149972747892
173 0.6202193489074848 0.36447897545169006
174 0.27967104330298265 0.32134975447668446
175 0.02978433805444136 0.8745027211411595
176 0.5910308748589083 0.49829326089074544
177 0.08853957117236733 0.7709785410463499
178 0.8495767439619184 0.340376266014333
179 0.6289233611706875 0.3307358158186545
180 0.013983557943696545 0.8657850457973624
181 0.8924534526178857 0.14087217533619967
182 0.4737006317471226 0.5338154252675165
183 0.30101663516961774 0.2607214912298159
184 0.46486967894945297 0.06892180134566628
185 0.22827535701585255 0.9461017637079246
186 0.7851968893750658 0.10929781056944765
187 0.4226855652117081 0.019281097471318454
188 0.2758353433700189 0.3916694592306351
189 0.24203831604574155 0.3317477239581179
190 0.5031973992473576 0.5538421063949958
191 0.14091484948817112 0.1277278714080351
192 0.6626224123829128 0.5502998149207744
193 0.5826622737909067 0.6994447811720494
194 0.9002049979158235 0.19346097811739416
195 0.43842449702346475 0.2516434334347438
196 0.8836622598962273 0.8071171832884226
197 0.04557705336068818 0.8778093792130167
198 0.01492815043408613 0.8595183072214381
199 0.3220881534253689 0.25971986676296743
200 0.1980947926283081 0.22686136735265117
201 0.30993369987830477 0.9249255235804046
202 0.3766873194598468 0.13654775912069872
203 0.42662157695985437 0.19518667432942538
204 0.18533852654095073 0.6294060306645518
205 0.56009396251799 0.0397005556576524
206 0.4574526507985087 0.16446392177183955
207 0.844831119204244 0.24044004996741364
208 0.26257171987738714 0.5543965683870085
209 0.06740697390591721 0.8233685669797092
210 0.6374493250251477 0.3578202816779398
211 0.06734379231709742 0.9355158873295226
212 0.9398769430909568 0.5511197218096315
213 0.08711296194182627 0.9033247706776973
214 0.34678161689930886 0.7409974880239737
215 0.5583475297404455 0.12465525581312131
216 0.1620952611405675 0.5423368326560027
217 0.6688825225305342 0.8248135809306579
218 0.9529030919243408 0.18699491770168652
219 0.7395340508229297 0.9093659546454227
220 0.9585009402971175 0.09818413682184868
221 0.46193747124443485 0.859881825533425
222 0.20814797566953502 0.565051294996106
223 0.6572195103989114 0.1946197512984753
224 0.48294322734593365 0.7947010414238117
225 0.2521799848910633 0.7468755109827434
226 0.9648781117375188 0.9271487237322066
227 0.39006861933067216 0.904869681049385
228 0.19317166508375816 0.8742901322228579
229 0.1134215027693688 0.4932283656452816
230 0.3558851473777992 0.7591252849872786
231 0.5676442901386084 0.14387939533241678
232 0.5051246716335317 0.5053470026499873
233 0.2676959663090036 0.5869655946852027
234 0.11499412555216415 0.6523339990145293
235 0.798005231831039 0.7244548168766237
236 0.14525067453243468 0.6261290261045392
237 0.25517810475108116 0.29682608363661867
238 0.9231517592649177 0.040003210148035206
239 0.30477183046169243 0.6654339231852333
240 0.320233765721596 0.6594240893032675
241 0.4181801641075329 0.46749787959461964
242 0.32061689796969406 0.02663109678403197
243 0.03163787849368915 0.917636465095139
244 0.17184468413762222 0.7447060447719518
245 0.7825731503346487 0.5456619584531079
246 0.8347402781261715 0.09054246095923069
247 0.20278230580310563 0.62271542624051
248 0.988371438905026 0.4616844731694816
249 0.43378899723754605 0.18250554383697926
250 0.6449865480787063 0.36980289212066375
251 0.5237490222955656 0.25769600923185276
252 0.6734266848762809 0.7146490431648891
253 0.45833285904509746 0.9622254958469658
254 0.39375603605879517 0.12006513788441053
255 0.6088513942865612 0.8122011500895242
256 0.6904769982004798 0.7821090023353491
257 0.824598134901484 0.8471814273422495
258 0.982799508235489 0.5228338419934033
259 0.5300840808060349 0.39293898552251405
260 0.7600946694154541 0.6668237228448652
261 0.8548427438926322 0.3470990472232047
262 0.8375748509231487 0.44068357359905685
263 0.08086989621381124 0.8186570517032425
264 0.9853204068683051 0.42612530262161874
265 0.45247802471422505 0.4443119019980536
266 0.9506926382244327 0.2590349059193964
267 0.8699121182149383 0.11802658792646037
268 0.44647781294913824 0.6383940770288414
269 0.6903115864464476 0.7490456746398885
270 0.2773145726556574 0.1979043909889311
271 0.724344567249234 0.406333520071564
272 0.4627388029485421 0.2856847925528405
273 0.7254747939472341 0.32011162906184076
274 0.00941812946489018 0.07222600396882795
275 0.07500196886710753 0.12857152001313543
276 0.28551379033352775 0.13103638689883257
277 0.49200878350000965 0.3563816296776017
278 0.19876797665572932 0.11103749638500315
279 0.7167830064797787 0.07496502553454432
280 0.18324481769311418 0.8097768734677486
281 0.10822920238669964 0.489647610400889
282 0.7856484447674781 0.31792781475573595
283 0.8531531448996346 0.3452439824512019
284 0.2548100909677985 0.6637338694519629
285 0.6092458885451945 0.5704474102384594
286 0.3048000781054714 0.568258439454296
287 0.606984564842635 0.8837610521690515
288 0.8328798671327783 0.8150984824461439
289 0.49515662520823256 0.35027123112607017
290 0.34696119881775334 0.33804958497587023
291 0.6758715398791448 0.011203028592294606
292 0.7300163422081578 0.46248416593991204
293 0.5047582961376933 0.2202272741127771
294 0.679098999386272 0.9673028123059701
295 0.4738567023728698 0.22886086016082774
296 0.3029606644509907 0.5110333642657303
297 0.30565923589914634 0.2879311716298786
298 0.014158182391137752 0.7994051353667418
299 0.9998880902929115 0.9596426583196014
300 0.7219532313801449 0.3497213921704936
301 0.5727775125309513 0.6346998846429585
302 0.9761497084713215 0.47146130487582205
303 0.271917817032749 0.6704045863844214
304 0.35370389335249686 0.8956381749015441
305 0.6218484398070965 0.056933665311784676
306 0.18567917781290277 0.5394150823558522
307 0.1669497648589534 0.004501639650827505
308 0.2980267169102703 0.006620577217245627
309 0.6982877818327153 0.004027662079076899
310 0.5947008360754931 0.11752316550823283
311 0.377995849439857 0.9857479654780429
312 0.06493262382773246 0.21515710154650114
313 0.7926401152591209 0.29998610794569947
314 0.4413464579543406 0.6117927687315802
315 0.3904305467422594 0.12700651453214207
316 0.6159407752771648 0.6713478739833262
317 0.8809364393005081 0.5800779072036958
318 0.7881431816802676 0.5626604375152784
319 0.8458672674775962 0.7169190237807685
320 0.20341476653104262 0.868517556455552
321 0.5759770131680331 0.4964589068953612
322 0.09934556329683641 0.7649063859252356
323 0.6732539665585029 0.48523009023720476
324 0.8528564010482026 0.8345601345391968
325 0.8649551290664449 0.5806880278925974
326 0.6087447029971911 0.8579941508097627
327 0.014123180686585024 0.2547065731973912
328 0.4660518505848754 0.28261870491643903
329 0.718211154880539 0.8719807160484546
330 0.5641606860574557 0.23250302129227063
331 0.06709586993464955 0.848720020031775
332 0.8693015904181569 0.5817011667743439
333 0.7845655140808006 0.952911760231176
334 0.6199414679536953 0.13806255052855654
335 0.6375470458810603 0.2801054126261344
336 0.10322432255394853 0.5795883001573264
337 0.30307801328422135 0.3809147946338194
338 0.5026477035427173 0.8102164524957366
339 0.9895042854330102 0.8423095401069585
340 0.4599962338742525 0.6646869632647406
341 0.8896553710302552 0.27417807456107535
342 0.543755368839292 0.1098612726811592
343 0.9230427768464758 0.4493595704891058
344 0.13078403495057522 0.26175449942155493
345 0.3235497902369837 0.28696898133365767
346 0.23745579702542796 0.09544939398191865
347 0.8142286235866191 0.9192093599541322
348 0.7274112577584354 0.51317865966423
349 0.4897807405017569 0.8824780667027917
350 0.8648029605648173 0.8708807189593556
351 0.16734150510257018 0.6685784915432385
352 0.41080060769781634 0.5957254084237138
353 0.6383071065803376 0.819535211701564
354 0.36752073003250507 0.765936505095832
355 0.6632997815200872 0.15779599148399737
356 0.7951934533219371 0.5868055807290434
357 0.276320488082903 0.35857787851900547
358 0.9706836385162166 0.5826875073036998
359 0.6257745223864876 0.5687023181448168
360 0.8936690067590329 0.4921216307448526
361 0.7108418863120413 0.6018805809875218
362 0.07411101874251036 0.24638851629677405
363 0.992361514822215 0.0451940566963166
364 0.6786677294682393 0.2171884970384097
365 0.6909431360671315 0.7410657907709484
366 0.9523645103090091 0.4579396281148872
367 0.7116422969233542 0.9660044427888862
368 0.9869269235611321 0.19088063437242786
369 0.7057477176228091 0.20905515956344556
370 0.4203094532649344 0.25033108363209644
371 0.3987877660755387 0.3782148006766871
372 0.6443474575185899 0.7246556919861334
373 0.8205399249315866 0.1576302427696722
374 0.49450505729462335 0.6976806600158953
375 0.8027203617209184 0.0037720695132303916
376 0.2892359583767703 0.08846485339746124
377 0.6231084961081865 0.8571828039627597
378 0.3874365725746487 0.7704313017508742
379 0.4289882126619815 0.7576123637098047
380 0.9767892701427848 0.5695055152148573
381 0.8788237492512188 0.017285765595459246
382 0.19413104754320754 0.32418371285259295
383 0.8281648423960941 0.637106852892692
384 0.5390334793949788 0.1225288163439292
385 0.029103401926876882 0.07748486120475329
386 0.5108967703938664 0.9348512972326122
387 0.15254350131742855 0.003013240917036475
388 0.5228757990830764 0.5351007313393087
389 0.5212690693413765 0.7255888199830463
390 0.41168193341162396 0.16736262429937543
391 0.15965865147229663 0.012362333511263923
392 0.3415889104061913 0.7322282579009617
393 0.8148835274226308 0.3844325832912352
394 0.16987190621437276 0.01753177995645394
395 0.3576709486207288 0.0701446565935171
396 0.9151891739540232 0.4603670583491818
397 0.5569988002858797 0.6708250670013247
398 0.9737166184260302 0.9288600090779107
399 0.9148382163461973 0.8054096226996219
400 0.7600703808933217 0.13344275962729812
401 0.9739734825127854 0.6110774740019153
402 0.9891992318440591 0.5377114608173489
403 0.9768934703233243 0.6353122948580868
404 0.05786606337805533 0.4785451013044324
405 0.9502841516647216 0.25364916709250196
406 0.896528803751356 0.09018561206704434
407 0.2502139744414307 0.9467231746792758
408 0.9176209180195009 0.6832619030302455
409 0.17504180804371605 0.1263622576646839
410 0.835097220134402 0.41076146309849015
411 0.7159660474063655 0.9013857054118607
412 0.3254116275487523 0.4038357276159992
413 0.7786750383160608 0.7818985739506544
414 0.5345924248002542 0.7692165106725841
415 0.3166080418680477 0.6730153645280517
416 0.8856880987758119 0.24806548808486772
417 0.9357268822170882 0.024063950907606046
418 0.12291145484236998 0.376782125317183
419 0.18640656709615422 0.7303503139864348
420 0.9592217281408374 0.40619340118704483
421 0.6210462099301163 0.9455851314047442
422 0.04594807774664278 0.09014871303749883
423 0.8262184641412709 0.2117610827418288
424 0.11330654381519412 0.08260929050760346
425 0.6031963422069903 0.8796469187829001
426 0.05878635019851741 0.5498116402697578
427 0.45635362062004337 0.20255024371433694
428 0.4855122698374965 0.8383898862107438
429 0.15709220553527015 0.5228494137491961
430 0.3396763431469333 0.7397470002560067
431 0.6935515029029462 0.8533030410465716
432 0.2280469786056606 0.2913360563407721
433 0.22786435253844228 0.7720060491194436
434 0.24047210423901788 0.02870093870637269
435 0.18766875167659058 0.6581767665629055
436 0.5810775280596955 0.6485843248634685
437 0.9517817937594788 0.2484340440673195
438 0.9710176395829209 0.009007362816898956
439 0.3858127240633117 0.09316587659534192
440 0.42864608394333337 0.5871721773001953
441 0.23473291426281118 0.7346908068702428
442 0.2428668924232178 0.04740701323341401
443 0.637503376004714 0.8526200512707338
444 0.7950045230466997 0.3298960212815423
445 0.4133107071029043 0.19318025337659517
446 0.3491034656117391 0.16504025185239724
447 0.4307354871237046 0.7438875677698903
448 0.037365707990265284 0.8142850263799674
449 0.915904540772602 0.6380597736119628
450 0.9557152601128508 0.781457481339814
451 0.03735255521803105 0.9673869778353557
452 0.33074581972221895 0.01059709703107825
453 0.9522352027933075 0.8046243033112281
454 0.7239581173540734 0.716513088716722
455 0.728388009448037 0.4152353423189943
456 0.7586148684594827 0.8228756539707752
457 0.5546388828135188 0.5097998540192138
458 0.6648499894217518 0.8594028387113798
459 0.5854352078997352 0.3646046091996016
460 0.7031192801287944 0.05941272661301644
461 0.13013388295877293 0.959778594473375
462 0.08045329830875403 0.11292810508749607
463 0.4291434786241236 0.7456759209212755
464 0.7382783651433286 0.4146500265167219
465 0.5341692564185496 0.5255441303778876
466 0.1374187735836 0.6207967657603554
467 0.20669991746802086 0.6610315514727387
468 0.9736572788022055 0.8091117047516039
469 0.7634994737961366 0.9937950980792849
470 0.5426176736533856 0.8324872057895594
471 0.3386463663188032 0.13541583162520687
472 0.8461199319846734 0.5443440794261015
473 0.41401897111431085 0.06971839866301599
474 0.390783730844363 0.7353773268860766
475 0.57232361690178 0.40533495134240727
476 0.21410314476547265 0.0645238687796762
477 0.8460925798822043 0.43741098280336244
478 0.10780175066041586 0.41099432353328713
479 0.7272762531438206 0.1461777222121362
480 0.6600566420760176 0.3426033181256156
481 0.741290307156698 0.22229178395472038
482 0.8144633850404814 0.910158959348878
483 0.5526937176013459 0.6906486466978079
484 0.4926740406055419 0.905738718410047
485 0.7072439517451515 0.3606322194934912
486 0.16961076139153541 0.36492781332385205
487 0.30446933173921376 0.6156945920323559
488 0.380844851555876 0.2804880139677626
489 0.7877542155531815 0.8165487959708609
490 0.1311492173957589 0.8820054231990971
491 0.7965334933471419 0.6517062839987842
492 0.188177188141474 0.3013472338847277
493 0.4442224574930851 0.5741919016056677
494 0.3170744424450175 0.04200602493428296
495 0.39191795533152185 0.7717687631033495
496 0.8763557620440271 0.804525379140823
497 0.22276688643884424 0.6088208833491857
498 0.6795746636384101 0.8546083693776304
499 0.9485367242825821 0.9174736145879224
500 0.36867751670311977 0.9195799504272005
501 0.7710688792656603 0.3961532271633367
502 0.0718640558169068 0.9416883111318975
503 0.1028008472504256 0.7861022440161637
504 0.8600106991805184 0.9040823261583988
505 0.1837571956368621 0.9777562523069819
506 0.4231808681542746 0.8376555171014036
507 0.02884840901325214 0.07516666767304925
508 0.5155435449946705 0.9666975453094191
509 0.0005810959015384309 0.4377171636499507
510 0.8455399405218591 0.26896612545425613
511 0.9574353304481534 0.674924496648388
512 0.836247168083153 0.7506345202540504
513 0.35831059371150786 0.27826431897530124
514 0.20547889030417943 0.6703351250760843
515 0.0034918157366169433 0.4639132516264567
516 0.3729228294074288 0.05361946794805006
517 0.840821914092095 0.5818621125686055
518 0.9420827788473687 0.9254957901232559
519 0.17010328219740078 0.17811934093556192
520 0.33640577760419543 0.31787360260899267
521 0.6530755509612992 0.4451208225751311
522 0.4529187042292938 0.060655251467436
523 0.49984735770893063 0.5977585809677218
524 0.9059276472986936 0.736915644023308
525 0.7632170775278834 0.668269176833841
526 0.16020675304238052 0.0007105653900684183
527 0.33226629031663246 0.39661815441961157
528 0.03665755049043762 0.9838335742863745
529 0.9991568378833662 0.83805037720508
530 0.10180854207691359 0.38440477055428124
531 0.23562956306292415 0.42159246760969027
532 0.14972861724125008 0.7422739616185302
533 0.003568332165620025 0.10501428765588483
534 0.7552564686865728 0.9075988668588242
535 0.25251945221603045 0.08893091260874397
536 0.4914772370667202 0.679166843076133
537 0.23663974582470415 0.2553752770111015
538 0.9694475866176232 0.5245607630726553
539 0.316559175825322 0.7373614040727215
540 0.21961233020406135 0.9958676856464442
541 0.28070892456779006 0.8803121135124845
542 0.3287169856090899 0.6082125893387119
543 0.5019385930316824 0.6680823888588703
544 0.5887320304709026 0.011573624323970355
545 0.3329421337815558 0.9708372270686919
546 0.1452910855383157 0.8132553140318152
547 0.27161025264127114 0.48476281236754803
548 0.9293115246897136 0.5354991139388765
549 0.39097415372856326 0.30819525302141115
550 0.4307151836658051 0.2260270054711928
551 0.9156720496499698 0.5377321075319709
552 0.9720914054542823 0.4385825979188934
553 0.6550322848883254 0.5150274962826635
554 0.6887975113467796 0.8017855014223326
555 0.7391160032626505 0.00940458322442983
556 0.19444537571817244 0.03169781595435073
557 0.9117508649800643 0.5407000408500195
558 0.1880643443006046 0.021622015955345963
559 0.5402338624942641 0.08371784592993403
560 0.2161656034218603 0.5837640825626852
561 0.0749010943527606 0.7008264690628693
562 0.5519112114931568 0.8729845691151527
563 0.3042201420937959 0.17608421153848364
564 0.5725313990990137 0.7136306238701352
565 0.18770692379051857 0.33125266769326
566 0.8627419384448735 0.45433684302290533
567 0.16744884572779406 0.9525013377678079
568 0.049396286690347346 0.26438536837964155
569 0.11680027228051715 0.5577963497014317
570 0.5142702874268419 0.6800169802902324
571 0.45922417157839324 0.5396608785432859
572 0.6867268007096935 0.36709320280222657
573 0.030557565862597724 0.8513826425182854
574 0.4091073882759747 0.649785646985153
575 0.4974813478332758 0.6803834830958128
576 0.16634585534488477 0.9889876929204657
577 0.013525231866272636 0.26774307980164
578 0.1427738438355276 0.8847073983502569
579 0.06667386401678332 0.6914340717629285
580 0.4791908744201554 0.19592527654293412
581 0.6622841713341683 0.15122228813052452
582 0.4380876424542356 0.8801283307902031
583 0.008405169559771886 0.834346603112286
584 0.8395400753412469 0.7753034728408331
585 0.5843719321473242 0.36697311159610835
586 0.7370455489769173 0.3726687012510943
587 0.46026338949004786 0.30001212026548507
588 0.32625386313245697 0.48627721742904506
589 0.25314165098850727 0.4675105530443734
590 0.14213120120442624 0.6538000376548369
591 0.3760705248450774 0.08797311560514331
592 0.8069922641174873 0.1600500676165093
593 0.4094030722025762 0.762363916959706
594 0.8833271253784087 0.39326948641250825
595 0.4059972106650017 0.4357101937937733
596 0.8248666653441975 0.045242381490043226
597 0.20878392841843418 0.30253522198151706
598 0.6713065075371554 0.6794709405699303
599 0.9798792137723352 0.8491900955649889
600 0.4885931101767035 0.1455849940361409
601 0.054311353659468264 0.19588943703800132
602 0.2620383462388576 0.9224467733818312
603 0.40329446151902393 0.2976069926385587
604 0.5262910856035111 0.4466870506612518
605 0.9074634256915471 0.7308787027667786
606 0.7099513555614725 0.9115327403631841
607 0.5448448420851113 0.3906062011011465
608 0.6826560826252049 0.5611522976159674
609 0.871287346110806 0.327320321846723
610 0.16481297528717764 0.5347297232663252
611 0.32971189910112797 0.898931331812969
612 0.6973694378576979 0.68732981763257
613 0.41094817796611016 0.4628685534554281
614 0.7921804709157093 0.9176889252082887
615 0.32512485703962235 0.8160315746457574
616 0.12387363101492921 0.44637313060554984
617 0.031462905215919545 0.9874391382139568
618 0.856555067025767 0.9639029033711466
619 0.6582127299136382 0.28074365183233474
620 0.27372281161762135 0.5240204927045818
621 0.587201135728379 0.5309208751496243
622 0.13723801009184988 0.4432429624045453
623 0.09185781173517416 0.5105134467486456
624 0.492740792449223 0.8411807787528307
625 0.005177997890576491 0.7057969397104314
626 0.2436518137878677 0.5716573088756626
627 0.8539717430185119 0.9841588649978583
628 0.022854397581554498 0.18117246188136726
629 0.4790072812109959 0.49524193480758616
630 0.19591794432019982 0.9515545764369854
631 0.2478489088062924 0.5729874148555721
632 0.6926217997031379 0.17153340646288684
633 0.16863627017631178 0.42992436210397833
634 0.7830527687955012 0.23721821468749005
635 0.23364196205053167 0.02583994273786372
636 0.21239671359983248 0.40695798149904383
637 0.9970593871361068 0.8086340844889048
638 0.6126463260546698 0.2756328595320817
639 0.7929088022426926 0.9501940988499313
640 0.030440231905580983 0.12520880445768146
641 0.872536314393264 0.08135690829278641
642 0.3496714740015776 0.619971250843092
643 0.9429387170658536 0.3974989766575532
644 0.4698504299406069 0.2572826213056636
645 0.9088831321985581 0.030297415440109554
646 0.10422611523544245 0.7350855735621801
647 0.2227293777904793 0.9780043873625184
648 0.4221344490247113 0.9009916429122573
649 0.0784688159699719 0.6552728600520459
650 0.327185576299155 0.023900366369623005
651 0.4610333789533996 0.8771537012729094
652 0.3285064258337559 0.3767676032831988
653 0.2829726324115285 0.7992736395963941
654 0.8029814281007066 0.1326613771724675
655 0.6471747742845182 0.8472086904983249
656 0.22986277921503728 0.9163383707624101
657 0.05206955650170009 0.6268015244490825
658 0.12650991632971142 0.7815109360554955
659 0.57510612641685 0.7755574539830351
660 0.3782052700320716 0.9808759144783941
661 0.7399501487742415 0.7568748715948649
662 0.6976573834708008 0.558917985513359
663 0.7068899494489074 0.7451730578686626
664 0.8818630044238805 0.24975556641393315
665 0.8217476869179919 0.7969205960761523
666 0.5775743180069789 0.07504690013134563
667 0.612166475924091 0.9750875017145452
668 0.9665796826865941 0.679369926529065
669 0.29075294040575417 0.247374913883033
670 0.3449245522003368 0.8133449784529919
671 0.28752094730120037 0.13454778419420632
672 0.2787717461971808 0.1368638979257195
673 0.7823752690875704 0.24369940684836378
674 0.7812855641821483 0.05992056861336703
675 0.10701674031754382 0.8398705130680294
676 0.12840266270972356 0.8085648148003974
677 0.24227118138187698 0.009197981779446085
678 0.1922086326355299 0.849532747905682
679 0.3977931602587367 0.23394074505342188
680 0.8521873996777013 0.08589328924448292
681 0.4142480193917588 0.35073328167216866
682 0.6016149654465781 0.12280005041211939
683 0.5495244957330674 0.876646636294111
684 0.33081194258237934 0.544205550812924
685 0.21482201684444113 0.716036757703588
686 0.005542691146550149 0.28129138418629895
687 0.16985896863362326 0.5213258495453503
688 0.6155154127714317 0.5072301814450572
689 0.29532271251836006 0.7346414552113044
690 0.8165487412080061 0.7018124938973136
691 0.20957484503473223 0.980565333657994
692 0.7026168709309866 0.9304776985616892
693 0.5720308962954394 0.2238764879016747
694 0.539762711028555 0.8375311346864819
695 0.9879347357804088 0.5584062597277616
696 0.6530391681622459 0.8295716057982242
697 0.4543282830727897 0.05210504589061493
698 0.37145146530194606 0.9135993771211988
699 0.9696455537145598 0.6088138820918921
700 0.5568632570862757 0.360588085036855
701 0.4361917118518496 0.13585576858056447
702 0.9152553852939199 0.35743654167065886
703 0.5939923566497548 0.8188548998678205
704 0.7228640007500066 0.35057602520338227
705 0.7619213698554423 0.815736282603653
706 0.07710188308692467 0.6645846394471406
707 0.8313557477365796 0.8608638096072301
708 0.25362039109485823 0.35464521936289994
709 0.2363314116320021 0.49172703906996207
710 0.672811011883572 0.6246875930195166
711 0.7433733390828613 0.0081164563142756
712 0.8353724803462458 0.9797751366665222
713 0.6325161211091315 0.7632209106106154
714 0.6913124472274673 0.5249646499390315
715 0.01343966429995358 0.342740439716235
716 0.7529224533783188 0.28479299143676684
717 0.9240024853201748 0.020217602635049126
718 0.8969647327540493 0.7288653532264667
719 0.4533561153025518 0.20134841041154872
720 0.9334167451262674 0.08034958568741302
721 0.9549748062589255 0.1896310077388612
722 0.68009695115502 0.7063815748365567
723 0.7440363742544516 0.4534808001712617
724 0.3134138749865395 0.9823276583771825
725 0.7890820513425835 0.6805273951686739
726 0.981307383070337 0.9677386348054927
727 0.004198907867676405 0.556575869972845
728 0.8846803702001681 0.8457124224438723
729 0.6768746399187001 0.44490973030590997
730 0.5590091667243454 0.9571476064925486
731 0.5159636726058351 0.970890465161279
732 0.8672715790783291 0.8583993068988317
733 0.09642440662790985 0.8038507794856525
734 0.9129515227784112 0.9909930265868586
735 0.17190971927842025 0.41665205324182764
736 0.20435540396127871 0.8545139112801592
737 0.6303989054254258 0.23811522624865844
738 0.8499470369519925 0.3257185195094042
739 0.37230324921390445 0.47250034582512734
740 0.8348171922345631 0.4128403333400402
741 0.8666585716912399 0.9181421714120384
742 0.34099599470910535 0.3033720729146515
743 0.22225203755342637 0.6712751943053579
744 0.6542766335212571 0.6568100457735284
745 0.5234835464037397 0.10674172347712252
746 0.7990400987711099 0.29191884834373316
747 0.40244184511840164 0.4159033066845741
748 0.2592271346192414 0.29876108320602024
749 0.2658987644249384 0.8245305540509749
750 0.7885719704694187 0.9494373192116625
751 0.525711053305218 0.5437798929838328
752 0.7071160432511685 0.27087760981025566
753 0.6269914511087742 0.8223230208100872
754 0.709888703599779 0.07130030229257167
755 0.923782062501911 0.4083845127106913
756 0.6937473842760253 0.8343607588555051
757 0.7972606544818018 0.32075700743658286
758 0.5505841664436766 0.2946666193256382
759 0.7233216476523633 0.1744269337642046
760 0.6916100656607451 0.8918706188791866
761 0.1016395665346781 0.8911057401490662
762 0.7370601867658663 0.9856317480817887
763 0.7443879502709297 0.6873280371125169
764 0.5997868586864581 0.890181026091686
765 0.8335616649375431 0.8666096705667681
766 0.10963599530255519 0.08921009274513114
767 0.8831649810708112 0.052602621350444356
768 0.15789717172997808 0.04387859184485121
769 0.24304498594083201 0.7884930586887339
770 0.0678333900648993 0.014400777692013311
771 0.3319102203857379 0.49872756980865385
772 0.5915917923490541 0.3733897977109065
773 0.9533409463022073 0.2660004024581649
774 0.6342262426871254 0.06233554383905793
775 0.4639586886130296 0.002276838204241294
776 0.7600673783638232 0.7283562111919555
777 0.29818772936550697 0.7230374848131442
778 0.5398820215766945 0.6489247682826067
779 0.11297678754126783 0.8260301653782217
780 0.16948294425311272 0.14020271235692183
781 0.1008304210051616 0.4449620130277837
782 0.22337097510127546 0.05629455709755948
783 0.2167673679033303 0.3139301387649033
784 0.018613337939738295 0.49489272560792474
785 0.9729476479543913 0.5745008721754665
786 0.5274652845172664 0.07508148715542262
787 0.4007387121224337 0.42705731800678515
788 0.08056457781428028 0.24482315759193574
789 0.7378324597109638 0.1509457314775915
790 0.46699981720790107 0.36733473529333427
791 0.8709443947048657 0.02397000951583894
792 0.5836165679851144 0.5484630833204854
793 0.1674455733127661 0.040544526129264846
794 0.770147819093955 0.861039655302013
795 0.4703246891738736 0.9247079724792506
796 0.769362262036266 0.6551409226801386
797 0.7705157692072744 0.43063507100754983
798 0.9140576918509691 0.41363987007381897
799 0.6915321013652639 0.07296999910531277
800 0.8311696994253636 0.720979070243226
801 0.8411163928976064 0.3406206517477237
802 0.6033229418831142 0.7623748798005977
803 0.22644355672606886 0.46627661876754656
804 0.9704016257402589 0.2379373288815242
805 0.9701161248447875 0.32827548919071126
806 0.7697303130641459 0.824363064426044
807 0.43479115508524746 0.6840457581920623
808 0.39062789433314793 0.8110017962589542
809 0.8848138510647403 0.33241882027016223
810 0.8570755280303857 0.7321713866269484
811 0.36080576962842836 0.47748141741883066
812 0.5344384877390349 0.6239441739585564
813 0.9866833013161814 0.9995227335394786
814 0.463650742978437 0.5811178508419766
815 0.38357810517662094 0.17856888169286045
816 0.8374467747067316 0.40424750327774517
817 0.8211364630425645 0.4289482848103151
818 0.0765000475560984 0.03508285053750926
819 0.16130270316130335 0.595634679404748
820 0.601068740156514 0.423519743880147
821 0.5952879310933273 0.4370347987096467
822 0.42185573315144254 0.6601640254854898
823 0.7167375298773991 0.1570369960895791
824 0.9349053334940826 0.1699500061109518
825 0.2804936030244479 0.31634305339999813
826 0.6390622030074568 0.6252225355361954
827 0.39065809618821123 0.9421037857470262
828 0.7973666107266988 0.648955935467255
829 0.62034657228334 0.9389100464838156
830 0.9393694115709021 0.37587296057092767
831 0.9173697775240027 0.9637506444885373
832 0.5895586685820717 0.7285091567973038
833 0.47279903664187795 0.20980361696299732
834 0.8937819974637153 0.6476916888825014
835 0.11739344393431794 0.4385413805097189
836 0.9247977798687965 0.39331378855641597
837 0.6219736370312763 0.42819348007195024
838 0.43722980366138997 0.17388669522285627
839 0.7764653667350373 0.005042566665356962
840 0.6833606682009628 0.6669921284759529
841 0.6878814162824501 0.32134798206764015
842 0.6651139903824267 0.7247940898605794
843 0.23446279477478726 0.08039735458100783
844 0.31542002174202965 0.9253653310451729
845 0.5673484821085322 0.836398961097115
846 0.19448942594772645 0.3810454828900707
847 0.5112019693419191 0.42308478788605053
848 0.6627528382691369 0.11215230375622709
849 0.10605655466880592 0.05924031194346968
850 0.1816074992503196 0.5109303553620973
851 0.23832167987314978 0.5346997396664942
852 0.15626380023467135 0.5011201983195522
853 0.7459281210752194 0.9865889240581884
854 0.2570153812223298 0.15696103106696835
855 0.25765933519150874 0.132025276992925
856 0.4111975310352399 0.9426922806564653
857 0.1981904625710853 0.6590701346448676
858 0.6247455446516336 0.3526226154214511
859 0.13606231424063175 0.5717487324553931
860 0.6576453277848994 0.6798643744600947
861 0.15556275938419795 0.3305004909374454
862 0.01513462573454405 0.38810168219679153
863 0.9012321613212049 0.6095338159128062
864 0.42725284568968 0.8643752396023926
865 0.9855462641459649 0.7605509455983194
866 0.022378155415833212 0.004089062550228895
867 0.2410223222010659 0.9485544475281644
868 0.5727207931937416 0.7072580366078884
869 0.0029250192334161484 0.7489344856460117
870 0.3745382047454219 0.7435239194550243
871 0.5946811495219463 0.30254648153848007
872 0.31901314402204384 0.5100264460365678
873 0.9591098431432645 0.6046611829510414
874 0.9564561689958818 0.31483059081858333
875 0.5776182125954856 0.3413666456500406
876 0.37818570312336186 0.7648673432610027
877 0.28448526377670014 0.38909978931125644
878 0.31437621462419185 0.4722196559138583
879 0.9105727550524202 0.6047998897272192
880 0.6047437116581944 0.8193906920217647
881 0.23875473425591232 0.8538800843658171
882 0.19375766003503525 0.634227170707863
883 0.7700952121073107 0.5780191041647732
884 0.7728143855083257 0.8282233628107712
885 0.5791981459256033 0.9407480747213686
886 0.6587174726187406 0.5767953287120109
887 0.7604837020076799 0.32395179253362527
888 0.5219954249551494 0.05222514912258014
889 0.9766054034697914 0.010785140791276793
890 0.7556418166447503 0.9910844447795307
891 0.7339277400021863 0.14564916511614823
892 0.265815167626576 0.490315617930562
893 0.7004186879764699 0.11666315349226763
894 0.8410576622464027 0.6190704428836109
895 0.7049559517716796 0.7713769704794192
896 0.09267692879650358 0.06572332344646759
897 0.481907499775886 0.07629914348572808
898 0.6520757960567826 0.008465844673818723
899 0.6948690407558445 0.49086790537730085
900 0.18328311487424143 0.7022390017912389
901 0.613179235841687 0.10225195929157926
902 0.7324448680292313 0.4867923262802981
903 0.9361950442849748 0.24211878340575266
904 0.009990797557475006 0.6891122283582716
905 0.0718771929334091 0.6133137527438165
906 0.4197047980370975 0.6806972883041666
907 0.9788112863566815 0.6047193326164715
908 0.8836427446930684 0.1665554118462652
909 0.4423747047371557 0.10244324678181105
910 0.7215169287554487 0.49590010533953743
911 0.6206997589760738 0.09084539292091631
912 0.4558316833791983 0.2126432216365498
913 0.7196687910655524 0.7554209932882435
914 0.6887397711320855 0.45922896268310753
915 0.6477020510947425 0.31034973469249727
916 0.35364601027832665 0.9369729927688344
917 0.9368123521366651 0.7122361120181634
918 0.6330152198480882 0.8410034965186416
919 0.9331351714084866 0.904415914395316
920 0.14922144119473146 0.4366125738149019
921 0.053206879474041346 0.7363418705915945
922 0.6979273820163666 0.301345339806557
923 0.9777604512557008 0.3105840610181817
924 0.5346354695146982 0.5689379167905388
925 0.21732667826875884 0.335358138427277
926 0.2720022713971417 0.244950142100808
927 0.6614364306227307 0.20966724401175352
928 0.8412663546452687 0.6399607794881735
929 0.23248432591148838 0.9319510065971423
930 0.9679503823485881 0.23614420800624125
931 0.7923908693432485 0.08150834035701893
932 0.79925248626491 0.9656887123943101
933 0.9270493374892468 0.14383155059902386
934 0.07518245175446125 0.7109827990880927
935 0.3573628628170268 0.858180411489477
936 0.03426948858769263 0.7136994473655975
937 0.38594375813203197 0.9914305053965907
938 0.6327455215405572 0.6750652725175589
939 0.9464440127574277 0.9827107239443942
940 0.9659622889169496 0.61510411575704
941 0.5683930856873582 0.8606591023173443
942 0.994251871173175 0.389903635397682
943 0.4050895289764007 0.28814261310552935
944 0.5300208972275421 0.47858903363869987
945 0.4395873526989844 0.11871326903022938
946 0.011702235345802059 0.9652243039397626
947 0.6938506514253883 0.07597882022505131
948 0.6968866176850262 0.31226548365546103
949 0.16799298360212844 0.5812793710583595
950 0.3513632483187408 0.031026911252799882
951 0.5448839319880666 0.6781789956640669
952 0.0683314614673235 0.2485043508932122
953 0.09332152474992184 0.3712989895412522
954 0.5781300316919098 0.6254499685956384
955 0.9039711696170241 0.5242465786436945
956 0.3185227957970156 0.589949957173663
957 0.531128400730759 0.39153707967084705
958 0.5906917847310408 0.43347547203231795
959 0.15101050145905526 0.17008781273673723
960 0.24426147489336758 0.9350899599644611
961 0.9657749494744217 0.8022500046765088
962 0.45842653871884465 0.4047924743672874
963 0.09171958645363443 0.20936752363316335
964 0.8540539421051899 0.3727348598174961
965 0.7950893193824604 0.11285497052946691
966 0.7377049958999541 0.6405425418269919
967 0.4407204686412257 0.8236518478157152
968 0.701512306361109 0.9046032551051056
969 0.7780886991591046 0.2878888854364611
970 0.8858257191115786 0.9942229570502978
971 0.1002839451406683 0.32843640545333497
972 0.6690934388673083 0.8470298800793776
973 0.8809129912447223 0.0004177600112639235
974 0.8568569223417964 0.8359911071945212
975 0.7841681610967342 0.5765161741534703
976 0.9536103566248216 0.9018425433273467
977 0.3352253047002979 0.5791799051344243
978 0.286555994754764 0.6974995739519616
979 0.35776968442931734 0.990877665571333
980 0.28551222703337353 0.059728451695179485
981 0.8476272033106748 0.42419950684902186
982 0.9440947065772124 0.06484734330486519
983 0.9651463133533927 0.22840877423350514
984 0.5250243780344616 0.5732378644259641
985 0.6575476349158392 0.6000882157194805
986 0.01784945674910421 0.6307335421171296
987 0.008341881867609868 0.9252721161510559
988 0.21539870366623115 0.7296661052296111
989 0.06782440698630021 0.4354079583676639
990 0.6409027005296513 0.46535630494365987
991 0.17732290029092967 0.46389586091343915
992 0.9934741763983345 0.9747718273114231
993 0.8960542250703594 0.1361560526241038
994 0.12579399685017445 0.5157402839503495
995 0.2553455184332518 0.8038531977200754
996 0.2953684857959693 0.7877397950456284
997 0.6695295484893112 0.20692892472864244
998 0.4757309554883231 0.7814006795180685
999 0.667143987718211 0.9438859417174834
1000 0.35915332648491416 0.43033836739286146
1001 0.435484958767808 0.824029300162035
DEMAND_SECTION
1 0
2 5
3 1
4 2
5 3
6 2
7 6
8 1
9 9
10 4
11 2
12 4
13 1
14 3
15 9
16 9
17 8
18 6
19 2
20 3
21 7
22 7
23 5
24 3
25 9
26 1
27 5
28 3
29 6
30 4
31 1
32 2
33 8
34 9
35 8
36 9
37 6
38 6
39 4
40 9
41 3
42 1
43 2
44 3
45 9
46 7
47 4
48 5
49 4
50 7
51 8
52 3
53 8
54 2
55 9
56 5
57 3
58 5
59 7
60 7
61 7
62 5
63 6
64 7
65 8
66 1
67 7
68 9
69 5
70 6
71 2
72 8
73 9
74 1
75 3
76 4
77 9
78 7
79 7
80 8
81 8
82 2
83 3
84 2
85 8
86 9
87 1
88 3
89 1
90 5
91 7
92 9
93 7
94 6
95 7
96 7
97 4
98 2
99 8
100 9
101 2
102 8
103 8
104 6
105 7
106 6
107 4
108 9
109 5
110 1
111 4
112 2
113 2
114 8
115 7
116 6
117 6
118 8
119 5
120 8
121 9
122 8
123 4
124 4
125 2
126 3
127 2
128 7
129 8
130 4
131 3
132 3
133 8
134 9
135 9
136 1
137 8
138 9
139 4
140 1
141 7
142 8
143 6
144 1
145 7
146 7
147 4
148 1
149 2
150 9
151 5
152 1
153 5
154 3
155 2
156 2
157 6
158 4
159 7
160 9
161 3
162 8
163 4
164 9
165 7
166 2
167 8
168 1
169 1
170 8
171 2
172 1
173 7
174 2
175 9
176 9
177 2
178 2
179 6
180 6
181 9
182 3
183 5
184 7
185 6
186 9
187 7
188 1
189 4
190 8
191 7
192 8
193 9
194 9
195 8
196 6
197 2
198 7
199 4
200 6
201 6
202 3
203 6
204 5
205 3
206 4
207 5
208 8
209 5
210 1
211 7
212 9
213 5
214 8
215 1
216 4
217 2
218 1
219 8
220 2
221 2
222 1
223 5
224 4
225 7
226 3
227 3
228 7
229 1
230 8
231 5
232 6
233 4
234 3
235 7
236 1
237 4
238 3
239 1
240 5
241 5
242 6
243 6
244 5
245 5
246 2
247 1
248 1
249 2
250 3
251 9
252 2
253 8
254 5
255 4
256 6
257 9
258 1
259 9
260 6
261 5
262 8
263 3
264 4
265 1
266 1
267 1
268 3
269 9
270 9
271 6
272 9
273 2
274 8
275 3
276 1
277 7
278 1
279 8
280 7
281 4
282 5
283 4
284 5
285 7
286 8
287 7
288 4
289 1
290 2
291 2
292 8
293 6
294 1
295 8
296 5
297 5
298 7
299 3
300 4
301 7
302 4
303 3
304 6
305 8
306 2
307 9
308 6
309 8
310 5
311 1
312 9
313 5
314 4
315 9
316 1
317 8
318 7
319 2
320 5
321 4
322 1
323 1
324 5
325 3
326 1
327 5
328 5
329 7
330 6
331 5
332 2
333 4
334 4
335 9
336 6
337 8
338 9
339 3
340 3
341 7
342 5
343 5
344 3
345 2
346 3
347 4
348 3
349 1
350 6
351 5
352 8
353 7
354 5
355 7
356 9
357 6
358 7
359 3
360 7
361 2
362 7
363 1
364 8
365 1
366 1
367 4
368 3
369 2
370 5
371 9
372 2
373 9
374 7
375 9
376 5
377 2
378 2
379 4
380 7
381 1
382 9
383 1
384 8
385 7
386 9
387 8
388 2
389 6
390 1
391 6
392 2
393 9
394 2
395 1
396 8
397 1
398 4
399 5
400 7
401 2
402 8
403 1
404 2
405 7
406 1
407 6
408 5
409 3
410 8
411 4
412 9
413 1
414 1
415 9
416 7
417 2
418 4
419 9
420 5
421 6
422 4
423 9
424 5
425 2
426 5
427 8
428 7
429 3
430 1
431 6
432 4
433 2
434 9
435 5
436 3
437 7
438 7
439 5
440 5
441 6
442 9
443 3
444 2
445 1
446 8
447 1
448 7
449 7
450 1
451 2
452 9
453 5
454 5
455 9
456 5
457 4
458 9
459 3
460 7
461 2
462 2
463 4
464 7
465 7
466 3
467 1
468 9
469 1
470 6
471 8
472 8
473 9
474 8
475 9
476 7
477 4
478 2
479 7
480 3
481 2
482 8
483 7
484 3
485 4
486 9
487 5
488 2
489 7
490 9
491 6
492 7
493 8
494 9
495 3
496 4
497 5
498 8
499 3
500 7
501 7
502 7
503 1
504 5
505 7
506 2
507 2
508 9
509 2
510 3
511 1
512 5
513 2
514 5
515 6
516 5
517 7
518 3
519 7
520 2
521 6
522 3
523 6
524 6
525 2
526 4
527 2
528 8
529 9
530 5
531 3
532 3
533 9
534 9
535 1
536 5
537 4
538 5
539 5
540 2
541 4
542 6
543 3
544 1
545 1
546 3
547 5
548 4
549 7
550 6
551 3
552 9
553 2
554 8
555 1
556 1
557 2
558 2
559 2
560 9
561 2
562 1
563 6
564 7
565 3
566 7
567 5
568 5
569 3
570 2
571 2
572 8
573 2
574 8
575 5
576 4
577 4
578 9
579 8
580 2
581 2
582 6
583 4
584 2
585 2
586 8
587 9
588 6
589 1
590 4
591 9
592 7
593 1
594 7
595 7
596 6
597 7
598 2
599 1
600 4
601 2
602 3
603 8
604 2
605 9
606 9
607 5
608 8
609 2
610 4
611 8
612 2
613 8
614 4
615 5
616 1
617 6
618 9
619 9
620 8
621 3
622 8
623 7
624 7
625 6
626 9
627 8
628 4
629 2
630 9
631 7
632 1
633 7
634 3
635 6
636 9
637 6
638 4
639 6
640 2
641 5
642 7
643 4
644 1
645 6
646 7
647 8
648 9
649 3
650 4
651 9
652 2
653 3
654 9
655 1
656 1
657 3
658 5
659 3
660 3
661 6
662 2
663 4
664 2
665 9
666 5
667 1
668 6
669 4
670 3
671 5
672 4
673 3
674 9
675 7
676 3
677 3
678 8
679 6
680 7
681 9
682 6
683 6
684 5
685 4
686 5
687 3
688 8
689 5
690 3
691 2
692 2
693 7
694 4
695 5
696 7
697 1
698 4
699 2
700 1
701 7
702 6
703 3
704 8
705 7
706 9
707 3
708 2
709 3
710 8
711 5
712 8
713 2
714 8
715 7
716 3
717 2
718 1
719 5
720 7
721 1
722 4
723 4
724 5
725 5
726 3
727 8
728 4
729 8
730 8
731 7
732 8
733 8
734 3
735 8
736 4
737 9
738 4
739 2
740 4
741 3
742 5
743 9
744 7
745 4
746 2
747 3
748 6
749 5
750 9
751 9
752 6
753 1
754 6
755 9
756 9
757 7
758 3
759 7
760 7
761 7
762 3
763 4
764 4
765 1
766 7
767 9
768 6
769 2
770 5
771 4
772 1
773 1
774 3
775 2
776 1
777 7
778 8
779 1
780 5
781 3
782 4
783 9
784 2
785 5
786 1
787 2
788 1
789 9
790 9
791 8
792 3
793 3
794 8
795 3
796 4
797 9
798 3
799 4
800 5
801 3
802 5
803 9
804 1
805 5
806 6
807 7
808 7
809 4
810 7
811 3
812 4
813 6
814 6
815 9
816 1
817 6
818 3
819 9
820 6
821 3
822 6
823 6
824 2
825 2
826 7
827 7
828 7
829 6
830 5
831 6
832 3
833 6
834 8
835 4
836 5
837 6
838 4
839 6
840 4
841 4
842 3
843 1
844 7
845 6
846 7
847 9
848 9
849 3
850 5
851 2
852 9
853 3
854 3
855 7
856 2
857 3
858 4
859 8
860 2
861 5
862 4
863 2
864 8
865 9
866 6
867 7
868 6
869 3
870 7
871 9
872 1
873 4
874 5
875 4
876 1
877 3
878 9
879 5
880 1
881 6
882 8
883 3
884 3
885 3
886 1
887 1
888 2
889 6
890 9
891 9
892 9
893 3
894 1
895 8
896 8
897 5
898 4
899 1
900 2
901 3
902 1
903 2
904 4
905 5
906 6
907 4
908 6
909 8
910 5
911 8
912 9
913 3
914 3
915 8
916 5
917 9
918 1
919 7
920 2
921 8
922 7
923 1
924 4
925 2
926 2
927 4
928 3
929 5
930 3
931 1
932 8
933 9
934 9
935 6
936 1
937 5
938 7
939 6
940 1
941 6
942 6
943 1
944 2
945 9
946 3
947 3
948 2
949 5
950 7
951 5
952 6
953 1
954 4
955 5
956 5
957 2
958 9
959 7
960 5
961 7
962 5
963 1
964 7
965 8
966 6
967 5
968 6
969 5
970 6
971 4
972 7
973 9
974 1
975 4
976 4
977 8
978 5
979 9
980 9
981 9
982 5
983 6
984 7
985 6
986 7
987 7
988 7
989 3
990 6
991 7
992 5
993 5
994 1
995 1
996 1
997 7
998 8
999 2
1000 7
1001 3
DEPOT_SECTION
1
-1
EOF
