NAME : gen1000_000
COMMENT : uniform customers, demands 1..9, generated by bench/make_tuning_set.py
TYPE : CVRP
DIMENSION : 1001
EDGE_WEIGHT_TYPE : EUC_2D
CAPACITY : 200
NODE_COORD_SECTION
1 0.5503287011506133 0.7678790935694935
2 0.611460934371225 0.27988833437768235
3 0.17646491310659018 0.09656251253492243
4 0.10954718958310228 0.20439713545893334
5 0.05090059338683817 0.044109242884334154
6 0.11700835354991523 0.6480514240835408
7 0.7830338578448618 0.09436649350220527
8 0.3462662736444607 0.22155543892402096
9 0.6148141479815968 0.24960973983083445
10 0.4452959132439316 0.4270201880057616
11 0.1507931756761809 0.0051132907310752485
12 0.9047241923569449 0.693685031308988
13 0.8973344762127651 0.4936966347130909
14 0.16846166824412678 0.17430908929151778
15 0.13711699978161596 0.632682357124107
16 0.8133763392020814 0.488948685849783
17 0.14693272922486988 0.5803706962102348
18 0.8439601629207336 0.6765883725286318
19 0.46102845099452505 0.48962601879926027
20 0.42482110766068626 0.5505619832035875
21 0.8895775127785356 0.3784267609618174
22 0.22433048098685326 0.7321518764327164
23 0.15575319522378672 0.22715146217523008
24 0.8020136524602028 0.9900001854656509
25 0.7861698104916883 0.866379209493195
26 0.4642589455393008 0.026998224841593865
27 0.6429802920342379 0.531072632092462
28 0.1607453448627426 0.4817354266152374
29 0.5778911318926736 0.3028751089953574
30 0.18996241022970384 0.6411799230869232
31 0.8650958689861953 0.6916928344273571
32 0.9073229935832181 0.4729698062097484
33 0.17636449963801926 0.6071381972803226
34 0.25583736814547686 0.15639757461735015
35 0.7314356162835038 0.3053317048439286
36 0.728866402990436 0.016239556059894245
37 0.1781633677062956 0.4645578480269422
38 0.6576190370843534 0.5660710525445154
39 0.2899235012107524 0.8896737087520928
40 0.9127396096843112 0.8326609104291087
41 0.2418447482274353 0.666366788135558
42 0.6102354188677036 0.1857573503793184
43 0.5079515870618556 0.03027803596669376
44 0.496821783416744 0.9458238136098778
45 0.2129394341211217 0.1765004850679328
46 0.4110998185147705 0.21859391720555454
47 0.293306043678465 0.49986833616319115
48 0.9447163898483789 0.1736372159860553
49 0.48671177945967214 0.8532743932865245
50 0.9763817628217942 0.23336373071897887
51 0.7990808339332096 0.7516871603805094
52 0.0991471132855305 0.7097478297273032
53 0.2327507545700358 0.1493093828173928
54 0.987008507880075 0.016285697324139425
55 0.7853590571873538 0.8129322270744835
56 0.5308571295792395 0.9948839188927675
57 0.40979391895532224 0.4777773876034278
58 0.6481505713562373 0.7861827786906742
59 0.5893667808427077 0.476156795176634
60 0.48599536008288646 0.14612442707588258
61 0.7854602132067712 0.6413394029139934
62 0.9175559568351915 0.33543703862335295
63 0.15701162079340492 0.32073817701182583
64 0.3850236245153775 0.4570744751871202
65 0.11290253268059303 0.9977198740874091
66 0.2052962844829076 0.33519859992890444
67 0.6012160483130826 0.16892080958000455
68 0.973218142963481 0.08741703284926472
69 0.7801581134772537 0.6647020444029729
70 0.21589690950678975 0.6007417827043496
71 0.9436587759453237 0.4922091956564427
72 0.40892873097176197 0.007678831548529441
73 0.012865148517977931 0.582765776247001
74 0.8217676692167082 0.19532486241138713
75 0.01637267296438627 0.7135447492654446
76 0.4266036518216546 0.6649824153185884
77 0.950791834356436 0.4518100934222975
78 0.5945614862189389 0.866944184296348
79 0.2606009959851455 0.7044872129735074
80 0.0763083906550206 0.9706279162149365
81 0.32349539010395256 0.2912634085379223
82 0.8941160993784069 0.7123209860547761
83 0.6192920921725983 0.34295142823034475
84 0.109051446060628 0.4379685885958956
85 0.1579943468788425 0.9015223214188199
86 0.9701451830163721 0.6302917701454783
87 0.2811930988474748 0.2738292248228491
88 0.24338796520087813 0.038046257151706064
89 0.1939621027259094 0.04782280421131391
90 0.13541860081581125 0.42637750242421757
91 0.737962643151063 0.7325170251126968
92 0.8547032683733339 0.2118368755315242
93 0.21910817998337373 0.7686785512245717
94 0.08604700290766343 0.09080201000650001
95 0.9092701133194084 0.850807716960372
96 0.40898733836811485 0.7357570097623971
97 0.07570695149782947 0.7346459135742531
98 0.39491476642471934 0.37094569625050533
99 0.6614497297274183 0.8255043134477417
100 0.7490895172040787 0.04178603686507343
101 0.5163120892794246 0.05086135476240672
102 0.746199423393484 0.32933265292255
103 0.6449118004667093 0.08698583178887043
104 0.45326594265949316 0.9597667938980984
105 0.5088328140962185 0.8663688875068872
106 0.9686011837317994 0.6573079694259661
107 0.43707252488226966 0.803849089602805
108 0.7054153162881868 0.45438987636410266
109 0.27812438685893326 0.1826054376577878
110 0.06320196778250387 0.5545851870965677
111 0.33792801924276705 0.39740943202177725
112 0.9588208076303077 0.3143794854465798
113 0.008175386951361885 0.005995974599602105
114 0.2267696697578062 0.828822874705872
115 0.6396644202580067 0.08843445256082283
116 0.5375795836242502 0.8956975635872988
117 0.2296935442878162 0.2999736065973686
118 0.3121984968898104 0.11269189570200677
119 0.4151692691421638 0.431105129158214
120 0.9120988598434034 0.3628263596867759
121 0.7589154737083522 0.9550071331542778
122 0.7215784408828566 0.8625839962131386
123 0.15606169919348478 0.06772376151797688
124 0.49505837053094137 0.020683649372030377
125 0.5666452045158986 0.7387593746618832
126 0.930270438864502 0.4325353775946149
127 0.6844149639549038 0.6455739263241749
128 0.8982430434244407 0.8207977465136476
129 0.45245624043722776 0.8916499422761763
130 0.9967684529093332 0.10498601998591806
131 0.993472699573429 0.8222418846419526
132 0.7499200151468913 0.6093669162221842
133 0.38639332235297297 0.18621255956843685
134 0.16104389206103298 0.5018376698071912
135 0.8734137771746812 0.8415637968142244
136 0.4815152121783691 0.8185659826596525
137 0.041660064486223614 0.7113027867552768
138 0.12009946716686903 0.42823262854922983
139 0.03060603232669068 0.5021389349504511
140 0.8010602985535037 0.7352355970251634
141 0.9542475974576927 0.8333343009332677
142 0.13827752078315247 0.8428343830085937
143 0.7597811703486106 0.17055818540127843
144 0.6512791571124271 0.9170204247527117
145 0.8423670335586371 0.6803895352836098
146 0.9235537687031531 0.2888377904986903
147 0.4714678162145338 0.9880393462053442
148 0.43471066906915956 0.47427994867533974
149 0.6883048763196606 0.45277144888649645
150 0.5284881976152416 0.6829308053030572
151 0.4866776932523399 0.6962511848983624
152 0.1914366036909636 0.8618186068164293
153 0.5033778779401684 0.34298004525034054
154 0.5173017740785618 0.32749703283301235
155 0.9872680803417717 0.8153389434297312
156 0.7749864607898007 0.23337508384849803
157 0.5405372366454989 0.09051126792620767
158 0.7149773921026028 0.07609241062571581
159 0.29039326583034564 0.9890894343331694
160 0.10280163767733153 0.4114802055277008
161 0.0666348314252796 0.6195548475909494
162 0.10408580558355374 0.3861087387001081
163 0.44084493247890266 0.6902123424924994
164 0.32125012332885483 0.45433378917643796
165 0.99618904917766 0.10866020811602883
166 0.5397802028136427 0.03249361997371858
167 0.9929320234313689 0.6388368882632581
168 0.569190915473616 0.29280785319466107
169 0.5781067230081292 0.20763543509617477
170 0.9798680633503705 0.708851886462402
171 0.4822763885856455 0.8489373299866079
172 0.66622894707066 0.4898563679484863
173 0.8204546788097111 0.9030633693314609
174 0.19848694624006114 0.9452672907179887
175 0.2999589401592683 0.27656169746241877
176 0.6178041868744555 0.3613710982790713
177 0.7344805485375391 0.08584347163782025
178 0.9678560709803746 0.3216282421032126
179 0.16818353167760813 0.2662708167407686
180 0.46058891140998504 0.06211535604461227
181 0.45019096388846047 0.4597976283575026
182 0.10013589203341955 0.6272842572952783
183 0.8020219371078566 0.4995686591546378
184 0.2477617460693281 0.5110322355860628
185 0.14139480920264091 0.30397143365696366
186 0.6495486673332999 0.2882832131050219
187 0.7689450041043785 0.5229510231720527
188 0.9962988497772516 0.6884700532236481
189 0.7515784172889148 0.6224145332065204
190 0.7835552858054085 0.23325481905608658
191 0.6801972630731652 0.6357676968085423
192 0.9097187711297435 0.09130034422051803
193 0.30497946599557235 0.5860345489281589
194 0.05216829730026118 0.08001669461090588
195 0.10767170651700453 0.5943426155976104
196 0.8855779208761307 0.9222740350217514
197 0.3221685407417586 0.5286147124111437
198 0.6732751416764243 0.8191973801994789
199 0.16906599412556766 0.7023902688670786
200 0.7823251678049964 0.03983425178433886
201 0.18541823172965122 0.9782694430450201
202 0.7457929069475181 0.748002222309867
203 0.5314524029606199 0.7766985773788168
204 0.6327144292077244 0.8641686535897753
205 0.6256689575249783 0.5802480587416458
206 0.5384300615447252 0.7369328145814327
207 0.818048421682865 0.6385523325576383
208 0.4193264296373569 0.39164204695988303
209 0.891099511409886 0.7128032668184532
210 0.033578703471128235 0.9727561424192402
211 0.5216844658847506 0.8053226973870719
212 0.9649207283157991 0.5111813999092647
213 0.4052798298232475 0.1863702010601792
214 0.21795269327723243 0.37586384214770185
215 0.7446857595685896 0.3118948217422176
216 0.474512048224803 0.3333878761684542
217 0.3572279579153429 0.3652928454329635
218 0.2856999677303229 0.5647038322505568
219 0.8168917398536616 0.5371454301852401
220 0.781607547450267 0.5465322960283543
221 0.1901302111436407 0.6510240419766321
222 0.05121507834859862 0.32398306559977297
223 0.988172783201337 0.1371004695029704
224 0.7155686866747516 0.19871942113978835
225 0.15182196425542582 0.01724300453648253
226 0.200415226226916 0.8866948645907137
227 0.3577222144711093 0.37187778009618666
228 0.3971463334914971 0.4637481502060449
229 0.09065280471491977 0.676489132974971
230 0.8939125857267053 0.2888238640249874
231 0.6068797715918324 0.9279674441792042
232 0.6352540929426406 0.02947771155768064
233 0.9655276515253073 0.9233041502857764
234 0.6455391268658063 0.2219767722252889
235 0.10118845788526387 0.23365644635441563
236 0.6620706794836645 0.19603693863325689
237 0.7824869802826272 0.6065942473401493
238 0.03254721230769031 0.9475227835958319
239 0.28848525761924104 0.7785513762654563
240 0.3653674506346226 0.32898343000607444
241 0.39757195556862224 0.5696416152234075
242 0.9918334249285771 0.0908360315519785
243 0.8668942481777443 0.05464156198165415
244 0.8210372975446809 0.9744585469613306
245 0.7511516559282576 0.09529996898012272
246 0.9637693600522311 0.19801492986976177
247 0.17025233973014653 0.9664470597308134
248 0.9737031641623272 0.7163359475025749
249 0.6377816604265198 0.14390812457828206
250 0.24438987581821603 0.20172096301502285
251 0.35550361018964716 0.6236706556933227
252 0.8190576677726058 0.02065735231280974
253 0.9371037990343323 0.8161540302069009
254 0.1272693541364982 0.5464475148234047
255 0.9597853496783237 0.3219423425769813
256 0.6575255388889126 0.6695933072111792
257 0.23753905705829104 0.11236423837540577
258 0.7311775225554745 0.49123704631720144
259 0.05832718230833778 0.010604424816430758
260 0.9564307441251566 0.9676087509580873
261 0.5478513125747998 0.7207606632837116
262 0.8867856869472557 0.4454994181788293
263 0.4011909760902794 0.8983672414072396
264 0.23242823724225758 0.09005756577137902
265 0.3511880856320325 0.609977532004089
266 0.4870540659197915 0.19314671356210844
267 0.2156931242944925 0.6639787854773828
268 0.24863122360516632 0.6014372400715965
269 0.045563431256807396 0.5146474573381258
270 0.024413199684324316 0.9999598648819273
271 0.6583211456361902 0.9596005343212579
272 0.455977071088317 0.438330202276245
273 0.47707944854523254 0.7027721757706938
274 0.5087158616742501 0.06841362021718589
275 0.9902104209238022 0.8167729133617464
276 0.3182284962740106 0.1422431281910801
277 0.6249585568225282 0.4835768069895383
278 0.6188883277449069 0.7881227655427709
279 0.15227000630640453 0.5127376809389449
280 0.37345230917834593 0.6702640581192643
281 0.6831750557837195 0.2798595348099022
282 0.8296104766485134 0.5660057826781831
283 0.44427035052822317 0.5010885953439199
284 0.4355487133284702 0.8756864009034122
285 0.40078364828539026 0.5997662534169936
286 0.9114208610632437 0.8725470005027236
287 0.598514210518364 0.02754707958727043
288 0.5667309154923519 0.661339325818757
289 0.9837524234546142 0.7678036555734276
290 0.9966401520294305 0.8290855367184434
291 0.3929537955488961 0.005147106947560265
292 0.8412245590824382 0.4016829175612696
293 0.5958550070479522 0.5807304583513628
294 0.16717031484775147 0.13806280869616083
295 0.5292289718589479 0.259645234182999
296 0.3951739771732222 0.22907241812074475
297 0.441375117698668 0.35627947310255004
298 0.06748247851368461 0.26260819086568465
299 0.4234041355444603 0.8883284135588132
300 0.14020689192021085 0.681041713037516
301 0.490514359646941 0.35752483438187455
302 0.2977713192688479 0.623770893590144
303 0.8327942824891252 0.7487140263286942
304 0.6826028550539301 0.14970084480642887
305 0.90597969362246 0.38097387497924373
306 0.45260138037251074 0.8961626916213332
307 0.017281704710842116 0.2853611724970381
308 0.3999538567790938 0.744642021697325
309 0.9685904142926073 0.8598795634389166
310 0.27119423760768435 0.20743328868317856
311 0.07937853732728506 0.8306284139179944
312 0.99882058943057 0.26402113081318945
313 0.5306554131589207 0.23715064272246522
314 0.13481243306026647 0.3792647065836605
315 0.64949725139653 0.2874756708449431
316 0.7092505585261728 0.4499519413988772
317 0.9984141488308816 0.04152258928732244
318 0.4091089503023101 0.6190990005410786
319 0.8666960676135181 0.8374784046433964
320 0.6372828062034473 0.6749422016633442
321 0.5159378834459255 0.895052162784931
322 0.831920006132705 0.576439527351746
323 0.21593943726910703 0.02698364794100594
324 0.290260913869849 0.872115046236533
325 0.018846386780366098 0.13532612934013555
326 0.7926807182688776 0.5897140886178037
327 0.37146034627728663 0.7644343246855617
328 0.777360199295772 0.42476853329078523
329 0.5346761352593506 0.6775935287570258
330 0.6084607486502929 0.5065881370267732
331 0.42081624565344156 0.9858721758203548
332 0.36933650506795535 0.9361494827611031
333 0.5710625628138202 0.6308891217891563
334 0.9143030109127048 0.5313351176411452
335 0.5934541314712829 0.9835030313225739
336 0.025860268586205604 0.3386179707223367
337 0.6948190820896704 0.1948680283485671
338 0.7488784390962474 0.7683158107636352
339 0.1863110167020361 0.3448524010246893
340 0.5998835159529341 0.9534437253706383
341 0.6987799653661667 0.6356799565333843
342 0.4590700466939851 0.30740635820269446
343 0.613726243654804 0.6088764909795692
344 0.10843569406539322 0.17199094336126597
345 0.6557401523870546 0.7622129648982812
346 0.4871808800986732 0.5739630784428302
347 0.46891879441760476 0.3104458943495674
348 0.30905745216718405 0.9267871322688758
349 0.9450384487710839 0.13954749865223126
350 0.3791233713398655 0.2625716796846751
351 0.03019967446094196 0.47656316394198717
352 0.42212778282951857 0.7690430845852378
353 0.8476056064178771 0.07893030591712036
354 0.31658202757391196 0.528671377711447
355 0.7071152676266764 0.26416412185335936
356 0.1777766833937292 0.11513945819114468
357 0.03104350813081247 0.8314846226528225
358 0.11021121993261307 0.4539365097812079
359 0.4137614459246468 0.2566105942759591
360 0.5011618548355504 0.9677960184468832
361 0.5109640138858818 0.13701517124633733
362 0.690347015667103 0.9078587853663368
363 0.9408317774643802 0.18352292385514624
364 0.07108764381888 0.7515222003593149
365 0.4775711745515523 0.9294844219581316
366 0.6069202606920481 0.13394797406887693
367 0.23168561893016637 0.025905316981698956
368 0.057954530193099485 0.23015156548693172
369 0.9730598218177229 0.9116616371270737
370 0.6188671735229057 0.7281973893545545
371 0.5979815044987411 0.3407689365107466
372 0.16127076701546716 0.2418207054254773
373 0.5284996481905597 0.06321087410315396
374 0.9102776044190741 0.41841946696602006
375 0.5508658532959023 0.401976965498287
376 0.6205288696936219 0.39855373205927
377 0.6185172459013806 0.6588344317433944
378 0.11993245621924187 0.7787068812194603
379 0.0003332395050147374 0.640397686456701
380 0.6853757410699206 0.8376900408344513
381 0.5795008039954986 0.09157826403031377
382 0.10814328135064999 0.8682751831522094
383 0.06851300120640791 0.8322507874649449
384 0.7109150512455695 0.18594940032293417
385 0.5881039082825635 0.8465406717125527
386 0.35716327641077183 0.39789084683198295
387 0.9593815418595882 0.2615993722646508
388 0.5744982372947214 0.5833609072358505
389 0.0910205108113109 0.9231988603362453
390 0.90381511220862 0.9463907273916892
391 0.26797325770059255 0.22210666442249682
392 0.9614071101640929 0.5876379492813785
393 0.19051700205010236 0.04584048633810189
394 0.15349204777523806 0.3987780676678099
395 0.6035002797948388 0.7324096745496574
396 0.8564974580992091 0.6779664457571218
397 0.71852284503867 0.7742500248233743
398 0.47642315969448645 0.8598937712469874
399 0.8389215198665275 0.7258255752916553
400 0.12235446978349074 0.17370086449828115
401 0.16201956922309924 0.9948433782616086
402 0.27354915819241776 0.9552994021097843
403 0.7675044379178504 0.33019787714981585
404 0.2761982609682194 0.8087328434887083
405 0.7021389755110268 0.6689044468930181
406 0.14756634558675896 0.30670192838068866
407 0.2351647746400144 0.6080830514268434
408 0.5200418872279979 0.2210073749469419
409 0.3002669660908154 0.18646418198984727
410 0.12765250075679357 0.8564463057110182
411 0.4066666712469895 0.3595809030802075
412 0.9982566548337339 0.9814486634094074
413 0.8037387124885789 0.8467734982400963
414 0.9362879153722308 0.6750885041644495
415 0.012532329203517545 0.7435949522861166
416 0.19710548734463107 0.6214499811332804
417 0.5914682472176552 0.2663254148808031
418 0.30346037455285424 0.7187771430749542
419 0.29921109681087077 0.7081928646950542
420 0.5479025238960079 0.3384125775062631
421 0.04440468298268929 0.9136444031826635
422 0.06023295292083597 0.8231732511650397
423 0.30063296095450953 0.6412029739082834
424 0.48699881247828924 0.5059292245034761
425 0.8838785019703738 0.48914205871865446
426 0.05183333678026947 0.09543738782892763
427 0.17178745627769532 0.7683163400675462
428 0.14355813312934673 0.7558718587751604
429 0.9090128382613604 0.7804132049251964
430 0.30259843007116916 0.9272957766099277
431 0.45762668907053916 0.8821841390228681
432 0.7701301304332905 0.9816508029873453
433 0.015519783829940237 0.6587273009183507
434 0.6452682282623549 0.9580156898623974
435 0.2728895719938379 0.3545594897326996
436 0.24849163636755212 0.6459944901289755
437 0.22742106639221327 0.9626646119690033
438 0.7997280623728942 0.3704853344978025
439 0.018200907431243696 0.25442394502774346
440 0.8007241086366328 0.8024799711814435
441 0.4349597986142498 0.7812072748720317
442 0.04127901853701965 0.5990922337956585
443 0.16945043748525757 0.5126244983425366
444 0.28037562381363623 0.4394416059166474
445 0.21032788435240046 0.5586749456350797
446 0.9416654265906695 0.9728137733999325
447 0.0903078189451344 0.4695830400418096
448 0.15368243153515826 0.4313118840512695
449 0.12873037438148194 0.8203885902197536
450 0.6372494661327964 0.05284304293322073
451 0.9607066730230776 0.9978204211246262
452 0.7663229455497507 0.2617329935303214
453 0.7449155786789307 0.13884315684795634
454 0.9505769359906883 0.7616375482444644
455 0.012833326618744034 0.788357293501279
456 0.05888239197270062 0.39418728585618057
457 0.3580875717468054 0.311028856640046
458 0.0676422250172275 0.47875571045273446
459 0.24872801294532287 0.9627958903949307
460 0.1253045746098589 0.3624367292992765
461 0.45363937332464077 0.7082306009074353
462 0.9567175554896643 0.3855929874447789
463 0.18124771621777724 0.323709467021296
464 0.8837792471018248 0.1921253587686178
465 0.26079317276404756 0.7117263499156612
466 0.9483663568517606 0.5997342469468914
467 0.03460944259041743 0.14447937925793974
468 0.13937596733755941 0.377117471454546
469 0.8308501064457767 0.9488470336877349
470 0.667461279811827 0.5562574698995103
471 0.7855874974297551 0.7933436271482941
472 0.6968113919317407 0.18991685720628415
473 0.2239265767549602 0.1832778931698371
474 0.9461652640543653 0.2524856519029187
475 0.6249884011418768 0.5093738064704662
476 0.5798478363736548 0.359637068957928
477 0.9007959785382013 0.1959335230458027
478 0.010282414861217393 0.13133725600079948
479 0.22528245102779731 0.721296238890554
480 0.5272940654305115 0.43927258116289136
481 0.3763720830645291 0.2496928386066115
482 0.1605249114970364 0.7335016375067872
483 0.4256267375418604 0.8043407774810931
484 0.3872651816495002 0.47230079206349285
485 0.7246572447793679 0.8464272362407405
486 0.16711131138862068 0.11268975396508074
487 0.7272168477941768 0.6332109852649499
488 0.3733733165158345 0.9826538995274773
489 0.1798453373236516 0.8585999165822209
490 0.3705375144654063 0.05960320355621429
491 0.30191360531887734 0.4345975163745013
492 0.38922038843044837 0.11737593620292874
493 0.2171734208248719 0.036331984164548525
494 0.10149358741469627 0.4502679812417232
495 0.90418416205608 0.12792318667518132
496 0.0014872863603784259 0.6720583211617513
497 0.23312758834658442 0.8499286695154229
498 0.5933773865101518 0.4467889867451331
499 0.4058406262448624 0.8417329478968765
500 0.33567474126753705 0.571105652331584
501 0.7951769911321267 0.7448886955906743
502 0.45561474456358364 0.8280909222932656
503 0.3014112613364165 0.8519325185668941
504 0.09277671451797276 0.44791712534161054
505 0.2866222664686551 0.7542602300609655
506 0.8651100258290967 0.6732568085286973
507 0.17849010131631482 0.15551319020739818
508 0.7787045189799422 0.26007266345860003
509 0.5497212545466412 0.24510733621608272
510 0.3133071707158872 0.46826943552138256
511 0.8252480951646879 0.026753711590107088
512 0.8925873612334957 0.26660429943261843
513 0.606838151802197 0.901051157514673
514 0.8722572204314937 0.7882520568610228
515 0.16731938887013842 0.7393446132814993
516 0.9858281566806195 0.037591341182569016
517 0.33355408469163617 0.7261384178794711
518 0.1760782610996282 0.9897421605829478
519 0.25660681747714786 0.6877953366591325
520 0.746209471834444 0.6594054789107333
521 0.2604797185885469 0.6159385342799877
522 0.6849317730216757 0.10114737072450108
523 0.917003570470025 0.9522091160330496
524 0.27556572595268447 0.7340723992083737
525 0.5785434453125021 0.8395092792373702
526 0.0076050845278841095 0.3063337824454728
527 0.7093274682472783 0.891535702599879
528 0.23974706708088955 0.7400513655866513
529 0.5351441210497979 0.9161228883585221
530 0.23574599557126263 0.518593281353235
531 0.6385623832084328 0.963782311101759
532 0.5297278786367156 0.5979252791134072
533 0.8373464588864368 0.00016289890879073177
534 0.6919448364092126 0.29663063504334697
535 0.8311812201694238 0.8285228520461999
536 0.7570216594041218 0.5988918036554846
537 0.5267747553068938 0.8488799229004571
538 0.006151214334781274 0.7364278836728636
539 0.9926508729532546 0.038426815202533215
540 0.20071392114447795 0.48824812843268894
541 0.8741443129775116 0.22542700103525193
542 0.7972476161873944 0.751648996638139
543 0.8919893312009483 0.8260814676080485
544 0.9378127515465371 0.14634975536814454
545 0.976058157478548 0.5656101013010957
546 0.9089921456803418 0.4455478470792532
547 0.3111961372641795 0.9482957767040817
548 0.4697640651475882 0.9596420140996803
549 0.6679357717758577 0.769407401282465
550 0.9041504621940976 0.9558740718176967
551 0.3639654225062505 0.17155804335040414
552 0.5066478143402454 0.8468300499305457
553 0.13275748284408007 0.8418012496923589
554 0.6431337590710798 0.8172909610874846
555 0.9957638114176781 0.1327297500241098
556 0.3636763690245636 0.47502955929788193
557 0.2785386757434325 0.777659553678733
558 0.5814403526361801 0.10208005856180757
559 0.8632849614631489 0.8980273957805645
560 0.13773656338813922 0.34791840052925405
561 0.1802475440020651 0.5662600482192721
562 0.8549202788881382 0.9315662481041626
563 0.7980209598905876 0.17321060693599066
564 0.7418774176697618 0.9477663829942301
565 0.5442368451018644 0.4537461941208474
566 0.650347998394584 0.16307144598424916
567 0.9547663420954823 0.47864528697597497
568 0.4900278623309803 0.8713162944935828
569 0.05956824281540418 0.8977102450497173
570 0.021691692170965227 0.8880994520840674
571 0.9627931319133336 0.3580509398543772
572 0.8347807355240655 0.2617085363078073
573 0.7276962205218409 0.4713349652652207
574 0.0070905361104814935 0.01649399077667235
575 0.8178968118464237 0.47338813076376884
576 0.7763896817923673 0.1881973223193354
577 0.8890090233064791 0.33230072273799394
578 0.6310025293685239 0.06679491904884582
579 0.567929130893981 0.5535914806344171
580 0.7811316080634989 0.18978782115982062
581 0.15861824005411862 0.8785493695842636
582 0.7298345003064513 0.644724645245527
583 0.960381361868457 0.2227087315744095
584 0.6818292517117738 0.8729107604517126
585 0.2541352447959271 0.19617165594544117
586 0.24035295358157038 0.4875339678893894
587 0.02717745674329053 0.04654211745508141
588 0.7998685421688192 0.5111139270837033
589 0.9300886260357716 0.8332672702575173
590 0.11905555068759177 0.75111555188772
591 0.6651635807267056 0.4526034576487591
592 0.8484955662706402 0.9401557764642443
593 0.07897853367856367 0.13050965972632544
594 0.256692953746128 0.5161652222111028
595 0.5436139288766819 0.6901594825762175
596 0.0287428116648345 0.1995598476036078
597 0.6629438940272926 0.29646823532061917
598 0.40782616508812963 0.5569850087671265
599 0.11965149244834528 0.27468783121451834
600 0.30749931475133696 0.20019736284541323
601 0.1315935871161965 0.17374752178206343
602 0.0908899558447408 0.41044990840643525
603 0.7435048109002776 0.32328321693156825
604 0.48030927793487965 0.3102966640183835
605 0.3797940191550513 0.06521172300947675
606 0.026970401898099516 0.18355348107375835
607 0.28179510420360077 0.5796584451710695
608 0.9845663208243302 0.8674121225766765
609 0.371786905064891 0.7112656848790146
610 0.6328569634095251 0.6665732003338029
611 0.465145625235169 0.6832490499871751
612 0.32231548005799404 0.9573970041585936
613 0.2441735842543895 0.5259127594526287
614 0.9402306118850696 0.9879464133143132
615 0.6541758090208164 0.6306170165344147
616 0.9348315145196506 0.6538278486464312
617 0.897855575023219 0.3706082628772619
618 0.39960719762291763 0.6502617211967887
619 0.715509397451476 0.9012077146630217
620 0.5069381868968842 0.7109429137420554
621 0.8172149988922158 0.9232367346245479
622 0.6851627619256783 0.6908734443978912
623 0.6701317760457599 0.5922435702112377
624 0.16929961399266025 0.4643944287819328
625 0.4458461347762138 0.2561246090182707
626 0.27086917303239766 0.6288373150168799
627 0.99870797372935 0.6587484976733476
628 0.4491582158160561 0.9144744397703368
629 0.018216122563137094 0.20146323100123398
630 0.29649665209706 0.5697075808552685
631 0.4111389839167585 0.6591347445158878
632 0.3119958608061618 0.04315327013134429
633 0.2932077911961306 0.19518273579759438
634 0.6397850478241648 0.8141508652902761
635 0.02301507539935499 0.6188785750188637
636 0.44055881685959297 0.17045243016107137
637 0.6733975481890199 0.6666692318783936
638 0.5395661328285511 0.8244320301417917
639 0.2455352076619891 0.5050707954267946
640 0.3445268795674662 0.522022631872307
641 0.26417357339454073 0.780944139135591
642 0.21166639104953489 0.34159148491917346
643 0.4769635850843028 0.9040098567569502
644 0.17099835565498434 0.687689604701523
645 0.534350588779062 0.5349658822072767
646 0.19083815321424702 0.3623903662335264
647 0.7462162850779471 0.6680622136512818
648 0.632528410327483 0.37198991263434555
649 0.0697204587921385 0.06348995902893051
650 0.5975093402938269 0.6050896590408578
651 0.7369462201384857 0.18471131343920488
652 0.8726991838736087 0.4124888013881072
653 0.10366613255866652 0.3722758572644804
654 0.3540395240560229 0.5986522711436404
655 0.7202014084923907 0.5416744279100884
656 0.9205457741669775 0.18101809101279953
657 0.4093420389488016 0.6931420047573537
658 0.013366956717744904 0.8221250199895713
659 0.40196658820370046 0.5009438516109567
660 0.461991548549218 0.23369181670699413
661 0.9541855888480568 0.050180163061116057
662 0.9168190001297768 0.6384020527207246
663 0.12350664894835994 0.5022003218189096
664 0.40596132145002317 0.4061230920740151
665 0.44894403601979904 0.015480678467954978
666 0.5730286699301298 0.2912602997504693
667 0.9640515824609972 0.5386593279872205
668 0.00844304050668132 0.6134804916771012
669 0.9444477009085595 0.2276092732391385
670 0.6715537374339087 0.8615027955002423
671 0.7312640884154158 0.746504477921512
672 0.3890293934269681 0.16562889805388592
673 0.20019007103545405 0.9733091420920679
674 0.7458342659468998 0.5496232640660039
675 0.82208226187884 0.137010628344025
676 0.9941196326090587 0.8991538310632973
677 0.23687723216334688 0.5838283168714514
678 0.9616411111045488 0.4218953317812295
679 0.9839763826210185 0.21384454268048436
680 0.9580375387298495 0.2932869356501293
681 0.7312213918857546 0.930898073316398
682 0.24247560568167192 0.5268401755583633
683 0.9605947095582965 0.7030267859872994
684 0.46180990115108767 0.8262448253131448
685 0.6321892224615119 0.4325520578620481
686 0.22424938248564674 0.2938001131786441
687 0.6351901950887504 0.20491665656642932
688 0.8176237105008437 0.4629017253773562
689 0.8625000723619699 0.8391345674792089
690 0.6642208619769855 0.7826710074704815
691 0.8519717078364865 0.8338347312403223
692 0.4599723055637235 0.05600716350500756
693 0.9192571634107163 0.1637843536582082
694 0.6128775219803955 0.6649336506735182
695 0.9206066096576155 0.9465269713023867
696 0.5768419890513476 0.27263930954009874
697 0.6115933039038961 0.38423468935936045
698 0.7773497081449344 0.27508452676299044
699 0.551296874410554 0.2341424689742373
700 0.6658708662975408 0.06553708416346049
701 0.4368734692463442 0.7977706605591668
702 0.35357914601087315 0.663728169518794
703 0.11120757774039902 0.7695952484741522
704 0.7062704742092307 0.7036022614720564
705 0.9932699718189442 0.0345865826987235
706 0.6774181278868103 0.6681583273185165
707 0.23402638374013662 0.6332130105727802
708 0.9500605712618899 0.6447345738062286
709 0.18147768815982235 0.7909625271878113
710 0.22111178757971417 0.5353092622633342
711 0.9603266040089129 0.7270447875371471
712 0.022497542860577147 0.5511686648362437
713 0.0653819324519126 0.40957501308850097
714 0.6497455832921728 0.6143441887790707
715 0.35121391710618743 0.2795555546784274
716 0.9762564607217716 0.32036262161212414
717 0.21356026309796083 0.5839346217206154
718 0.4094916217744746 0.45273463536138026
719 0.23963385860837738 0.898713594331471
720 0.6630814078473847 0.059991960789406384
721 0.5497715346638381 0.7523891766274156
722 0.7465295316869972 0.26770549157962154
723 0.4188009359618372 0.7214683429418438
724 0.7608632809808791 0.6238030862131914
725 0.2136830658651253 0.01773944438878794
726 0.0853766966685513 0.902098560014668
727 0.017875333353387868 0.7480991828215817
728 0.8883726606174499 0.2089748018074541
729 0.2515641864816446 0.2704497041716475
730 0.1289802127727524 0.9342409727398736
731 0.024265934409394396 0.9824302437138578
732 0.03604361057681127 0.18625646425431708
733 0.8528911418374358 0.46947047751993576
734 0.24045681262184082 0.9032157185252442
735 0.2510256916247947 0.5746364181800772
736 0.6958299013348113 0.5544382111816738
737 0.8349692026039599 0.6254058647702272
738 0.7864907815513037 0.6240237891610865
739 0.8175737899592382 0.5856960799323682
740 0.49307815154101353 0.16237376476841847
741 0.5510230815194692 0.8417385595211525
742 0.20621507127157734 0.18557726455075874
743 0.5964177017805833 0.4834784448487681
744 0.2726412416806482 0.05905431485995416
745 0.4097429685514792 0.2509115355975732
746 0.8619797325404707 0.8064543108457642
747 0.05995817114362534 0.014990835414608772
748 0.6373162361269645 0.20936562985701035
749 0.5590303200214254 0.333889906608264
750 0.35716594785226086 0.7113144559813294
751 0.9147900839940456 0.1361039164708311
752 0.9205839806715032 0.3386703021008337
753 0.06896003467130196 0.9067846003760216
754 0.19121413227013961 0.010246208786046318
755 0.29966499916608114 0.9431196849892565
756 0.4339688814777153 0.44970353056324186
757 0.5902391190761457 0.23550303749229107
758 0.9711402501449088 0.30405394572908506
759 0.7936168967708358 0.1533473159719141
760 0.13447942921145817 0.4322313536729885
761 0.5407502586890967 0.9576009630899107
762 0.00864836954667536 0.7102444880107267
763 0.2808146259183947 0.532233287788859
764 0.5801376998574694 0.734585711861802
765 0.43953908502965267 0.2555731784126445
766 0.30400311041238126 0.6183238132203867
767 0.6278154895258903 0.35022056956596614
768 0.28597796233675177 0.14956120705927667
769 0.14468174107395804 0.33777452463118407
770 0.4552375566431828 0.012157258368325596
771 0.793347131847774 0.10681269598012466
772 0.757379560068574 0.02316230831526578
773 0.06623459371657703 0.6299709138878803
774 0.1943529117172701 0.4359289808053477
775 0.2297317851696815 0.017034112564245807
776 0.22678002148972343 0.6372307527705957
777 0.08018409985161179 0.09793113508560713
778 0.44377068983055534 0.7055842841383545
779 0.17774426058825554 0.03259391846410664
780 0.9608865271300757 0.6855206589202113
781 0.6352418427732309 0.6920008043991787
782 0.6860105626716219 0.6305382767761956
783 0.42770196615575984 0.6771083808200404
784 0.15377414382548893 0.6314585800838007
785 0.30995223525305926 0.6924332975793538
786 0.06128332374097345 0.946217445117144
787 0.11054810458051978 0.6010120402506787
788 0.3182709857175753 0.37491386632356427
789 0.3109149871943424 0.5353740692488699
790 0.29296372795547254 0.22791877050550735
791 0.801966414979033 0.3451703999808309
792 0.16846733155603177 0.912502315404616
793 0.20557749769548572 0.8975682873075378
794 0.09737002786133797 0.8114739426801353
795 0.5709591529861965 0.19631141585985878
796 0.15381891368437328 0.2716299559748524
797 0.6088423991645305 0.6325410015758269
798 0.9136678014447903 0.8285273813719781
799 0.26633290096639783 0.19062749700493853
800 0.20818521095530018 0.4451514794929047
801 0.11570181079027042 0.7662852805576162
802 0.480311803892012 0.6608061073344419
803 0.5326959749049109 0.3562663743174921
804 0.9304062147689425 0.5832657845495935
805 0.08708989474441198 0.4720618960467182
806 0.423931430992345 0.6107330423525218
807 0.10780812523257066 0.8787515569526694
808 0.6122515897634339 0.19181313276693512
809 0.5363340791959851 0.22386176197656493
810 0.5884025916261846 0.6077848126698369
811 0.9529025642053665 0.7955623995592407
812 0.5133473650780811 0.7214442311237771
813 0.5212471029904545 0.682393960792525
814 0.38156107601687783 0.12298076430398219
815 0.02639747997703068 0.6724944265425399
816 0.07889885402036168 0.30823499417316746
817 0.41553942785801656 0.16388411153550397
818 0.10698011025879961 0.3288635719257271
819 0.9161507018634943 0.5656449497347671
820 0.055169800142609304 0.7305524228087704
821 0.24955158351078632 0.5445968414184029
822 0.05772466676261756 0.6871575624614984
823 0.6632933215800859 0.4440240825794374
824 0.031900775502376244 0.3444407836528679
825 0.9709646157089546 0.360332686659391
826 0.08358200843618069 0.05703671704141444
827 0.5935675256743761 0.4079583564651583
828 0.5619754658654332 0.9615320542554003
829 0.4109414911040402 0.9341803928502994
830 0.8945878639956931 0.9236546353869864
831 0.8742449959317797 0.5248635757852568
832 0.173087968214514 0.053797111854955504
833 0.9705805557740546 0.16810441263184006
834 0.7334988190189099 0.4336004182028159
835 0.7956437509158057 0.8436937411355807
836 0.29143848604252165 0.6835675408972021
837 0.4803208591819119 0.4562309050159554
838 0.7764574537440706 0.47175740520671894
839 0.42402156323655105 0.5430489964867071
840 0.8466897003899914 0.9736871236468919
841 0.8037475755474377 0.5400783340608429
842 0.8059857324637424 0.5245878839842032
843 0.07655774697137607 0.7847598070995286
844 0.8473431948257995 0.9462410299525961
845 0.0825818065745969 0.3889590906204411
846 0.3723492341702235 0.8810525246969474
847 0.6580223807253317 0.2566572551443618
848 0.3845858646992968 0.7067112173895418
849 0.15353094624483 0.049607283233206734
850 0.9681305144566542 0.13038024168151008
851 0.8405950026828757 0.7421059967432314
852 0.13523210752885828 0.2712592052829116
853 0.1622537351297636 0.5044038532638988
854 0.8219688770280252 0.20170956961681363
855 0.37439671759772886 0.13809552125924207
856 0.7494697759248886 0.36644452683329765
857 0.019525401627164318 0.5384572350183183
858 0.4805398037879719 0.4179223879992524
859 0.6487947726964218 0.859843341761332
860 0.5562412118671267 0.7036179554421521
861 0.6988848194947147 0.19798260919292965
862 0.7246570003583781 0.5630613896611428
863 0.5938898961418758 0.8393120090382329
864 0.3422694205314887 0.17834154733302
865 0.15801546895446406 0.8680840609202883
866 0.2917378565916884 0.7139846516102257
867 0.5798463843477288 0.5134828929786684
868 0.9233209497114225 0.276961156148292
869 0.692339578389344 0.053399110711472964
870 0.9890449056266664 0.15542518205758094
871 0.4686240717370309 0.7088524279098096
872 0.6434785093832611 0.6783222294088631
873 0.948884884266437 0.8669703900339565
874 0.746257419614653 0.3726769869276646
875 0.15951750533945874 0.4181560513259158
876 0.7891035856428501 0.5363968674832729
877 0.48180928367188136 0.13568651398997367
878 0.718022169471974 0.8945587373212504
879 0.22313072601532058 0.23815610484604877
880 0.030504880050526872 0.042308934303830203
881 0.24425234884408564 0.8132428378924222
882 0.062267422800003636 0.21853664436993303
883 0.868959442069401 0.40321496501797005
884 0.8072230117433855 0.8294135497908084
885 0.16011640385334802 0.4328531037545854
886 0.4331343954263266 0.879199221322006
887 0.2405556178117505 0.8445770985550095
888 0.6578076554666358 0.33450561357191266
889 0.5852911208574242 0.6276115573415039
890 0.11518027095575067 0.5458320587411871
891 0.4682225366077878 0.2087156257785222
892 0.1411124494195044 0.8983574263511724
893 0.6460617595201978 0.9040504612554328
894 0.02699304492184973 0.2311044430148309
895 0.3291040682984907 0.8506712270418758
896 0.6243432784920376 0.9719893796541164
897 0.2870561036367022 0.631881959469561
898 0.8678133621461593 0.8737392900561204
899 0.6076014020249723 0.8394243603896262
900 0.5260756433115042 0.6052139616642082
901 0.18220089940062223 0.14116600472368124
902 0.839535655934362 0.20777117316336713
903 0.5857303991789915 0.1267133879447695
904 0.8406334682741964 0.19399161302577528
905 0.8891656029045023 0.7860259709147038
906 0.6752753694078618 0.8626827239437818
907 0.8645017820315607 0.621771762631444
908 0.4972185854112323 0.366226477717023
909 0.20553506604224114 0.19408987642406106
910 0.7334076250060257 0.5524894837527758
911 0.47787738839410776 0.7281533732035875
912 0.4805327496990319 0.4261502554542391
913 0.8635219540610092 0.9056790638279898
914 0.03375402618359735 0.8232905587356828
915 0.5103414163912464 0.9871818590038592
916 0.06298802209333132 0.33823482629897816
917 0.1585638527910247 0.3472878109492733
918 0.07041581735995406 0.08276235291972578
919 0.9049721097154477 0.00691896416576776
920 0.09796787713678567 0.6704766875633887
921 0.7261780781437649 0.740494832566706
922 0.8012368367291552 0.37586516308184903
923 0.4052524877992366 0.5429609454618595
924 0.5931310871990044 0.4304460795172792
925 0.47647492472032926 0.9175862892214217
926 0.5909306383545196 0.11674427096003193
927 0.4389414514336587 0.43331961300173616
928 0.8739643421492121 0.2486479510460765
929 0.5985865673786828 0.3936468898434685
930 0.29109011629758996 0.05179875640781151
931 0.762122461863512 0.05948464616660987
932 0.959946414681246 0.6742838005704261
933 0.8288429328433525 0.6323321050603672
934 0.9938887263244491 0.28692398854718404
935 0.16886063398979423 0.8301727725778589
936 0.7082518786828204 0.058993745354089855
937 0.15276002072450345 0.15936502395215968
938 0.8017184929279042 0.5794858111047035
939 0.8080872456388348 0.23145865498868
940 0.7365926769931794 0.6180752483792892
941 0.6372042103846888 0.14778296319545192
942 0.39306399689484817 0.8058118390021812
943 0.04801227718020262 0.9090965525111636
944 0.5930011790718122 0.5364718983010036
945 0.6912872248707449 0.5658190781648152
946 0.004185166682149299 0.56865448335709
947 0.8820443023146458 0.20218633329022817
948 0.9860077095884974 0.348015202690237
949 0.697808505514151 0.16945886608213845
950 0.5228725303923841 0.33916941952099244
951 0.7627761977014309 0.9381976422697789
952 0.8951150020350517 0.46275408307221866
953 0.7730152203365186 0.04145679959030657
954 0.5733716724737958 0.786167977285687
955 0.917740290116918 0.8408096785463302
956 0.48930202618898344 0.3868106960597766
957 0.7588838960824182 0.45897408061806855
958 0.9347858187034392 0.49741082686410376
959 0.04631428533543558 0.6390317641290726
960 0.25519393214091735 0.2522400095214177
961 0.0220484495172778 0.19574427791099236
962 0.08292936974659182 0.019651887897475184
963 0.483140121970993 0.004056603197049702
964 0.26550266611191886 0.49237286205043973
965 0.839250687447971 0.7353563099249776
966 0.6336490593280448 0.2766951261877405
967 0.0023423551322723224 0.15860095611088565
968 0.8279703308434223 0.9220619041508419
969 0.5832336500839739 0.18608351137969537
970 0.6476539864296236 0.7089132331241618
971 0.20920685298909247 0.5528446517773847
972 0.27275464054590337 0.8291614486028621
973 0.6536050067044749 0.8121924592371433
974 0.32555342326144 0.27468056236255955
975 0.4126618932782704 0.29700794127196906
976 0.6453250402650949 0.0534633825422014
977 0.6646986013696331 0.6042959242541553
978 0.5627244000921718 0.5720357250479498
979 0.7402891204275781 0.4315070473640523
980 0.8269650933572023 0.23656610982716486
981 0.40235270267942025 0.19719778983942815
982 0.556817637505575 0.2093653566964142
983 0.3334581019816477 0.5898498008885174
984 0.8446383240502604 0.7939079393783907
985 0.023337188429693678 0.685592002924886
986 0.9513154861738288 0.8989675005265947
987 0.6941180953051279 0.43418765825864913
988 0.9929779478479648 0.5419454050813195
989 0.8079403267877961 0.3900108852022538
990 0.8016313855295145 0.12031903170588487
991 0.7136115239092916 0.0900852888416721
992 0.5677464900137803 0.5442382445141813
993 0.3750814056556647 0.7042020510312732
994 0.5541719845775809 0.9373394794782347
995 0.7310799601727401 0.49646119926308885
996 0.8640986713618982 0.5209865406746824
997 0.0008811208936768677 0.11910680049747135
998 0.40506003220684417 0.20258915075598827
999 0.8715244918273811 0.24068026075403048
1000 0.5947492376290892 0.23905454770972823
1001 0.3453198745754783 0.009934944424188852
DEMAND_SECTION
1 0
2 4
3 9
4 5
5 9
6 2
7 2
8 5
9 2
10 2
11 6
12 3
13 8
14 5
15 5
16 9
17 6
18 6
19 6
20 1
21 4
22 2
23 2
24 2
25 1
26 4
27 2
28 9
29 4
30 4
31 7
32 4
33 1
34 7
35 8
36 3
37 5
38 7
39 6
40 9
41 7
42 4
43 4
44 5
45 8
46 8
47 4
48 2
49 1
50 1
51 3
52 6
53 9
54 6
55 2
56 7
57 5
58 7
59 4
60 8
61 6
62 9
63 9
64 2
65 9
66 8
67 1
68 7
69 8
70 6
71 8
72 3
73 7
74 2
75 6
76 1
77 1
78 9
79 6
80 7
81 1
82 6
83 6
84 9
85 1
86 9
87 8
88 8
89 4
90 9
91 2
92 3
93 3
94 7
95 2
96 3
97 5
98 9
99 1
100 8
101 2
102 4
103 3
104 3
105 1
106 5
107 7
108 5
109 8
110 5
111 4
112 5
113 8
114 7
115 6
116 4
117 3
118 2
119 5
120 5
121 1
122 4
123 9
124 5
125 1
126 7
127 4
128 3
129 7
130 3
131 2
132 6
133 5
134 1
135 6
136 3
137 6
138 8
139 6
140 1
141 9
142 2
143 7
144 6
145 2
146 1
147 4
148 2
149 5
150 3
151 5
152 6
153 1
154 8
155 3
156 9
157 4
158 8
159 2
160 3
161 4
162 8
163 8
164 3
165 2
166 4
167 7
168 3
169 6
170 2
171 7
172 2
173 3
174 3
175 9
176 3
177 2
178 2
179 2
180 9
181 4
182 6
183 3
184 6
185 5
186 6
187 2
188 3
189 7
190 1
191 6
192 8
193 8
194 3
195 2
196 8
197 4
198 4
199 4
200 1
201 6
202 5
203 8
204 4
205 3
206 5
207 9
208 5
209 9
210 7
211 4
212 2
213 6
214 3
215 2
216 2
217 5
218 8
219 1
220 6
221 9
222 4
223 4
224 5
225 3
226 6
227 2
228 6
229 8
230 6
231 3
232 9
233 4
234 7
235 8
236 3
237 1
238 8
239 8
240 9
241 6
242 2
243 2
244 7
245 7
246 1
247 3
248 9
249 6
250 1
251 1
252 3
253 2
254 7
255 5
256 5
257 1
258 2
259 3
260 3
261 1
262 6
263 5
264 6
265 3
266 5
267 4
268 8
269 6
270 7
271 8
272 8
273 8
274 1
275 9
276 2
277 2
278 6
279 5
280 9
281 2
282 4
283 7
284 9
285 8
286 2
287 9
288 4
289 7
290 7
291 9
292 1
293 6
294 1
295 9
296 8
297 5
298 1
299 6
300 9
301 4
302 6
303 5
304 2
305 9
306 3
307 7
308 5
309 6
310 1
311 6
312 1
313 2
314 1
315 3
316 6
317 8
318 6
319 2
320 1
321 1
322 9
323 5
324 6
325 6
326 4
327 7
328 7
329 5
330 2
331 3
332 6
333 5
334 4
335 8
336 8
337 6
338 5
339 1
340 2
341 2
342 9
343 5
344 3
345 1
346 2
347 6
348 9
349 3
350 4
351 9
352 3
353 8
354 1
355 8
356 1
357 8
358 6
359 8
360 5
361 4
362 6
363 2
364 3
365 4
366 7
367 8
368 6
369 3
370 6
371 8
372 1
373 8
374 9
375 8
376 3
377 6
378 4
379 4
380 7
381 7
382 6
383 1
384 9
385 9
386 3
387 8
388 1
389 1
390 2
391 8
392 7
393 5
394 4
395 3
396 6
397 3
398 6
399 3
400 6
401 4
402 6
403 9
404 2
405 4
406 4
407 9
408 7
409 8
410 6
411 8
412 5
413 8
414 5
415 6
416 2
417 3
418 7
419 3
420 1
421 7
422 2
423 7
424 7
425 5
426 8
427 5
428 9
429 3
430 7
431 9
432 8
433 9
434 1
435 3
436 2
437 9
438 4
439 1
440 3
441 1
442 1
443 8
444 7
445 8
446 8
447 8
448 5
449 3
450 1
451 8
452 6
453 3
454 7
455 9
456 8
457 9
458 2
459 2
460 2
461 5
462 9
463 1
464 5
465 2
466 8
467 4
468 3
469 3
470 4
471 7
472 6
473 3
474 6
475 1
476 4
477 3
478 2
479 3
480 2
481 6
482 4
483 3
484 5
485 2
486 3
487 7
488 5
489 9
490 8
491 6
492 2
493 5
494 7
495 5
496 5
497 2
498 4
499 1
500 7
501 7
502 4
503 1
504 7
505 9
506 1
507 6
508 3
509 8
510 3
511 5
512 6
513 4
514 1
515 5
516 8
517 7
518 2
519 6
520 5
521 2
522 2
523 1
524 8
525 7
526 9
527 2
528 3
529 8
530 6
531 6
532 6
533 7
534 3
535 8
536 6
537 1
538 4
539 2
540 3
541 1
542 7
543 1
544 5
545 5
546 8
547 8
548 1
549 6
550 2
551 3
552 8
553 1
554 7
555 9
556 3
557 5
558 9
559 8
560 3
561 3
562 2
563 6
564 2
565 8
566 7
567 1
568 3
569 6
570 8
571 1
572 6
573 8
574 1
575 7
576 5
577 4
578 5
579 9
580 6
581 4
582 8
583 3
584 6
585 9
586 6
587 9
588 5
589 8
590 8
591 1
592 6
593 8
594 4
595 6
596 3
597 9
598 6
599 4
600 1
601 9
602 3
603 1
604 5
605 4
606 9
607 2
608 4
609 8
610 6
611 8
612 5
613 6
614 3
615 9
616 6
617 6
618 6
619 4
620 6
621 3
622 4
623 6
624 1
625 3
626 3
627 5
628 4
629 6
630 3
631 6
632 4
633 7
634 5
635 7
636 4
637 9
638 6
639 8
640 5
641 7
642 8
643 3
644 5
645 9
646 4
647 4
648 2
649 4
650 5
651 3
652 3
653 1
654 9
655 5
656 1
657 4
658 4
659 7
660 2
661 3
662 4
663 8
664 3
665 1
666 6
667 8
668 8
669 6
670 3
671 3
672 7
673 1
674 9
675 5
676 7
677 1
678 6
679 2
680 1
681 1
682 1
683 1
684 1
685 4
686 1
687 6
688 8
689 6
690 8
691 1
692 4
693 8
694 8
695 4
696 2
697 2
698 6
699 4
700 1
701 2
702 2
703 3
704 8
705 6
706 9
707 5
708 7
709 2
710 7
711 1
712 1
713 4
714 9
715 4
716 1
717 4
718 9
719 1
720 3
721 5
722 7
723 4
724 5
725 2
726 6
727 1
728 1
729 2
730 4
731 5
732 3
733 6
734 7
735 2
736 8
737 7
738 8
739 4
740 8
741 1
742 3
743 5
744 3
745 7
746 1
747 4
748 9
749 9
750 8
751 8
752 4
753 8
754 2
755 4
756 2
757 5
758 3
759 7
760 7
761 9
762 8
763 9
764 2
765 1
766 3
767 2
768 4
769 2
770 5
771 7
772 9
773 6
774 6
775 9
776 5
777 8
778 3
779 2
780 9
781 4
782 1
783 7
784 8
785 9
786 1
787 8
788 6
789 5
790 7
791 9
792 7
793 5
794 8
795 7
796 3
797 7
798 2
799 2
800 5
801 2
802 1
803 5
804 6
805 5
806 4
807 1
808 2
809 1
810 8
811 5
812 1
813 7
814 1
815 9
816 5
817 7
818 3
819 2
820 6
821 4
822 9
823 5
824 1
825 3
826 5
827 5
828 1
829 2
830 7
831 8
832 6
833 8
834 3
835 6
836 7
837 1
838 6
839 6
840 1
841 5
842 5
843 2
844 9
845 4
846 8
847 7
848 5
849 7
850 5
851 2
852 9
853 9
854 6
855 6
856 8
857 2
858 6
859 5
860 1
861 7
862 6
863 7
864 1
865 8
866 8
867 9
868 3
869 5
870 9
871 4
872 7
873 4
874 9
875 3
876 2
877 3
878 3
879 2
880 8
881 3
882 6
883 7
884 7
885 7
886 6
887 8
888 5
889 2
890 5
891 8
892 5
893 2
894 1
895 8
896 9
897 9
898 9
899 5
900 9
901 9
902 3
903 9
904 6
905 4
906 4
907 1
908 1
909 4
910 5
911 1
912 2
913 8
914 1
915 5
916 4
917 1
918 7
919 3
920 4
921 4
922 2
923 4
924 5
925 4
926 4
927 4
928 7
929 8
930 2
931 7
932 1
933 2
934 5
935 9
936 3
937 9
938 1
939 7
940 3
941 1
942 6
943 1
944 8
945 2
946 4
947 9
948 4
949 5
950 6
951 6
952 4
953 2
954 8
955 8
956 4
957 6
958 9
959 6
960 5
961 3
962 3
963 4
964 9
965 8
966 6
967 9
968 8
969 4
970 3
971 2
972 5
973 1
974 8
975 5
976 3
977 3
978 4
979 1
980 6
981 7
982 4
983 1
984 5
985 3
986 7
987 6
988 2
989 4
990 5
991 1
992 1
993 3
994 5
995 6
996 4
997 9
998 4
999 9
1000 6
1001 4
DEPOT_SECTION
1
-1
EOF
