NAME : gen1000_007
COMMENT : uniform customers, demands 1..9, generated by bench/make_tuning_set.py
TYPE : CVRP
DIMENSION : 1001
EDGE_WEIGHT_TYPE : EUC_2D
CAPACITY : 200
NODE_COORD_SECTION
1 0.1880167577614904 0.6343994420125812
2 0.5215737984291344 0.7364816580291184
3 0.1802730392955293 0.4623537445766944
4 0.877294043835262 0.35774780670944784
5 0.05829954747598953 0.7654319495122544
6 0.7063382250123379 0.8351388011324787
7 0.004656993346570659 0.923814933348689
8 0.39692543791970847 0.12554960861722975
9 0.19465046789182083 0.06188141657973245
10 0.24709597591227284 0.18675945531793414
11 0.8714141435251856 0.70707922559436
12 0.2809629000521543 0.846294530956928
13 0.956149957173747 0.4302142095448881
14 0.8728353998139595 0.05136962124673883
15 0.49109196096181507 0.8429540904234608
16 0.5532759758541901 0.9302066072582665
17 0.5889909101832337 0.8314391361898712
18 0.04511475623396233 0.5011955939667565
19 0.16454575624673806 0.89740714806278
20 0.9222496443402087 0.9719782377405034
21 0.6020724600119495 0.870720609228312
22 0.17368778027019638 0.8822197726338908
23 0.7657342489904904 0.777576887258741
24 0.645972361634481 0.8956765635994851
25 0.11875852725464453 0.3606476740177903
26 0.28034647964674264 0.8410404526680836
27 0.09725215816207833 0.33487597450504936
28 0.47236799177769495 0.40512905949304256
29 0.6453557481292836 0.15358356809982776
30 0.07512673479872833 0.3036300358534829
31 0.6391429875990629 0.958156063436571
32 0.2246745489977584 0.24289119089251365
33 0.04660633513598533 0.673510953868308
34 0.3147070589153692 0.5453453458924739
35 0.8217313092199563 0.4631265428242326
36 0.10993827963027303 0.09368251022036889
37 0.19048523803851847 0.7262060705930924
38 0.6843584643183305 0.17108963664269972
39 0.13485800363797984 0.2655707815281668
40 0.05722242063084648 0.6594351989031789
41 0.7919045173812042 0.8946730632132602
42 0.9630754576705031 0.6640107488121644
43 0.9380728701993639 0.8632675893289766
44 0.6356636584555111 0.8962120140827987
45 0.2867010598742006 0.5722657128130136
46 0.2852550404547991 0.23935411870913514
47 0.9408039074776439 0.8227119335350348
48 0.29501243035996527 0.2272194044499053
49 0.4874999337118897 0.6708919193251724
50 0.10114249620490023 0.1791982302443207
51 0.16692335902600797 0.5148196669369234
52 0.6011402902509879 0.15751169319972458
53 0.40538115255771956 0.03428081889399548
54 0.42265699509333343 0.7286828808175598
55 0.4054625977023826 0.807755573458847
56 0.15813295247911197 0.13292457107995392
57 0.6671107539138598 0.9484187238262562
58 0.14807642731082293 0.7291700770077545
59 0.0642365351014208 0.5481725330387525
60 0.41423216939321816 0.6668012326074776
61 0.12454689352319792 0.3768189008331615
62 0.12985347833914918 0.03925452705367305
63 0.6645432264731189 0.5282430351765013
64 0.450173209700656 0.08797807697099813
65 0.8892827509958191 0.656774977612432
66 0.6892126334386766 0.9216724855639424
67 0.024654670632900832 0.6772613432731772
68 0.1042947988203965 0.5475650429553165
69 0.1208182342738453 0.11161040372131592
70 0.012888358961112067 0.6932779930751198
71 0.7645155936278565 0.9839965636490393
72 0.9362514313089328 0.5043803227425905
73 0.9503955760384423 0.5823667633714404
74 0.47401088806594394 0.3262037347978102
75 0.46847695365563724 0.7237247047706158
76 0.7501716500218525 0.7268110728352678
77 0.5607604433474569 0.7309857432288593
78 0.2488800015150069 0.06578508218278845
79 0.8182543682429128 0.8047668208241517
80 0.2413596594882913 0.6640142753868602
81 0.4902754662484512 0.4669176627046625
82 0.525489054925107 0.3334377747014897
83 0.830658400107687 0.9002837059559907
84 0.16261116531394004 0.6323946206235133
85 0.345899348501 0.6389443113136445
86 0.9816045834268371 0.3271796742160902
87 0.6799871502063156 0.14052722223080782
88 0.8760061964219127 0.892893298265889
89 0.3641220184485259 0.9087729452433807
90 0.07730296953678206 0.898759782923898
91 0.24766595063585461 0.961827791773082
92 0.18632998249109678 0.6138373542400632
93 0.5018776730077502 0.8045082736952238
94 0.4890351354650805 0.47189501141803847
95 0.8697077596653071 0.2230860205819013
96 0.6091842416452133 0.9295219710643532
97 0.38462559530174856 0.7056498577840056
98 0.13481032940128723 0.6149970605513645
99 0.18068398284553577 0.10960783166516541
100 0.18056152762366995 0.189226047181957
101 0.09902837199461723 0.6849499877243684
102 0.21851028387993476 0.20476167519849353
103 0.1600276003815776 0.389895787820999
104 0.27837699989764586 0.20493130399972037
105 0.8411801515581715 0.039914919024598206
106 0.33578257736035344 0.1841149919732371
107 0.0068831342229763726 0.3230189099310844
108 0.009514667090392837 0.22540971809441313
109 0.8663724350164939 0.4745002992036568
110 0.1087601385104644 0.27206240730534925
111 0.008150378614341647 0.5802999233669113
112 0.42040568445485105 0.9843973187314573
113 0.08257787788469595 0.8578503056000277
114 0.04352210682906843 0.29942935732383147
115 0.9406540548240517 0.0824359791955811
116 0.4829479808983792 0.34380284134694883
117 0.27079468818542074 0.3005146456947936
118 0.10794663761644618 0.5971691064559628
119 0.35494781022759325 0.9239456793657921
120 0.3202107051349221 0.8290741649719428
121 0.5954607417234715 0.062909530395176
122 0.6924187650617379 0.45631391649544284
123 0.9941406557295343 0.044678453874556046
124 0.48422184471037777 0.8349366703801162
125 0.29992621033144795 0.9975970047168756
126 0.20274457681553681 0.4106243223117868
127 0.6266865742055354 0.592086849927036
128 0.08229981528280439 0.14903507016070316
129 0.9110490849936174 0.6269096286252334
130 0.9955174159558605 0.5958140329384342
131 0.2634811126005756 0.3468462705856382
132 0.6681336853627597 0.6967863857459367
133 0.5653051609503635 0.4535812179296451
134 0.8877891012591955 0.6021831720365316
135 0.4658713961319788 0.5260456396053644
136 0.16332292128884596 0.7996273720908638
137 0.06508697023695353 0.8986594637765632
138 0.20629651403783733 0.7629104400908254
139 0.6059266909687206 0.21073494158405115
140 0.6996859109665544 0.2389787943615258
141 0.039557113710568026 0.7928430873835263
142 0.22365763559293894 0.1708948429895869
143 0.14963376680432383 0.1837370113109168
144 0.4220022188068503 0.17395585238599232
145 0.6428500241064934 0.47301847802933483
146 0.7956792605391926 0.10528477597108798
147 0.8308371283276131 0.2687474634299585
148 0.49224404753625606 0.6389439230043198
149 0.3758858037268733 0.49202528358475284
150 0.04918982095266278 0.0961662874658592
151 0.14124983702529548 0.8215775898124352
152 0.0016983821361626905 0.11167573022146493
153 0.8301063131293658 0.00786848747136526
154 0.8170314733850947 0.6482259314266345
155 0.3993156359037644 0.8251610550635267
156 0.8871448463452143 0.9235618000227857
157 0.05308185994159764 0.5077236160702985
158 0.9439694622560523 0.05782272402567645
159 0.16540963954641008 0.846701531283445
160 0.24071882415274348 0.031130982486468284
161 0.37876910445794065 0.6745031461045877
162 0.3638449870290609 0.7013226357196302
163 0.22673430155266838 0.8650684279638966
164 0.7279197410793079 0.4798135299384775
165 0.6334427568643806 0.5466446496647553
166 0.5730456149687042 0.5180443693069623
167 0.40612065856612856 0.17721940630038813
168 0.9422625328492912 0.8214767957178688
169 0.9480047028474942 0.37652366103478097
170 0.7373080149506713 0.5209947288977345
171 0.4785795260622503 0.015168674759419076
172 0.42499075718715607 0.7777850996642299
173 0.6866109226467262 0.9255369999633338
174 0.7966226988502854 0.9973189525601868
175 0.3536185564038825 0.4077752002263343
176 0.25656537977429383 0.49595524597015783
177 0.8235347818337658 0.87875381004986
178 0.0423867478291734 0.17495120907464012
179 0.8705302018092507 0.6889194399173524
180 0.7782398116311074 0.22312602320458108
181 0.20371581685906004 0.6245086362468579
182 0.44335336429042904 0.7188416197782072
183 0.868591433352084 0.1903864464080468
184 0.043152424957462854 0.20333017300642886
185 0.16294480208621576 0.05287957129068943
186 0.6857662129549472 0.5452209844571746
187 0.24542998776246605 0.13474427149582047
188 0.4963868183905551 0.37601279923684927
189 0.21991915410313423 0.5405518197709388
190 0.8012499771062211 0.9349279724058912
191 0.7519686456304275 0.8866372612825107
192 0.00017199042178284163 0.7143405757054015
193 0.13631142807468255 0.27117997491432166
194 0.7192435054539315 0.43230788547100385
195 0.7210526008988296 0.15138831757270943
196 0.6092727651005775 0.1949424086893834
197 0.8556488700571597 0.6236056715259549
198 0.5116531086538653 0.443697297452352
199 0.3077734662019822 0.6868223694556158
200 0.2755240494715464 0.746065626137223
201 0.09487836384341053 0.7709273735497285
202 0.3161698549847296 0.8124583662695212
203 0.22460000052012508 0.02263078216376857
204 0.7904789185656791 0.33437976274956005
205 0.24931536747329697 0.9030952598430515
206 0.27554570263515643 0.14842994715128766
207 0.3441888447285416 0.42361399013862855
208 0.7493863907563845 0.9601833213071743
209 0.44934847552626744 0.1568982989874631
210 0.8737290687434464 0.9938542022066726
211 0.9850962493587002 0.44030337958355104
212 0.45873811751294047 0.28178080406723427
213 0.3525464449981047 0.8572002574567984
214 0.5034862213441358 0.6843103472994485
215 0.40143498228464713 0.8871753581933279
216 0.883301852412901 0.03211276625462811
217 0.6369467538739509 0.993069237287892
218 0.9182818521599161 0.6426957077321082
219 0.651001864227514 0.5478395867959309
220 0.683717709719629 0.9047047724729227
221 0.9756630520423603 0.27947939608623495
222 0.2760538836970988 0.3108494253555528
223 0.2971946789040001 0.874725077181198
224 0.8813784838974141 0.87795587629602
225 0.47808248693453637 0.4795939515302826
226 0.6066790749632412 0.030647022737572915
227 0.19954566888220715 0.5308856355536612
228 0.24744078863297003 0.7912532888224443
229 0.7894420158182551 0.868228192326121
230 0.7207884747350808 0.2526782952849286
231 0.6290948699335412 0.2512116321304566
232 0.9059451296352217 0.9380628831003005
233 0.5680624621775738 0.45649448837820317
234 0.6777714309225631 0.6105990606182976
235 0.1647703827433299 0.18096626963584006
236 0.7358756062641559 0.18469964941994899
237 0.0023493467022384085 0.4563633505391379
238 0.7671140049834714 0.13372936871726404
239 0.3652549041526012 0.25275513882251055
240 0.49757143298842466 0.4100847072914957
241 0.6259101335283578 0.8026353277605218
242 0.8507058112396143 0.8790747493586815
243 0.759011169425777 0.762788739941919
244 0.1938650460650766 0.5805548423409175
245 0.768617849717942 0.20274364404691125
246 0.426383304213772 0.4260844887241686
247 0.19707111048401416 0.5225306657411539
248 0.7324092731000839 0.4934938647514121
249 0.7655128604461621 0.8669704299050834
250 0.9039550551775583 0.29061685127077563
251 0.9035082446958069 0.41434179934797166
252 0.8348381914859982 0.700906248896126
253 0.6040683352273241 0.683627195366635
254 0.43706070225340354 0.9115568898979889
255 0.15616358959611598 0.38461920898585156
256 0.9382296313368952 0.44570251205575817
257 0.2421529867981178 0.56594486373988
258 0.9320622195053783 0.9960936566069174
259 0.33461321543475 0.03582029402766018
260 0.6347790740346567 0.15213850642843285
261 0.9780876041199823 0.06953704041777908
262 0.5795870128553575 0.8701801768452659
263 0.24786987772552782 0.4672889007403578
264 0.8773591661576934 0.201605227089509
265 0.9295388048357247 0.10809270158184692
266 0.5317689135872166 0.1381317152022309
267 0.500442506510692 0.06312791824522002
268 0.6830737387293406 0.858120310132916
269 0.43902435580017085 0.3699011525566993
270 0.6726988340921881 0.7924933608974394
271 0.07427167187689954 0.295077687693417
272 0.18373553351659833 0.39131870063176066
273 0.8957765732457359 0.7149986637940492
274 0.9842828333819055 0.48574632378622207
275 0.689992020883374 0.5551339290724987
276 0.45820590887342927 0.7410854738246372
277 0.7865563572245314 0.6730578945963368
278 0.041097411694902 0.514223588579459
279 0.40709212111473103 0.9906480957680434
280 0.18404939319087021 0.9143305795429183
281 0.4960621082355795 0.7359898721885941
282 0.24621617962794662 0.2664784899681206
283 0.5469757571350976 0.957811882424676
284 0.019665847942855086 0.5323914261330095
285 0.7160030932193622 0.3782625319319405
286 0.5081901760457378 0.9296820898451228
287 0.32841269558882147 0.11633767053171251
288 0.5036799441790404 0.7988700127077615
289 0.48260691635639896 0.4022086183611585
290 0.8451686087114864 0.4402074404217392
291 0.5723558765953801 0.670668767295937
292 0.7257091402726271 0.9509573440274014
293 0.5481927789223694 0.9401859035749672
294 0.46429183543724206 0.590853559874167
295 0.2970902469955352 0.6978833847457905
296 0.5013831514086657 0.29296632439987025
297 0.6023039031337738 0.9288115633634845
298 0.96952254766991 0.9692774613772548
299 0.9541367318700458 0.7701505260688404
300 0.5589412785622447 0.631575827059582
301 0.40482830151895655 0.7027457617959458
302 0.10439374277726132 0.4207999672220393
303 0.701169306518725 0.8986486304828567
304 0.23000965623724745 0.8494637389725764
305 0.6243312598672143 0.2738469478417652
306 0.08726768258088091 0.5288935934190175
307 0.9556746880245244 0.8170939804527311
308 0.009319196375601635 0.8825740470212275
309 0.13110703114103173 0.9504515612077922
310 0.3032322676049679 0.026081588365362895
311 0.16962728076140365 0.4534361258502201
312 0.2522026865477671 0.4764461708985731
313 0.6250260767269264 0.5118069021445217
314 0.4075193406699039 0.06004497726682001
315 0.7131251109370055 0.103967646992708
316 0.7420329221441169 0.6976458033822913
317 0.5569258922922594 0.18776148859634612
318 0.8002278543023963 0.6015988399217505
319 0.5456809297401645 0.5998775692423657
320 0.7468582607058657 0.7450730757692549
321 0.9671284709362529 0.8157058336128826
322 0.07324795366446446 0.22109043467311384
323 0.4805614350234275 0.33349480698925327
324 0.8536233041251936 0.2923055749216714
325 0.8455797535027811 0.4293895862336279
326 0.6901609333231039 0.2238099924434609
327 0.35753199833174754 0.5238674496906068
328 0.49667352674523 0.25611343198885617
329 0.7122707299526136 0.09409211884127255
330 0.9273883218287229 0.7917173227024276
331 0.22088504466226322 0.20853598756697722
332 0.08347412100340368 0.15663236316863893
333 0.47375314673937263 0.3366363227929131
334 0.7718685292602098 0.6754384151217698
335 0.546020126127675 0.6559745295679283
336 0.5944336657403682 0.969571418157308
337 0.12305044025875966 0.4647573699166473
338 0.0933944970063233 0.6392342498560514
339 0.04023127140172167 0.3363501278331673
340 0.5439519274749351 0.4136709509559834
341 0.35768043634770363 0.8983501518487114
342 0.9636150780690088 0.8067706798662235
343 0.6235067908825375 0.3399660099800337
344 0.5477478537050773 0.7289889067835075
345 0.5120512244191728 0.39434085107928574
346 0.3311416096152071 0.8906797759524266
347 0.16061164004630935 0.8810913379232407
348 0.38367702750563104 0.7036245380132653
349 0.8579815583070349 0.8049376293542595
350 0.12220944217519458 0.34603589877005203
351 0.6181109951573935 0.45996331416605507
352 0.5053057179706917 0.9859846102510619
353 0.890469547903902 0.46329019920664294
354 0.2109139814983383 0.8964672088877902
355 0.6399932163248659 0.6414963236660752
356 0.4610723910567124 0.3200054560849821
357 0.5892166483661172 0.7691998851613575
358 0.006323025675966876 0.2322810583040743
359 0.36393573730345696 0.5677023952961257
360 0.43050445370008905 0.2817733899063757
361 0.34621071155138594 0.15770159340425494
362 0.6521122845113559 0.32081813305018414
363 0.09781187817870385 0.2054902544695476
364 0.1071924829340567 0.7804151793144591
365 0.06944245442978858 0.9528640377022269
366 0.8908710398945024 0.9647084924151164
367 0.2908983966299695 0.6280800434401411
368 0.4899908875251966 0.9040388109148468
369 0.8897142127231937 0.22253262495609039
370 0.019179068083513773 0.30210758452456443
371 0.8646815946181743 0.2640895224097065
372 0.48844307188750935 0.23527607369863845
373 0.53286239332701 0.03264983826172285
374 0.5354544827088171 0.32322817904101786
375 0.8703833988106162 0.28333979170990387
376 0.904310077263087 0.2141929523246322
377 0.8086110560190936 0.9049859525272815
378 0.6907742661531046 0.7350638509862277
379 9.708104760786096e-05 0.05542460559685747
380 0.7774244751817052 0.8048489437115487
381 0.5085236958235902 0.07416959949569446
382 0.7059099467824942 0.2336585917119235
383 0.25229543361974627 0.5497877810756234
384 0.8430636759315799 0.2968442774016192
385 0.6374322076878899 0.4276817153997783
386 0.7788285142229935 0.2821941087225859
387 0.7384625254760242 0.08743985155295719
388 0.5652008302008744 0.6027346549197657
389 0.6002737102190929 0.8265650692108664
390 0.20954585038347595 0.6403162936614334
391 0.6845620932762019 0.9894521067373063
392 0.4919668891371274 0.012714475957821603
393 0.49729646954576545 0.09686897928785221
394 0.1303620108019834 0.22138916908883788
395 0.8493015708492081 0.4410537052018775
396 0.5156649328091798 0.32689593894708
397 0.7486007851250625 0.19090436120834264
398 0.4843462015506922 0.5818786205771413
399 0.021529546550122625 0.6442721948031999
400 0.7242204714706886 0.5710557254619236
401 0.00789623283318408 0.4483936989278936
402 0.3064690234119267 0.9540892489047422
403 0.5513039467320469 0.077080559737144
404 0.7144220395372752 0.43903618828258684
405 0.9991763665233638 0.0735996903798567
406 0.7923259352184102 0.6035300003727507
407 0.3559348864170814 0.7129593482595326
408 0.44731944601886753 0.1418390040675943
409 0.4364697409527496 0.5566279964489732
410 0.36071426451746447 0.8082075984490873
411 0.22203698665639182 0.14831734258826623
412 0.3744939701046961 0.15308025675224823
413 0.305795971794808 0.553889325219447
414 0.697245252227206 0.9253608291204389
415 0.6021791873751627 0.12280301304154984
416 0.025230294197529424 0.21279632818055028
417 0.7581387177205317 0.5914157354542465
418 0.021395048235065217 0.8490065165182824
419 0.5347746167282781 0.6487672379471742
420 0.34861595100849263 0.9476004549234355
421 0.14618774123496237 0.3467093469693868
422 0.3550395204536465 0.3950928399354535
423 0.3011925503078017 0.09640798487396751
424 0.8474752034727324 0.17497602306932958
425 0.1579326836360987 0.9124978301992173
426 0.4900601316319253 0.5711626438201343
427 0.43413983344270746 0.6352770323502761
428 0.8187436250170443 0.5362828130532469
429 0.3558759016786913 0.04115867771818049
430 0.5178266902467777 0.918867785883998
431 0.40132579098654975 0.48139387098402564
432 0.5222859503680377 0.42802357068240726
433 0.2176963569492636 0.7494453072007317
434 0.5882965004112213 0.8438475280602749
435 0.35415640772910206 0.7047709133653207
436 0.9012820996998496 0.5459871472215124
437 0.3280499447039831 0.7432018619427971
438 0.5190718566544567 0.7451167429124252
439 0.5791844788726531 0.466726292789034
440 0.03294825083377528 0.20510832804445545
441 0.9921402087303771 0.005836893324161818
442 0.15100867019903208 0.39778029912465995
443 0.2503721935796459 0.7742639447441488
444 0.16953878656095922 0.6502248248279012
445 0.3517779004648748 0.070897283362929
446 0.678161767799909 0.09358163491977134
447 0.97338952636669 0.30702644308103133
448 0.3113751064051986 0.027341336604563282
449 0.6276948359053698 0.7552661730729296
450 0.9459918204858841 0.2887377839584442
451 0.7074745619240906 0.3857741117709411
452 0.4809749954965551 0.023465796405835238
453 0.27681321154622773 0.8419794134461492
454 0.40317301691823426 0.2161574344966739
455 0.004444636669899582 0.5024865524542156
456 0.8483657966033085 0.665281545038211
457 0.4002601316438261 0.5687602178400768
458 0.06638710306393425 0.6970692762451245
459 0.7063312654390645 0.8339349981338784
460 0.17646202320548066 0.6685385024093229
461 0.784332194196711 0.39275764080563924
462 0.48923803367235863 0.4053483866323455
463 0.9298425630942945 0.529689832945913
464 0.38863933304326914 0.7615658784704843
465 0.22691528703364383 0.11359444965000476
466 0.7389282526927881 0.2413679421380912
467 0.48186715932030577 0.03983816794694772
468 0.7623897396200329 0.6272924829766078
469 0.5427955298495155 0.32887494602999434
470 0.6820719410271291 0.5713250067909322
471 0.9119715198791901 0.894618418762804
472 0.5049163431383664 0.6207494070048565
473 0.6256139628776232 0.17348392403920831
474 0.3791919649043203 0.4345915721392519
475 0.1717907571906464 0.6137027071852429
476 0.4323062838813202 0.6315952646016058
477 0.0236020234969454 0.27469492767707815
478 0.8035593676049737 0.759216367355444
479 0.6508012260178212 0.7834570782600068
480 0.2751358088204876 0.6823389768009221
481 0.42714602410191305 0.7279240646410361
482 0.7391500294452338 0.4708022580559875
483 0.0060698225713008425 0.8357640840398474
484 0.6606768622446496 0.20353727301304336
485 0.29533290760174946 0.8396366264268404
486 0.3204798502138556 0.3262658567877682
487 0.7768914357399965 0.01902119721961637
488 0.6984106943697415 0.40715267981834224
489 0.26535019062656506 0.13015535468350825
490 0.8294676216317911 0.19036812942166392
491 0.7362119086912465 0.08466701623453188
492 0.1287364747418419 0.6221561049910167
493 0.11133932807340396 0.9152714879338495
494 0.500232393911794 0.3372770210888366
495 0.2457055605568902 0.7962798404336359
496 0.3877274099109862 0.15897708627788032
497 0.8663624153770859 0.2924208750649644
498 0.7836161980999096 0.4655589823201002
499 0.11869266266693701 0.82126145544831
500 0.8584711862874201 0.57467400161658
501 0.40304184092608364 0.36930850559445494
502 0.03216325350846516 0.563723333077502
503 0.793566249992004 0.9443686225402139
504 0.441567382321976 0.4429980784037416
505 0.7632950847887826 0.9746634602882153
506 0.54520635915761 0.3583914272996499
507 0.5934671311632534 0.8908514334547717
508 0.12494592726329201 0.32211315725808953
509 0.13981701698541482 0.6232018679363799
510 0.6499594832755922 0.5423184930354905
511 0.2596733124912013 0.11672416974421262
512 0.44343155247628285 0.06351779777186206
513 0.7743871833376599 0.5205378078782773
514 0.15076197712776196 0.7621961514240987
515 0.37875950574185413 0.6804781609089302
516 0.7351859913374811 0.44097379248000157
517 0.10418374034933897 0.1389736995778077
518 0.42996823619371094 0.8004318093202373
519 0.13894339109568588 0.5789866262931117
520 0.7822483130664936 0.035511785240377014
521 0.6984266773895981 0.5269312035807784
522 0.1886953592548002 0.7793644063431426
523 0.8256072636469128 0.24340325969130128
524 0.5185217781445727 0.6284395278029995
525 0.6566059339712316 0.23221438676485906
526 0.5201298557607532 0.8013230162687346
527 0.711679890264136 0.18806105012396768
528 0.2241059770875229 0.12313627657939696
529 0.9952914717932205 0.3047913193707331
530 0.3787571161484513 0.4445117415240504
531 0.6468727457407776 0.4809439014624065
532 0.988123117729364 0.4170840787113729
533 0.2582480478545838 0.5294162848120224
534 0.7280582035170957 0.40201722507991067
535 0.20177403856130605 0.020625290025601095
536 0.8467840789335008 0.4035861172540356
537 0.2734775441664894 0.9526458788127447
538 0.05691095367292509 0.642420125113672
539 0.41304458957767354 0.460262790102115
540 0.7100302842038382 0.4050856447962913
541 0.6807506394301306 0.41412304619743356
542 0.46366838282667633 0.07526650348875119
543 0.5133270286864886 0.8117655245148983
544 0.7492687998924364 0.7712789538674745
545 0.34883270088674867 0.07570330549376436
546 0.11194655390190467 0.39097137655056624
547 0.07636681381899146 0.8331253766091119
548 0.05376051248918501 0.8380771286258969
549 0.19973626523918198 0.8293564492683018
550 0.052443780256765216 0.5160988371892693
551 0.5904377734581673 0.3084890867613551
552 0.17779148787591892 0.6393159661201028
553 0.3143876201159045 0.9177685575962068
554 0.07805770894607078 0.5936408306677823
555 0.517945621863397 0.921958439880055
556 0.539092559111862 0.794956719814704
557 0.1708566708776661 0.4181891968264676
558 0.5136578162699322 0.029081221713289196
559 0.9938915026354646 0.333289259042026
560 0.925126706674946 0.9452544392608109
561 0.9845346566357464 0.5861021945807905
562 0.40115835947521383 0.8535956198956657
563 0.233882023090079 0.6143447497762807
564 0.26210194845839707 0.5198989888603553
565 0.29465011002989283 0.4500875672106024
566 0.811381026812563 0.8356560710010031
567 0.55681734080381 0.8385437376168667
568 0.6454051860554217 0.12252958414798099
569 0.9094672566025798 0.9714873393109947
570 0.6022324336754306 0.687189547264065
571 0.9293130913307699 0.7967197666894867
572 0.29384603237291385 0.9811305168568033
573 0.48094382030563576 0.09718274016161887
574 0.7973143490108159 0.8403489364651361
575 0.9388298108431014 0.2116130861058756
576 0.18737027289302688 0.05175582373608145
577 0.8959231588216736 0.2892752099511803
578 0.15352026294284682 0.5513903756794454
579 0.7067892151640167 0.784826346934003
580 0.7745798694776371 0.5147414314648152
581 0.16284996462389134 0.24843976872971973
582 0.14611808668852377 0.10831453201190933
583 0.07384346748183113 0.3172179736477333
584 0.8477693409268476 0.2832643776718957
585 0.6950454597620314 0.9534905537613917
586 0.3825575155997647 0.08582902353172239
587 0.6857968350475487 0.8033522630058235
588 0.8857865448239859 0.23118434490422057
589 0.8383833449111427 0.3159799206397801
590 0.12082323132979522 0.605952579065225
591 0.4985678657276913 0.5795333220010103
592 0.8888178139268395 0.4563919396321484
593 0.9917614759220312 0.36404171736130575
594 0.3946257181340166 0.32730067245321814
595 0.8290798125072808 0.45894642097538163
596 0.11246699707598085 0.7042186580801028
597 0.14780308325743685 0.8990478362030995
598 0.8007975428956526 0.7218339097424717
599 0.6611574768858187 0.7028692373768433
600 0.9260114536103872 0.8071319839156418
601 0.3727647118137396 0.10438217803874861
602 0.724240360483562 0.8553690667669116
603 0.9934011268071495 0.26882594830954765
604 0.4868342159893957 0.405231605566173
605 0.5573293300741158 0.7251350978195282
606 0.5387384223124451 0.1767549964517755
607 0.27008773379179274 0.48708151212550244
608 0.862256918166187 0.711087172918267
609 0.007521680438855705 0.31953693996331445
610 0.03271877362865594 0.6516539433148654
611 0.8467206346581141 0.04008505794023909
612 0.5663763265877825 0.13991018422799018
613 0.16218273138467598 0.6126883537530374
614 0.369222661431548 0.5719255982717563
615 0.39748995360504613 0.4549212935738629
616 0.7355656537059374 0.16841566804980157
617 0.870984128429425 0.8071048741875997
618 0.8437578886585138 0.23390332219323196
619 0.3443406571310057 0.07537631860741689
620 0.06749981480547729 0.05878676216920309
621 0.7955040801704792 0.8843412012236797
622 0.7400390719094987 0.4263380869195883
623 0.5676103495341009 0.3982855005060344
624 0.01717540396798356 0.10034931949162162
625 0.4159817487569971 0.8326873807556541
626 0.6962070050709229 0.8774281073692738
627 0.2540120159669331 0.3389968581864822
628 0.06997188871622384 0.1591140724200465
629 0.8058577240456605 0.8396631837373166
630 0.8604955015875342 0.32172866741110173
631 0.6854984942074038 0.7789969485028659
632 0.7314223883929771 0.796529565130725
633 0.39746345669396377 0.12066882264563317
634 0.7355288011442019 0.15501329303626132
635 0.28896195336797725 0.791634434729116
636 0.6748657022265468 0.23940764320604258
637 0.7854261422347001 0.8938158445930724
638 0.23689378279101414 0.08189302282275723
639 0.3581337787289137 0.738358260094211
640 0.7247040039779502 0.07052340245517696
641 0.07029577581683033 0.42241611264071943
642 0.20492061002909245 0.08985410326598442
643 0.8076865225347863 0.9588807156275617
644 0.7202157545540382 0.10845400510140457
645 0.38926680713385275 0.7448544853612337
646 0.3728589060498775 0.666912357285222
647 0.8473123525949204 0.19879002041648908
648 0.7782152452394052 0.042165567644318336
649 0.7687126095388158 0.4627498453361033
650 0.08103373263493019 0.20859969270961043
651 0.8902876325311582 0.2575176496587759
652 0.8073949814182847 0.7911968108175547
653 0.2757127056273232 0.04097919685036755
654 0.3334717351723657 0.7049909453307183
655 0.9959056342455849 0.01626209526415101
656 0.09158830769690929 0.20877241311978934
657 0.4668364851635334 0.6835575343083657
658 0.2522675137508549 0.307011694106486
659 0.7631518756675719 0.8451378793479061
660 0.4203032335826732 0.33360999135286074
661 0.26379437239665315 0.20564861689822156
662 0.6076861524619978 0.9988111305530969
663 0.2886934117061877 0.27702188966628505
664 0.761288384244364 0.470561393536409
665 0.8355656679369087 0.3161138664133012
666 0.048450405720210865 0.9558369459424828
667 0.288409998319092 0.404161076239537
668 0.7200243914782845 0.5499602965499013
669 0.7630851512419045 0.7365047792393826
670 0.3283294437829499 0.22850568299438512
671 0.12101475921823057 0.9006285437941352
672 0.7548070090096578 0.5579063698970431
673 0.30634390168196246 0.4717466766870423
674 0.5781235726404363 0.9209708194982913
675 0.01963003921233908 0.4186017858341873
676 0.4179211230106955 0.42527931186399015
677 0.46728771800260305 0.6003367387651003
678 0.4367116876363576 0.5312698970490861
679 0.7470293781870954 0.49488445045876894
680 0.5985146273162089 0.5277677680071424
681 0.3757070878705976 0.13275238401959533
682 0.11840929315688375 0.6069372065819943
683 0.4291330824125045 0.0944291305853655
684 0.2919857222786747 0.06926491986705219
685 0.9712187782696325 0.7698905208344721
686 0.40603315288158626 0.6530682442677154
687 0.44553273872612553 0.7680833864478378
688 0.6701715501526827 0.5288759813316968
689 0.6407296519828267 0.6433668310771815
690 0.2528121229545871 0.06606584892284206
691 0.28439333822512836 0.1311361086040398
692 0.07325773532644708 0.900574097876689
693 0.9464621815220584 0.38019752632678594
694 0.5522632665974114 0.5932051198709959
695 0.6638666732883639 0.9452045698583786
696 0.9242176010899592 0.5777593528247921
697 0.6947362246424689 0.8339068782334748
698 0.3492573286708742 0.3438186586797849
699 0.3714992570334994 0.5486295143102102
700 0.5137642862336798 0.48692613437575727
701 0.4592574586639403 0.2297828995040977
702 0.015500359909952799 0.5460257492204167
703 0.6199256230208072 0.5272426776440835
704 0.45167344912338225 0.7949416647672848
705 0.8514850803207217 0.2721005742280824
706 0.5166381381089984 0.7384267224904315
707 0.60303821253476 0.03776070512898999
708 0.8221826780650402 0.2988974427207144
709 0.8256486717538727 0.45177115368515663
710 0.2549545635529251 0.32956917591249624
711 0.26314375301441684 0.07803209265802591
712 0.22719722685813304 0.5933772903287711
713 0.18015335742105398 0.37869186993816284
714 0.05661787754129899 0.011208423160601333
715 0.24057041663441436 0.905370694905294
716 0.9186432804333847 0.6559852071741841
717 0.9459746082721383 0.45140296979177164
718 0.5830324859487579 0.14838135065750824
719 0.7586030441690144 0.7745792930807662
720 0.7586081728744737 0.09030438996439782
721 0.3564338660217149 0.718309874174073
722 0.11540378981605126 0.8271986704023462
723 0.8959242356869983 0.586632600684059
724 0.3289437692854883 0.3891359245903969
725 0.44969397700430647 0.6296421534739658
726 0.4923858439947538 0.16541284222554464
727 0.8280532117661294 0.1105936122363852
728 0.8324596282612605 0.2218803492660324
729 0.43345281298529126 0.7449838810274212
730 0.07145432268599483 0.951146272092478
731 0.24733228835730936 0.49299894733124316
732 0.9252738251478076 0.9233763483806857
733 0.9548201941532009 0.712705924500338
734 0.9379055207585978 0.9225196626123827
735 0.9862189166217017 0.35337652651974016
736 0.47282287323923533 0.3151373458162986
737 0.6336220992323184 0.7732608015332533
738 0.8870912728866044 0.33651410937403836
739 0.7004937302256206 0.3039222482072418
740 0.5586332358438268 0.19981904350368385
741 0.41966084938974557 0.060883893592002636
742 0.566848821896964 0.0405347239398528
743 0.54097807579404 0.20076753057378205
744 0.7344671212808792 0.4374991184063618
745 0.46470708338005884 0.2131732687154526
746 0.5216415774477834 0.8252289550287903
747 0.6283570037481697 0.1932560049625096
748 0.7201173826584354 0.49508514847151197
749 0.20677392541015105 0.8882975162721396
750 0.570483363423183 0.2228648134431449
751 0.2287650492525839 0.04432683223517753
752 0.9873074846191677 0.33461195915376696
753 0.3517448958195415 0.5056869284528536
754 0.8214811650544691 0.9680957093454807
755 0.5278766854848591 0.011518589229970067
756 0.12464679582894034 0.16344409668944393
757 0.6156852293644435 0.14980774545578746
758 0.3503977841138003 0.3800993554491442
759 0.47464313802892233 0.6118726221898426
760 0.4109256393237267 0.8301820363751758
761 0.11948111338980583 0.4599247571921816
762 0.6104682105252801 0.887786671324958
763 0.11024594784291553 0.4587627686253979
764 0.7221168722945194 0.25937418660840217
765 0.4858471768440915 0.28333159329149815
766 0.4551831636644069 0.09708276676625294
767 0.8073094373993549 0.05118153774192258
768 0.4184653646361901 0.516598195954089
769 0.011129488558945133 0.5439758149540961
770 0.6622809943952397 0.6980960415583292
771 0.6002606970380104 0.6050095918561581
772 0.3993006184692476 0.12920561565254773
773 0.3492910875665193 0.09577796722331855
774 0.49782493298853436 0.8469352012092277
775 0.6287317025538931 0.551310477085778
776 0.3059634179904379 0.2218209891830113
777 0.6518885407355052 0.4771804503249928
778 0.9064845809390502 0.13738392926945397
779 0.3838967557644041 0.22996794402938747
780 0.1628613709840221 0.19053870880877788
781 0.4223217875613461 0.9996300558917673
782 0.30329755593298013 0.66485720485581
783 0.4873048860424952 0.47728321880502633
784 0.048446407770553535 0.7990081016863859
785 0.06948623905677542 0.23020170669020645
786 0.2156463660122916 0.2150172372838549
787 0.9160580246336578 0.9772211406158139
788 0.6137812890759741 0.2638943227069911
789 0.638198912995428 0.4585728864516436
790 0.6407346702799641 0.6268476311400434
791 0.08935140419163601 0.5149763734769085
792 0.6525191559786175 0.9461482784516566
793 0.07812654888498982 0.5068689846115684
794 0.5620715333788587 0.6760328576574649
795 0.07627277441868918 0.7840043694294374
796 0.610440817531137 0.8421281609204038
797 0.7918529698466671 0.26687367889199765
798 0.20302583383609596 0.0804506108165981
799 0.3747567540769444 0.09932201743214875
800 0.29313395775655515 0.7766188034578293
801 0.24212786709117218 0.015411092618616618
802 0.034561903937350924 0.37714707996411845
803 0.7727413842147378 0.5450891874087211
804 0.01114742551380088 0.5479281499324228
805 0.9229901063746253 0.3470539873293025
806 0.903277048211592 0.5040944174679896
807 0.241191283367152 0.19680131746921214
808 0.41155713698933427 0.7124961601924783
809 0.9308771714609171 0.8535171641647362
810 0.12853747935517779 0.795325092504793
811 0.03986715644623395 0.29759865095646565
812 0.7272092548742801 0.7007885631517694
813 0.15922296203861608 0.3087361049049201
814 0.2040754514031372 0.6742215614621442
815 0.04041999047377587 0.12770398399981864
816 0.30038303694905555 0.6446669583846785
817 0.8252427832841618 0.8471226451759367
818 0.5412721375846582 0.9616112338026582
819 0.9967950516132493 0.317391782636261
820 0.1789550372141735 0.7247816139310632
821 0.2883721224005463 0.8537124477089061
822 0.7866374876625859 0.2556649781905663
823 0.08684328037700118 0.8617867492849746
824 0.619205884693618 0.20287770308234998
825 0.6709764549437913 0.15163433580567243
826 0.9015506445842492 0.9581699258830083
827 0.13016065903988672 0.07617605762237534
828 0.6717686930708104 0.722685191941115
829 0.24009013269684054 0.09995500264267299
830 0.2880284374800449 0.37531770509516105
831 0.8030645132089472 0.47785315795932115
832 0.5457742908390625 0.2891219473047725
833 0.6648932481199056 0.4175695188469304
834 0.3052170597808931 0.7621889113216781
835 0.36981519707787736 0.42996664458027145
836 0.9826850269274825 0.9554782063685897
837 0.35654405452367743 0.16113059655178874
838 0.4059082400791517 0.9246461469135261
839 0.5973636623785632 0.6694663578840908
840 0.3031884266232763 0.989780141379284
841 0.11752736851848922 0.09517376394154975
842 0.3161965355293379 0.165448708210869
843 0.5436310368420341 0.8990715864416211
844 0.5878101105296425 0.3271680818177045
845 0.41262908330232984 0.5822825378635373
846 0.43211806806728825 0.44897028600747
847 0.6519819811587211 0.12424292885722432
848 0.7822939398213005 0.6305269285491496
849 0.6269386458856617 0.8563600928495091
850 0.19312521292701446 0.24679039481204557
851 0.8356564569710043 0.2763466192463663
852 0.024781005281132473 0.009323163818398483
853 0.733611916120106 0.9570156412567885
854 0.2672341638747644 0.6748227134876269
855 0.3171617944207411 0.785564109408957
856 0.8932490308089962 0.19300860605452141
857 0.16828343311947347 0.9027552406689973
858 0.17815647704249604 0.48613463177297056
859 0.63400638053386 0.8769721457528404
860 0.8129684027393429 0.30638804281330567
861 0.2433110648528567 0.11865177712771413
862 0.6664301687678978 0.9837134367911116
863 0.518923878880483 0.7563185732097797
864 0.8895425824038127 0.5244698146146991
865 0.5886590819818625 0.6729467242262818
866 0.24632778849639525 0.7050588778706889
867 0.48817746733047196 0.27707924074054135
868 0.09542747494176873 0.4911832935770051
869 0.9967189723548626 0.016796068484500326
870 0.15715705050222084 0.3294910356451426
871 0.6158162703467281 0.19153008009411598
872 0.7067675730262667 0.6415759081442396
873 0.6037982182941978 0.34655455366528065
874 0.9865966467192906 0.6439261833378543
875 0.8511006488660064 0.6752622578412588
876 0.8558912458361548 0.12702036157409735
877 0.583949433313559 0.015045712135756006
878 0.419321753873644 0.9913280105382825
879 0.976536180390439 0.01780082081170109
880 0.8528949451065269 0.14646690052906353
881 0.19167585394756959 0.5533694508893704
882 0.3469306997034106 0.8005857081224387
883 0.4822697814900102 0.648680497709751
884 0.6858197222789516 0.7845261917261083
885 0.2899592257706928 0.2978895335676015
886 0.9442898658290219 0.4821903378827562
887 0.46741967110172056 0.35332243460890134
888 0.9617128371963145 0.8863605373546549
889 0.1511700113789345 0.6099078379426777
890 0.9162304038099838 0.3578634990479552
891 0.45475621028443913 0.8818241455028265
892 0.7266089149301372 0.862684864141531
893 0.4722197787897523 0.18526837121120854
894 0.6985203637261117 0.9895753218196536
895 0.8824658676350338 0.7332485306532575
896 0.38494338211179424 0.7129137868319533
897 0.688891984644785 0.20872952360588004
898 0.6015296676990891 0.13975006681087476
899 0.963104917265282 0.6814745386675294
900 0.3402951815328341 0.09423604571789501
901 0.567786428945329 0.0967448574252644
902 0.6146872803105329 0.740954923570196
903 0.621687875966717 0.6406515519321283
904 0.9763477060588386 0.06840682059133174
905 0.28447360339805183 0.8621033762199495
906 0.04447732644350244 0.5971005157209845
907 0.4944702152191556 0.5968035251804971
908 0.0020914300185695955 0.09684218770905118
909 0.13015566100846687 0.5859297273170091
910 0.10852360655239279 0.4024863970993062
911 0.07948626595090058 0.9765386146663914
912 0.5659928372780184 0.9012610125761661
913 0.5258663432102456 0.32448961437360235
914 0.12631019955950284 0.5811565754476221
915 0.0914036433288623 0.5364125852584085
916 0.8725369930560942 0.1549719910184708
917 0.7283905031950082 0.251683108207153
918 0.6701499504318474 0.13367956282255045
919 0.1581840971234013 0.3677039674175202
920 0.3226771822340192 0.6431393392090531
921 0.04515211501036631 0.7001912051122855
922 0.08437839872970743 0.48416191255108665
923 0.8106868931290003 0.8491213106742788
924 0.4819733186576246 0.5679089082063625
925 0.9846700882907995 0.12847768261130388
926 0.2831618784630541 0.18290996104124713
927 0.5262062921759206 0.022597797510257256
928 0.10120807419984157 0.8962255185785499
929 0.9962125695684247 0.6248674361845998
930 0.6821875466288917 0.07201650777610125
931 0.4274916899102803 0.7164026349885319
932 0.5163748665872738 0.6038829356972474
933 0.6021549247081631 0.6422158324545032
934 0.3295840496050064 0.600462306270544
935 0.9879255059887683 0.6718398398286046
936 0.08967099041480864 0.979899490982922
937 0.27493549018492935 0.36470688988922784
938 0.20493134935754864 0.35685111229578914
939 0.5940995112982623 0.7414359670067646
940 0.8483820566388139 0.09013913568530696
941 0.7323606384832881 0.6775457031642507
942 0.27495500978945075 0.6545076175751763
943 0.6532628383029433 0.9332622499231186
944 0.07981303379423377 0.41131819722217033
945 0.3772810095942356 0.8354030834084895
946 0.10058192735874394 0.9106135151847911
947 0.33347462664497207 0.9994430539880568
948 0.10262163331740948 0.3621125204809179
949 0.6394250757154691 0.5106270583099328
950 0.8650330371367044 0.9380399955412911
951 0.7855548182921825 0.1336664041772715
952 0.004964786601837745 0.7598410698615434
953 0.6838815799703803 0.6957935358613738
954 0.5134208061988367 0.15820705221801246
955 0.04355733861177369 0.15311528518125583
956 0.570904753613392 0.7896453284947914
957 0.7969240842889114 0.7127721420992487
958 0.4871702676364925 0.10190690055041751
959 0.321395590050381 0.6328976277049649
960 0.7828973879315884 0.9235110737581623
961 0.42579310231423706 0.46405589554533644
962 0.14949326354551573 0.8359570914006588
963 0.10901896069257666 0.4065984782786084
964 0.9666241656084477 0.1009876715762611
965 0.8370776626441458 0.02201806291323727
966 0.5803774151672105 0.8396292604771325
967 0.2600184430956002 0.3477525238627208
968 0.3643184324958736 0.6959478867883592
969 0.1744852296623698 0.17730789359382537
970 0.016473892272046986 0.5791440811941415
971 0.977772911757649 0.6334452036831947
972 0.15511330523571787 0.6560379097148215
973 0.5539312968449965 0.26284203490838354
974 0.105260220939291 0.9241860602657818
975 0.1607275427091811 0.027232660593579316
976 0.39058233424517896 0.9689566294262366
977 0.769743758690577 0.3306034429559668
978 0.6413461272356348 0.90088462382066
979 0.7608024981173322 0.48479614956225925
980 0.004335556815405428 0.22322867363166543
981 0.7575524388977262 0.4545981633732332
982 0.26569145953849915 0.34439174502680403
983 0.670610262065868 0.5498183652666804
984 0.7201832038106404 0.07937373635157285
985 0.8860794180235988 0.1457727058275622
986 0.03412416409273333 0.8481141650807507
987 0.27005226011728145 0.49197001580088773
988 0.9377409454127176 0.0014109985443879758
989 0.029831756766177664 0.5577391119536904
990 0.6785220182761447 0.734912463300837
991 0.9202419293041517 0.16662855629839324
992 0.0326705818479035 0.49531803238999295
993 0.4827582167150284 0.6752306132674313
994 0.21092006178534284 0.213155215745349
995 0.0907109384028627 0.8751171557766301
996 0.5175026947445106 0.4737168157253554
997 0.8375471825807111 0.4356091931407369
998 0.7605859987225522 0.41764761470329204
999 0.4361761240582601 0.42565623719941237
1000 0.9944370956479435 0.10541182077873179
1001 0.6252928087703944 0.9058889211372836
DEMAND_SECTION
1 0
2 6
3 1
4 3
5 3
6 2
7 2
8 6
9 8
10 2
11 5
12 7
13 7
14 3
15 2
16 9
17 3
18 9
19 2
20 2
21 6
22 2
23 6
24 5
25 5
26 8
27 4
28 3
29 4
30 9
31 5
32 3
33 6
34 7
35 7
36 2
37 5
38 6
39 4
40 4
41 5
42 6
43 1
44 6
45 3
46 4
47 7
48 6
49 5
50 8
51 3
52 8
53 1
54 8
55 2
56 5
57 8
58 6
59 1
60 4
61 6
62 7
63 7
64 2
65 7
66 1
67 2
68 1
69 9
70 2
71 8
72 5
73 3
74 2
75 9
76 1
77 6
78 8
79 1
80 5
81 9
82 8
83 1
84 2
85 5
86 5
87 4
88 5
89 9
90 1
91 8
92 7
93 4
94 8
95 6
96 5
97 9
98 5
99 1
100 2
101 7
102 3
103 4
104 4
105 8
106 3
107 4
108 6
109 9
110 2
111 4
112 3
113 5
114 2
115 9
116 5
117 1
118 6
119 9
120 3
121 2
122 6
123 5
124 2
125 1
126 7
127 9
128 1
129 3
130 2
131 8
132 7
133 1
134 4
135 8
136 7
137 4
138 1
139 7
140 7
141 7
142 3
143 3
144 4
145 3
146 5
147 1
148 4
149 1
150 5
151 5
152 7
153 9
154 2
155 7
156 7
157 3
158 1
159 8
160 1
161 8
162 6
163 3
164 6
165 3
166 6
167 3
168 9
169 3
170 1
171 7
172 9
173 7
174 2
175 8
176 4
177 4
178 7
179 1
180 8
181 1
182 6
183 5
184 5
185 2
186 7
187 7
188 4
189 9
190 5
191 1
192 6
193 1
194 9
195 1
196 6
197 6
198 7
199 5
200 7
201 1
202 6
203 4
204 2
205 9
206 5
207 8
208 9
209 7
210 2
211 9
212 7
213 2
214 5
215 9
216 7
217 4
218 7
219 6
220 7
221 8
222 6
223 1
224 3
225 4
226 9
227 9
228 7
229 4
230 3
231 7
232 2
233 4
234 1
235 3
236 2
237 9
238 5
239 4
240 4
241 4
242 9
243 1
244 8
245 7
246 4
247 6
248 8
249 2
250 4
251 2
252 3
253 5
254 7
255 9
256 4
257 1
258 9
259 9
260 1
261 7
262 9
263 2
264 9
265 3
266 9
267 2
268 4
269 5
270 4
271 8
272 7
273 2
274 3
275 2
276 5
277 2
278 3
279 5
280 9
281 7
282 4
283 2
284 2
285 2
286 9
287 4
288 2
289 9
290 7
291 3
292 1
293 3
294 1
295 8
296 3
297 6
298 1
299 2
300 4
301 9
302 1
303 7
304 2
305 6
306 3
307 6
308 7
309 1
310 6
311 2
312 7
313 8
314 7
315 9
316 3
317 8
318 9
319 2
320 4
321 3
322 8
323 9
324 2
325 1
326 5
327 1
328 1
329 8
330 2
331 3
332 2
333 4
334 2
335 9
336 7
337 7
338 4
339 3
340 5
341 4
342 3
343 5
344 1
345 6
346 6
347 4
348 8
349 4
350 6
351 2
352 3
353 5
354 4
355 7
356 7
357 8
358 8
359 8
360 6
361 7
362 2
363 9
364 3
365 4
366 2
367 3
368 4
369 5
370 5
371 8
372 2
373 3
374 4
375 5
376 1
377 9
378 1
379 7
380 9
381 8
382 8
383 1
384 1
385 7
386 6
387 3
388 5
389 4
390 9
391 2
392 8
393 4
394 8
395 6
396 6
397 8
398 6
399 1
400 7
401 7
402 6
403 7
404 5
405 9
406 3
407 4
408 4
409 5
410 2
411 4
412 5
413 5
414 2
415 7
416 1
417 8
418 8
419 9
420 1
421 4
422 6
423 3
424 4
425 8
426 1
427 5
428 2
429 7
430 1
431 6
432 8
433 8
434 9
435 6
436 4
437 5
438 9
439 2
440 1
441 5
442 7
443 7
444 5
445 8
446 7
447 2
448 5
449 8
450 5
451 3
452 7
453 7
454 5
455 9
456 7
457 7
458 6
459 9
460 1
461 8
462 5
463 6
464 7
465 1
466 1
467 8
468 7
469 4
470 5
471 5
472 8
473 8
474 2
475 7
476 9
477 7
478 3
479 6
480 5
481 7
482 8
483 9
484 7
485 6
486 8
487 8
488 3
489 2
490 6
491 1
492 6
493 6
494 4
495 6
496 7
497 9
498 3
499 5
500 1
501 9
502 3
503 4
504 9
505 8
506 9
507 3
508 4
509 3
510 4
511 6
512 4
513 2
514 3
515 2
516 5
517 7
518 4
519 5
520 5
521 2
522 3
523 8
524 1
525 5
526 5
527 1
528 9
529 2
530 2
531 4
532 1
533 6
534 4
535 1
536 8
537 1
538 7
539 9
540 2
541 6
542 7
543 5
544 3
545 7
546 2
547 9
548 2
549 2
550 7
551 3
552 7
553 4
554 9
555 6
556 1
557 1
558 8
559 6
560 2
561 6
562 5
563 7
564 9
565 7
566 8
567 5
568 4
569 1
570 4
571 5
572 7
573 9
574 9
575 2
576 4
577 1
578 7
579 4
580 2
581 2
582 4
583 3
584 5
585 6
586 9
587 3
588 1
589 3
590 3
591 4
592 4
593 4
594 4
595 7
596 8
597 6
598 4
599 7
600 2
601 4
602 2
603 7
604 4
605 1
606 1
607 1
608 6
609 4
610 7
611 4
612 1
613 2
614 3
615 9
616 3
617 8
618 3
619 8
620 1
621 8
622 5
623 4
624 6
625 3
626 6
627 9
628 2
629 8
630 6
631 2
632 1
633 1
634 6
635 9
636 2
637 3
638 5
639 3
640 4
641 9
642 2
643 7
644 8
645 1
646 7
647 3
648 1
649 7
650 7
651 4
652 7
653 8
654 4
655 4
656 9
657 2
658 8
659 6
660 9
661 1
662 9
663 2
664 6
665 4
666 4
667 7
668 4
669 5
670 3
671 5
672 5
673 9
674 9
675 9
676 8
677 5
678 2
679 2
680 6
681 4
682 1
683 9
684 7
685 3
686 4
687 5
688 7
689 6
690 7
691 5
692 4
693 9
694 3
695 9
696 6
697 4
698 4
699 3
700 7
701 2
702 2
703 2
704 6
705 5
706 1
707 9
708 1
709 3
710 7
711 7
712 7
713 2
714 3
715 3
716 4
717 1
718 3
719 1
720 8
721 2
722 3
723 1
724 7
725 2
726 9
727 2
728 1
729 5
730 6
731 8
732 8
733 6
734 3
735 6
736 4
737 2
738 8
739 9
740 5
741 6
742 2
743 3
744 2
745 6
746 2
747 3
748 5
749 8
750 6
751 6
752 4
753 9
754 1
755 4
756 4
757 3
758 3
759 1
760 8
761 9
762 5
763 5
764 5
765 7
766 1
767 2
768 5
769 8
770 2
771 3
772 3
773 6
774 6
775 5
776 6
777 2
778 3
779 6
780 4
781 3
782 6
783 1
784 5
785 5
786 8
787 8
788 3
789 4
790 1
791 8
792 6
793 3
794 8
795 9
796 7
797 3
798 9
799 1
800 7
801 4
802 5
803 7
804 8
805 6
806 6
807 2
808 1
809 2
810 1
811 8
812 6
813 2
814 5
815 7
816 4
817 1
818 2
819 4
820 3
821 9
822 2
823 6
824 3
825 9
826 5
827 8
828 1
829 3
830 5
831 1
832 9
833 6
834 7
835 3
836 2
837 6
838 8
839 7
840 1
841 1
842 1
843 5
844 7
845 4
846 3
847 1
848 1
849 1
850 6
851 1
852 2
853 7
854 1
855 2
856 2
857 8
858 9
859 8
860 2
861 6
862 1
863 4
864 6
865 6
866 4
867 7
868 9
869 8
870 9
871 3
872 8
873 7
874 9
875 2
876 8
877 3
878 8
879 6
880 2
881 1
882 4
883 4
884 8
885 8
886 6
887 6
888 1
889 8
890 6
891 7
892 8
893 4
894 2
895 5
896 8
897 7
898 3
899 7
900 8
901 2
902 6
903 2
904 7
905 4
906 8
907 4
908 6
909 5
910 5
911 6
912 3
913 2
914 1
915 7
916 3
917 3
918 7
919 3
920 1
921 7
922 8
923 8
924 3
925 5
926 5
927 6
928 2
929 1
930 2
931 9
932 3
933 2
934 8
935 3
936 3
937 1
938 7
939 3
940 8
941 7
942 6
943 6
944 9
945 2
946 1
947 8
948 5
949 3
950 3
951 2
952 1
953 5
954 9
955 5
956 5
957 7
958 4
959 7
960 4
961 3
962 7
963 8
964 6
965 8
966 3
967 2
968 8
969 9
970 3
971 5
972 3
973 4
974 7
975 8
976 3
977 3
978 9
979 2
980 1
981 6
982 8
983 5
984 5
985 5
986 2
987 6
988 9
989 3
990 6
991 2
992 3
993 9
994 3
995 2
996 4
997 7
998 9
999 1
1000 2
1001 9
DEPOT_SECTION
1
-1
EOF
