NAME : gen200_021
COMMENT : uniform customers, demands 1..9, generated by bench/make_tuning_set.py
TYPE : CVRP
DIMENSION : 201
EDGE_WEIGHT_TYPE : EUC_2D
CAPACITY : 70
NODE_COORD_SECTION
1 0.5572695558189137 0.4643372332758401
2 0.35904703683304673 0.4260867701525337
3 0.7630525700200257 0.1879668028391115
4 0.06883090350750865 0.743470114627877
5 0.12411334099156535 0.9341834995354462
6 0.9100657189143411 0.4073747014617979
7 0.8714965766321083 0.8962865125689071
8 0.6425261627020604 0.7657473391758538
9 0.8853951910480908 0.9596602222892365
10 0.327743763055404 0.09856682629611158
11 0.23157750569003754 0.7405314286945761
12 0.7067400108848444 0.4737108645415582
13 0.18248939980510048 0.0185953438083295
14 0.2073543152847105 0.9030124640948927
15 0.10382910323878558 0.4482866074974319
16 0.5590239648276236 0.34073973053987217
17 0.6024652188408445 0.7538968616615911
18 0.6540655631695796 0.28134925895782104
19 0.25355368548512924 0.8286937544820068
20 0.6520960760477738 0.6478542603671904
21 0.5021841597038903 0.9659142600342591
22 0.9749964505160578 0.7068250173016193
23 0.2902337505814807 0.08547884201133638
24 0.9476337939196459 0.8499466289081054
25 0.36333436359804105 0.8072992834269813
26 0.22299794006093798 0.6582927772504024
27 0.968284535470786 0.4214950919771301
28 0.6176314144503322 0.7320373377038562
29 0.7828886718426982 0.9030825270691877
30 0.10355659364716951 0.32188579021239716
31 0.04376117048204475 0.41994957221588813
32 0.34027462642673545 0.5657308292702055
33 0.5135686214066008 0.24572078155808186
34 0.3222853995548547 0.39829397372498165
35 0.7354310288530438 0.07584559828605231
36 0.7266100184477169 0.6300138015955136
37 0.11651854199877631 0.9418672459758658
38 0.10476208497814543 0.6522397015206398
39 0.7923352294976197 0.21912779716633635
40 0.1996868712707759 0.9450742694497899
41 0.1479154638483503 0.35389819057760874
42 0.6630044043922417 0.919906228359142
43 0.625091579191497 0.27193528859134963
44 0.1648634813650659 0.6644160048191097
45 0.5061341141184413 0.3254421157658872
46 0.9985708341284695 0.020354159277039208
47 0.602658859223011 0.5266303053356864
48 0.5905132248786036 0.4853656452843652
49 0.09047382570476714 0.6465132295591118
50 0.9039359033836118 0.6213130556796084
51 0.45384417595799686 0.19732901971207817
52 0.0671059357981384 0.4756763459633805
53 0.9356891367523775 0.26407130843886717
54 0.3026094898057313 0.32964755591591377
55 0.8396819243995121 0.04383470466783934
56 0.8970602916522009 0.05901512906238482
57 0.1488730644671492 0.08930344175016969
58 0.6007107140145734 0.5082852162989641
59 0.5492819473154801 0.8227074626282334
60 0.8741622274257596 0.8738489332131353
61 0.5375200708528879 0.6723408170977712
62 0.5049304424814942 0.058476502888239246
63 0.8285242794553929 0.6115587457244531
64 0.20949929225383201 0.6669249177365626
65 0.22939899026719623 0.39422784341672
66 0.7451760363447367 0.20979212471625797
67 0.6164958800936338 0.6393626525655961
68 0.3983283849009054 0.12679007328124614
69 0.8510899449874385 0.3604206322823935
70 0.08310888453194643 0.9773045927889064
71 0.3486161241258916 0.2200113557956236
72 0.4893298080731112 0.4810598620011255
73 0.5269100976228589 0.8208438866992208
74 0.2038779263374515 0.04532656741690022
75 0.4746156875292694 0.7395396563108405
76 0.34864234536690963 0.882095604019081
77 0.8951814614247428 0.7479132619861494
78 0.11902579232004451 0.4507601883936506
79 0.05305432729252313 0.0016951193886499683
80 0.7223486822185433 0.04259416607254718
81 0.7827787843528436 0.8077599814637421
82 0.0027941680800591673 0.28437565570328804
83 0.027388900061715793 0.46364544432008237
84 0.5712170995902293 0.2198666329108666
85 0.5600177331109338 0.22761354831760028
86 0.212978248014551 0.7433449763951242
87 0.568697405297155 0.6318112459077403
88 0.6513828349371781 0.6924511678441327
89 0.2724295177948959 0.6031998549560385
90 0.7417326044877253 0.16336008917569
91 0.3968712983264808 0.7854839395876645
92 0.9074965200961641 0.8154097392958493
93 0.7257690598125175 0.20755826261928978
94 0.4628740453744573 0.49319195344405975
95 0.19582746282404584 0.3526468884496089
96 0.6923882915538572 0.09462480363598436
97 0.008770313930074436 0.7743978493601609
98 0.46876396787012686 0.40945186515621557
99 0.11822565056178447 0.40118949093490885
100 0.8196278405635187 0.7996921152573931
101 0.9893778863612555 0.4742180029919172
102 0.5648198892690963 0.8016658296085241
103 0.5800466212916096 0.9612516702121328
104 0.9096464235172688 0.2340701141938969
105 0.4060978336660721 0.09270317715423271
106 0.7977308827233719 0.9938744991189244
107 0.8722180636371919 0.3761807700746408
108 0.2638032551311844 0.5008532297577892
109 0.8060944466455904 0.05274848749474048
110 0.35913878175980873 0.693298059051077
111 0.7923452364521335 0.11170231080813253
112 0.5835183355380926 0.13362387003167975
113 0.5007321694760113 0.9207193203779633
114 0.46097054804847226 0.06388764020545601
115 0.3468381681138991 0.6524397004595652
116 0.5090410609281865 0.27010527764607684
117 0.8230330810498945 0.5881715597860855
118 0.8192775624501729 0.3500341725290894
119 0.9466608314689376 0.4566038663289278
120 0.9948117190061879 0.3275916029229504
121 0.4681518085874389 0.6813390194348574
122 0.8619334876215993 0.32620786324382545
123 0.04056079103538135 0.03831668564228019
124 0.4864311833794249 0.9702304452384669
125 0.13701209546424808 0.011476935039380631
126 0.8506496019759113 0.6687431439774567
127 0.17849384047657635 0.7356410144328283
128 0.18281476686836262 0.3435469234700994
129 0.06392406564661612 0.36740544172005196
130 0.2630439860327084 0.4999830178514816
131 0.03757900175408513 0.6572997832000292
132 0.93367166753449 0.025247698901683657
133 0.03858106814367268 0.9075719959724196
134 0.5814400230249132 0.9178793482978487
135 0.9407526323458335 0.33437215246449903
136 0.8783823533403099 0.8870083299375137
137 0.13635991518758872 0.4459707299007186
138 0.004336820226256699 0.07552906627112699
139 0.12155750055926717 0.5832874812089769
140 0.6873445846902655 0.8406172767403769
141 0.46121629257121644 0.35560647530896183
142 0.8783260092246518 0.6505667666103733
143 0.23904810335434834 0.5655372217379424
144 0.4554579412017046 0.7363436370553709
145 0.8464382933190517 0.949033956840541
146 0.3309957700900066 0.9468556978652352
147 0.6188545381809075 0.3247996551419189
148 0.8197403714793724 0.4003836492369576
149 0.15702329424562933 0.14835613062207675
150 0.2204637600139041 0.7372750537247155
151 0.39803036817870174 0.5464852088357095
152 0.41968848091506594 0.5155230169942115
153 0.3231772120581713 0.5167508860034141
154 0.7706098391549443 0.32359917889206324
155 0.8032773285705442 0.29956751983199637
156 0.1937811882275362 0.6463713166629751
157 0.9553148839263612 0.3339521740393787
158 0.3085655931332907 0.13840973979505045
159 0.8542423578645181 0.061432997440867165
160 0.1321868972161626 0.08460526571544102
161 0.30161529017458855 0.6985161555990801
162 0.795105376473043 0.5074083282265683
163 0.2323379906458224 0.8192139567625619
164 0.018799402053376713 0.08442511384708207
165 0.7893598427231657 0.2949968184441002
166 0.1857510613313259 0.3745346274085538
167 0.08243222024833607 0.6881524813915078
168 0.7239132567752856 0.27570893610961644
169 0.18889822127286693 0.27177315668059343
170 0.7671184349254861 0.2671899934144688
171 0.9420244925757364 0.8622083395714741
172 0.7261497207007251 0.9098798313522218
173 0.02983058388558657 0.5041733394647372
174 0.35179628640277627 0.5915329167545775
175 0.6442165752422977 0.6436034084129562
176 0.6336506996088783 0.1817573604368724
177 0.7523730148740572 0.10496500101900386
178 0.6675460445967337 0.7583155707692203
179 0.8472575374746382 0.08067885321158064
180 0.6795787383149888 0.3067109101780321
181 0.6990294892911337 0.14233110929139947
182 0.8323673864773313 0.02550511922433729
183 0.040013936852749565 0.11510746616318124
184 0.9329470194670807 0.7830421603670031
185 0.7130456103804881 0.38408939251185936
186 0.0013573774587015697 0.20217910836337782
187 0.30399110545619545 0.9831751511255593
188 0.7583571110297933 0.6267120696773072
189 0.6273348209618093 0.08227515216037018
190 0.10990743063551034 0.6641359401581316
191 0.7762443886716145 0.36115777799140103
192 0.6972185828289501 0.44025418431522156
193 0.954504088064055 0.7271752578566322
194 0.4241925793517687 0.8155040244819649
195 0.902129017806982 0.037519472579526925
196 0.46724670732828 0.9988206226038294
197 0.23907643210202678 0.12043204829796883
198 0.14314591883705652 0.10404049912382662
199 0.9473061218333492 0.4218937013567615
200 0.8756477149496449 0.45454680339629294
201 0.4110759821118021 0.8131276412013948
DEMAND_SECTION
1 0
2 6
3 5
4 7
5 4
6 6
7 4
8 1
9 8
10 5
11 4
12 9
13 2
14 4
15 3
16 6
17 7
18 7
19 4
20 9
21 9
22 5
23 9
24 3
25 8
26 1
27 6
28 8
29 1
30 4
31 9
32 2
33 7
34 7
35 4
36 5
37 9
38 3
39 7
40 9
41 4
42 7
43 4
44 3
45 6
46 3
47 2
48 7
49 7
50 9
51 8
52 2
53 9
54 5
55 1
56 7
57 1
58 8
59 4
60 4
61 7
62 2
63 4
64 4
65 5
66 5
67 1
68 3
69 6
70 8
71 4
72 3
73 7
74 1
75 1
76 3
77 7
78 4
79 7
80 9
81 4
82 8
83 6
84 3
85 3
86 6
87 3
88 1
89 1
90 3
91 6
92 2
93 1
94 6
95 5
96 3
97 3
98 9
99 2
100 6
101 3
102 7
103 6
104 6
105 6
106 5
107 4
108 2
109 4
110 2
111 1
112 6
113 8
114 1
115 6
116 7
117 7
118 1
119 3
120 1
121 5
122 6
123 5
124 6
125 5
126 7
127 1
128 8
129 3
130 5
131 6
132 8
133 5
134 4
135 9
136 6
137 6
138 2
139 2
140 8
141 2
142 3
143 6
144 6
145 4
146 9
147 4
148 8
149 1
150 6
151 1
152 8
153 4
154 6
155 8
156 3
157 6
158 2
159 6
160 4
161 7
162 7
163 4
164 5
165 3
166 4
167 3
168 9
169 9
170 6
171 8
172 2
173 1
174 7
175 1
176 2
177 8
178 1
179 2
180 7
181 9
182 2
183 4
184 7
185 5
186 8
187 4
188 7
189 7
190 5
191 2
192 5
193 5
194 4
195 4
196 6
197 6
198 1
199 8
200 5
201 9
DEPOT_SECTION
1
-1
EOF
