NAME : gen200_003
COMMENT : uniform customers, demands 1..9, generated by bench/make_tuning_set.py
TYPE : CVRP
DIMENSION : 201
EDGE_WEIGHT_TYPE : EUC_2D
CAPACITY : 70
NODE_COORD_SECTION
1 0.23288076226255472 0.9772724540576535
2 0.5597908936803411 0.5670102865218156
3 0.6345121095480304 0.4206053682098502
4 0.5812394627929494 0.43426424658973073
5 0.7337505318991973 0.4194260148430531
6 0.6578010672528655 0.4629524066797863
7 0.6541127040024439 0.9867184449729466
8 0.9411208269016071 0.6887511703285162
9 0.913372739939313 0.054152028673448815
10 0.5742139244778441 0.4712285964264965
11 0.5943947165126304 0.5924690129370882
12 0.20289289900718044 0.5075322511021538
13 0.6505278131676175 0.8005115591342123
14 0.3812892061155272 0.6276387310380334
15 0.22765145507152296 0.20483656379214543
16 0.1611108374386684 0.6159687416371802
17 0.1463882872699499 0.7102583601715367
18 0.5836338471538877 0.17779839453449253
19 0.38266147522030813 0.9145907007978041
20 0.12191363760282092 0.025938415835368933
21 0.6798225176476508 0.4209926985276764
22 0.8577392412790159 0.28583013347525765
23 0.7282487526933182 0.9789994582844649
24 0.40821416780109787 0.30422211647051967
25 0.9534209310850961 0.7702350086779395
26 0.590543653796662 0.6112659741078039
27 0.5676073441508339 0.4597777051918418
28 0.8222419968081925 0.1794568726500133
29 0.5491438336576941 0.3890227224748818
30 0.7812612706448852 0.9933250109808451
31 0.954033021055339 0.8953396866060087
32 0.3042989314811999 0.6342550364706785
33 0.5000327859127272 0.7928918292885397
34 0.13244638202744008 0.428481470922634
35 0.6262628629334782 0.13499724257032164
36 0.053669777940441254 0.6726041344429545
37 0.9096155184698254 0.583453141963642
38 0.28620875818068403 0.8670058425799575
39 0.11373345268980661 0.3423060796929358
40 0.6028220156686293 0.4874624581050595
41 0.9657361178595981 0.44496379393029095
42 0.8385474522088895 0.5917431065583539
43 0.11642964441330206 0.4789961219052995
44 0.9352834244517602 0.5014981298721922
45 0.6024679904803802 0.5892272262157667
46 0.770958910131101 0.7937977874045952
47 0.3439373261102068 0.02006576454817688
48 0.8544320549211939 0.3205605226326199
49 0.311750703084716 0.7242602485481157
50 0.1285378768165123 0.6258440126744343
51 0.7391771030766221 0.2738346383443393
52 0.639896648818034 0.7487314498066924
53 0.7457074069237437 0.7133857597708143
54 0.516400035506016 0.9272103062849328
55 0.8940105867872612 0.23095823427865092
56 0.6626733011538893 0.40276266618768963
57 0.4726987785740221 0.9104124948093814
58 0.3426836504001376 0.27380148900282664
59 0.4658208081178543 0.26280142133434803
60 0.8856948259897711 0.3425520802712614
61 0.5630880421887676 0.8732631132785543
62 0.5931861273296202 0.5356998074303652
63 0.6686829355215028 0.9845227904798804
64 0.21813457231086286 0.7839419222943944
65 0.573994233158622 0.9864840884257642
66 0.056750619015685566 0.0370635408171347
67 0.8794069628533228 0.7180944703743317
68 0.3360044229817376 0.20545401140199204
69 0.12115046923996753 0.06135609282002574
70 0.8527635779915971 0.30725766997086235
71 0.40209444023626495 0.8206050258440991
72 0.9673273367823289 0.9288339838304702
73 0.8795534229866969 0.1561138923340636
74 0.31523134747061543 0.07040639036963947
75 0.6893460368763357 0.3153029659033987
76 0.1869614124659018 0.738635494201986
77 0.9377036783447957 0.32045864217593834
78 0.41176904054735397 0.07331540814887716
79 0.22760907181316847 0.7315363445937904
80 0.22693505567690953 0.8014618119719856
81 0.0842965546612835 0.526432994576989
82 0.14541709702154648 0.23985550504560504
83 0.06503307178357765 0.6611147514565019
84 0.8407834552372668 0.637179256109395
85 0.09657649414051783 0.5672346929473131
86 0.39152012005919046 0.37814556094703444
87 0.09619201663753718 0.820731975690789
88 0.8631013769359068 0.19699550719149495
89 0.7725015637244671 0.1368951637541458
90 0.020402387330204608 0.15584778523132614
91 0.16602398476482128 0.9381616787981827
92 0.497558773105899 0.8603286349905692
93 0.909087488454687 0.16850960476689336
94 0.841375020369906 0.7010961123719082
95 0.6277644615216318 0.30074601761014874
96 0.06090725239445949 0.9825834289722776
97 0.7506005446822075 0.3666604289088171
98 0.12201487031726399 0.46322177875325243
99 0.8346001048229502 0.5288367182877929
100 0.177730691732347 0.08175943795230844
101 0.22727828824337704 0.003317063909743956
102 0.2400810776071246 0.41488809882701916
103 0.33513739550992094 0.5486836978346064
104 0.06989427711375762 0.550350825438219
105 0.10071489369668929 0.24247262033373596
106 0.39731168758059077 0.6921846962694036
107 0.38277269206148257 0.4775997811570405
108 0.8827153214913281 0.3411111312244487
109 0.276916087404932 0.4882598065033841
110 0.4063907687630782 0.3574164261039803
111 0.7604109875934265 0.5361777931693631
112 0.06304506860922343 0.33375929530503634
113 0.2041026467782452 0.6820236966339417
114 0.6254088466926089 0.99007262983969
115 0.12213855519368699 0.9354387763413992
116 0.4931990864805038 0.6965994896052404
117 0.1590294618821705 0.57136059284076
118 0.8994519535836893 0.9343274226718384
119 0.9054153137219008 0.8101040425702348
120 0.4337575684320112 0.3625244729434631
121 0.2559452807708773 0.6086049228067918
122 0.6682719142451969 0.8370001614486734
123 0.8709567404931235 0.08254655344124173
124 0.06653204382706646 0.6782395941650687
125 0.8042013010999413 0.12501073397887186
126 0.3956912778125107 0.026597448709813287
127 0.48321253526662966 0.7570895758665587
128 0.16188760947296632 0.26539216890829886
129 0.3972172183419803 0.7369075679171418
130 0.666765059328216 0.5572688107226196
131 0.6371209961230196 0.061209794184513
132 0.26852159072815274 0.17963702317097974
133 0.40746810373784526 0.8883472932555863
134 0.3743876277075747 0.6435057966507151
135 0.5697957284234255 0.11289853106697734
136 0.002673099438415205 0.15811066867915036
137 0.6630370787794924 0.40575894331794304
138 0.9709445278820349 0.26398782613110117
139 0.13462720488708535 0.1299325657682352
140 0.9582400870923558 0.7718333140721237
141 0.015757964399140123 0.5300947522777442
142 0.7495430602199354 0.5175245746511358
143 0.6413857688620148 0.395503031043304
144 0.7735015136285496 0.025746088829021074
145 0.17857840556472293 0.46237170798843297
146 0.7168560445561116 0.8680630243468468
147 0.3508679489770663 0.5603122901777784
148 0.6507106295448892 0.5911822126124935
149 0.6125979821841494 0.9143797925559957
150 0.8522867431064788 0.32149026312794593
151 0.9812899834429195 0.9209334808455366
152 0.47826154114458275 0.2355947433859763
153 0.9491337939787249 0.48712744444334466
154 0.1879606726155909 0.09054416765509798
155 0.563379631483673 0.7241591865316949
156 0.5149398379127083 0.6199645553060994
157 0.25537988608606765 0.7579800354200367
158 0.5941964699182087 0.7860730869264365
159 0.1277523783643566 0.44274379570310196
160 0.4612527748426116 0.7507153132997563
161 0.5510730032258679 0.9591663039222725
162 0.061695801152274576 0.42725914725476677
163 0.37776768037245456 0.04290168337869893
164 0.7235108815090877 0.6494067272876056
165 0.9756577338139172 0.8390752724241296
166 0.8747165138924134 0.04034170117205682
167 0.5946413268023961 0.024439900225176392
168 0.8765089624566323 0.4538586482185534
169 0.6796292735010963 0.9071186520289769
170 0.9501126401492525 0.640982228780959
171 0.01607779794546016 0.25819453251865
172 0.07027036898864136 0.9076099789773096
173 0.5001645486323835 0.1840886687838067
174 0.035355563533691625 0.39312788389104314
175 0.3120199411759583 0.8526616547695522
176 0.8277937650979613 0.2799768049538043
177 0.1287803152147341 0.3501349837630445
178 0.5763467184879412 0.9458265976705326
179 0.7826700268453584 0.3464785125949664
180 0.6097684006208248 0.6041155856891094
181 0.3161128099169279 0.1896513330462507
182 0.8258009231400183 0.35566642793705205
183 0.6090303359571559 0.10630211837486414
184 0.8359522707499631 0.4249857340711991
185 0.4259875081391197 0.5576740184742844
186 0.54107739132435 0.8729810150424091
187 0.07096087603591417 0.011253102751446087
188 0.5987090980682721 0.4458189646878171
189 0.6696650277207427 0.16361625650915101
190 0.8213644193388897 0.585080511412132
191 0.8089218205085834 0.9314575524124133
192 0.717248138423952 0.6111629068779373
193 0.9904316933618017 0.228215227629052
194 0.5238668499272002 0.701982663424514
195 0.5316684924633773 0.8904944733467446
196 0.04771560918534412 0.3056629001381037
197 0.24183837525182672 0.3392095593676313
198 0.12809680064929585 0.05733649015648601
199 0.8354433932587725 0.5639945395143061
200 0.5726323704317963 0.7809733677668544
201 0.607228714533336 0.2016661209626368
DEMAND_SECTION
1 0
2 9
3 4
4 1
5 7
6 4
7 1
8 5
9 7
10 8
11 2
12 5
13 3
14 9
15 5
16 3
17 2
18 3
19 3
20 1
21 8
22 4
23 2
24 3
25 1
26 3
27 2
28 3
29 6
30 9
31 1
32 2
33 8
34 2
35 3
36 3
37 8
38 8
39 7
40 5
41 4
42 1
43 8
44 5
45 6
46 8
47 5
48 9
49 6
50 5
51 8
52 6
53 7
54 2
55 6
56 4
57 6
58 8
59 7
60 7
61 3
62 4
63 4
64 9
65 1
66 6
67 6
68 6
69 6
70 5
71 5
72 1
73 5
74 6
75 2
76 3
77 8
78 2
79 9
80 5
81 1
82 8
83 1
84 5
85 4
86 8
87 8
88 5
89 5
90 9
91 2
92 6
93 3
94 3
95 8
96 5
97 7
98 9
99 3
100 9
101 2
102 7
103 4
104 4
105 9
106 2
107 4
108 7
109 1
110 2
111 3
112 8
113 8
114 1
115 5
116 9
117 6
118 7
119 6
120 5
121 6
122 9
123 3
124 8
125 3
126 6
127 1
128 3
129 6
130 9
131 1
132 8
133 7
134 3
135 9
136 8
137 5
138 6
139 5
140 3
141 3
142 3
143 1
144 9
145 7
146 3
147 1
148 7
149 2
150 2
151 5
152 5
153 3
154 9
155 7
156 3
157 4
158 9
159 9
160 4
161 6
162 7
163 1
164 3
165 6
166 3
167 6
168 5
169 2
170 8
171 8
172 3
173 9
174 6
175 5
176 5
177 4
178 5
179 3
180 5
181 1
182 6
183 2
184 2
185 3
186 5
187 1
188 6
189 1
190 8
191 7
192 6
193 2
194 7
195 3
196 6
197 3
198 6
199 7
200 6
201 4
DEPOT_SECTION
1
-1
EOF
