NAME : gen200_012
COMMENT : uniform customers, demands 1..9, generated by bench/make_tuning_set.py
TYPE : CVRP
DIMENSION : 201
EDGE_WEIGHT_TYPE : EUC_2D
CAPACITY : 70
NODE_COORD_SECTION
1 0.2026117567294312 0.7859999676644056
2 0.5870091995704465 0.1738548564566137
3 0.698716700162471 0.9786004423259447
4 0.021762263092813483 0.8752557337186728
5 0.10264297128555122 0.45827521627311774
6 0.6666393546322192 0.38799124374167315
7 0.01563508796831714 0.5277566766613688
8 0.07327552970680762 0.9826098297947653
9 0.4301223644311374 0.44415409022854846
10 0.1761497418004495 0.2122128685380834
11 0.8921392715685147 0.8813426615252793
12 0.769025628032145 0.11214486898030118
13 0.5069687836492546 0.6651757775911568
14 0.26852384388087236 0.5710495531030795
15 0.6241459289141889 0.18598822186087527
16 0.1365262724713342 0.24105685824097178
17 0.4902663256242268 0.3218754130610523
18 0.5225102050831992 0.94047834415409
19 0.8627844915665994 0.23531915965891093
20 0.7990617427686267 0.47415427749107264
21 0.91265309328251 0.4953962420298289
22 0.2525031402503606 0.9048521220129353
23 0.11533363319771028 0.9935525117071664
24 0.20491464862532205 0.5010059285261084
25 0.32075767814654954 0.8795026291857415
26 0.8050597251945869 0.4517454682484342
27 0.5997713732932517 0.7466314500251496
28 0.7698193396422703 0.20370363949048254
29 0.3734542855347722 0.6810558322287119
30 0.21569247526046698 0.0981436489308316
31 0.5287613153808967 0.8475257381232487
32 0.7531582867990771 0.5402870308183833
33 0.9298210885786582 0.962607659319238
34 0.32647000220080424 0.12107536242883954
35 0.17765169635294742 0.4007834621742954
36 0.19884298085224716 0.7085669618048347
37 0.8968710408139621 0.37449682271428086
38 0.23037201864165946 0.6290206856181478
39 0.06804781491637124 0.46538871801241977
40 0.6744412009305951 0.8911138540920022
41 0.09938610542711845 0.2449600545096171
42 0.07537436206481041 0.6744427657821059
43 0.7643809682230502 0.973554663385092
44 0.5570067436927277 0.5527783140647384
45 0.54821039628335 0.6898035858874817
46 0.46760925120309627 0.3007363723822959
47 0.9725736488666629 0.8171549200872781
48 0.16008932394440278 0.6324322334320378
49 0.6993516876656574 0.2129559925207335
50 0.9019867803363792 0.21376502217548687
51 0.3410078985936613 0.2503007678410393
52 0.9302223904098836 0.5435176723569128
53 0.11215409872925353 0.8180592345706014
54 0.3080530888157531 0.6279010317539819
55 0.7167843382174703 0.20776853484141367
56 0.21940142308366795 0.3877068964520447
57 0.1741700332831545 0.49704837786670863
58 0.9915773573590534 0.9342558145356907
59 0.40805742881867746 0.6156186788152782
60 0.756460817825886 0.5831664863899404
61 0.5301262782859456 0.2072570486674994
62 0.48725726621542775 0.624689209111642
63 0.5360310123227613 0.4290165593399605
64 0.32624265367706906 0.8946905898583691
65 0.6465764779831125 0.8282062206757087
66 0.7480007896668647 0.34823909223577054
67 0.24536155827248873 0.2750382123650008
68 0.9316467822441143 0.8485508275894494
69 0.8528500515563214 0.9370773177457669
70 0.06282715914392012 0.8298367454560229
71 0.6101113745175464 0.9726109664949699
72 0.647668592497523 0.3180148978472076
73 0.9278010707401946 0.3156076221626839
74 0.46260253147869257 0.10242232331031242
75 0.3810066083512643 0.04858128052855293
76 0.6469305093006884 0.3257360569358795
77 0.20154176384738043 0.3107045153983763
78 0.38962478133898204 0.9365683487942297
79 0.4079809430968896 0.9020223067148343
80 0.25228731600974086 0.3482316595736571
81 0.8301660882394701 0.04821683975533364
82 0.5066114796290689 0.9572244373674533
83 0.06067816292358008 0.5945414346972807
84 0.8811453362668525 0.4487878707328026
85 0.6185619284397972 0.8105018530562066
86 0.3207747562376455 0.7471380480616641
87 0.30514129826382386 0.7283223211143135
88 0.061491880900373386 0.8213854208740405
89 0.8164814922901056 0.4720416132388695
90 0.5504100535426087 0.38996484352226535
91 0.19392049174863157 0.9694729601633979
92 0.7515693097287397 0.03505598177033975
93 0.8025718065164469 0.24889362053359199
94 0.13100228503678335 0.8477065426355126
95 0.716042173889441 0.24765545652362653
96 0.8027111763653281 0.059746468508627415
97 0.2319303241233961 0.21812582880792986
98 0.699674114962815 0.47911991824703126
99 0.1687405713566108 0.04333019483492795
100 0.2512937071975745 0.7549508811998891
101 0.1903109144404208 0.18742499163524373
102 0.10885702622342486 0.831537418966221
103 0.8353315068569632 0.6575968424711732
104 0.17700474244577846 0.5993476024808138
105 0.23385959804861178 0.36076152942779893
106 0.8768907439806435 0.8942795994986349
107 0.7230907697400925 0.28758030370308485
108 0.9826430296295747 0.17245488457055358
109 0.7904071487099291 0.596215679684909
110 0.5813777478646194 0.4606890402828384
111 0.481778956924233 0.03204637801292265
112 0.5559128352475953 0.6308205092297728
113 0.5410073452190306 0.5307810440840831
114 0.02547758607390871 0.7870493466726189
115 0.8197520408892924 0.40501223257828833
116 0.27802466360141287 0.9800917600140984
117 0.8685135984727472 0.7487840599886211
118 0.8389631499342337 0.9764927980646482
119 0.17392097211161506 0.3648070402448038
120 0.20688618228796118 0.1946402094289127
121 0.21348810598293233 0.3894191583803017
122 0.43184457227040685 0.5810197530908047
123 0.46278813616278924 0.7467901730892895
124 0.4869638612069642 0.7849900860350059
125 0.8991819887613226 0.039458221770319324
126 0.5851995012740809 0.8433098040159528
127 0.7596064570504768 0.47500938315612484
128 0.3929303193189916 0.019097943863181754
129 0.9857035039902352 0.47464299801630916
130 0.6035995489498188 0.9451688813135286
131 0.33747900179856816 0.8553102514601411
132 0.8509883338944876 0.9788567196937336
133 0.21753298638516183 0.7501346123526322
134 0.8281433574516458 0.3447008394957848
135 0.9355856520599657 0.31003922195819955
136 0.7404845123410053 0.9515960181995629
137 0.6827519776980916 0.2791843112936787
138 0.838810731944202 0.9355330337091667
139 0.9309857827435319 0.8696960459210797
140 0.5477241085612385 0.47509751989355054
141 0.9039049379614744 0.5317931722391392
142 0.2948349806899033 0.1900945810201884
143 0.36590456796433624 0.1301368182718936
144 0.47055624776519644 0.7501417678941537
145 0.4519360163534273 0.13627533518618118
146 0.7340007423714142 0.5242656730786701
147 0.3825371753010577 0.26866391669492606
148 0.2976412834928537 0.1984037604551533
149 0.2094565786099869 0.042747649550227584
150 0.2675966580454434 0.43173767299957144
151 0.1213092722257072 0.7211039255661774
152 0.20549599199187873 0.7977804826826081
153 0.7859215098487138 0.2012437082138222
154 0.3904760427558178 0.8106849702493422
155 0.7185177663660053 0.9621469089113527
156 0.9025165395129618 0.09955969132607667
157 0.6114330300325312 0.08111368499002458
158 0.831981678853311 0.2554231337463233
159 0.3137894051935547 0.5914206413638657
160 0.36586457996852073 0.6323179399083415
161 0.6003453998915605 0.43350888430552115
162 0.45715620951855596 0.7853957106407162
163 0.5759684441264495 0.3983279391665979
164 0.4195913985478724 0.5337164351673249
165 0.11845196223590804 0.7961058323697188
166 0.5862407082674151 0.5330620934442867
167 0.48257331647989066 0.3215389894369921
168 0.20303703282738328 0.12904356051190824
169 0.4137102782040981 0.6460178298703854
170 0.6732598185834947 0.6039109405167093
171 0.7088757321835029 0.48920769892673777
172 0.35103803602788664 0.9885055704613104
173 0.7891762320056457 0.10814570881020313
174 0.5151284957939257 0.5375515584103672
175 0.22176432820265257 0.38409826731623864
176 0.9126926868821927 0.7802596578597482
177 0.4810586452502451 0.9757158105412481
178 0.5536699771676672 0.007432613522737719
179 0.6341754763301615 0.8545432917335142
180 0.7529546358301232 0.9197682806352194
181 0.5190702440595161 0.374993624747064
182 0.5053213344521704 0.38955057552830175
183 0.3826521800958843 0.46906125858690584
184 0.18968887307951376 0.28253694924703054
185 0.5746186811710527 0.9858572768738593
186 0.5508351840703398 0.8785693202469181
187 0.1238110354191535 0.4852690516940962
188 0.020411219601879083 0.7995463470908372
189 0.5867093793651722 0.06099189493473767
190 0.9738676711404456 0.027510698277896872
191 0.37982248308270083 0.9070250643360501
192 0.12212361568314278 0.1101362207984583
193 0.8532687688731291 0.15533518292760984
194 0.7993135543041248 0.2372068185009517
195 0.17190390837165392 0.8533098420591742
196 0.6579997896223793 0.20674058973193654
197 0.556296410320908 0.7258629386810533
198 0.09450713645787023 0.3822624763409407
199 0.940525901137384 0.14217409351254673
200 0.06417579074537227 0.7530622117383796
201 0.38035985005277395 0.745124007841381
DEMAND_SECTION
1 0
2 3
3 7
4 5
5 5
6 6
7 7
8 8
9 4
10 9
11 4
12 6
13 3
14 2
15 2
16 3
17 9
18 3
19 2
20 8
21 4
22 3
23 7
24 7
25 6
26 5
27 3
28 4
29 7
30 8
31 8
32 9
33 7
34 1
35 9
36 5
37 2
38 1
39 1
40 7
41 7
42 3
43 3
44 7
45 2
46 9
47 8
48 6
49 1
50 9
51 3
52 4
53 1
54 3
55 4
56 1
57 3
58 9
59 1
60 1
61 7
62 7
63 2
64 2
65 9
66 1
67 7
68 9
69 6
70 6
71 3
72 8
73 3
74 7
75 9
76 5
77 4
78 8
79 4
80 5
81 3
82 2
83 2
84 8
85 7
86 1
87 3
88 9
89 1
90 3
91 2
92 1
93 7
94 5
95 7
96 2
97 4
98 3
99 3
100 8
101 7
102 1
103 7
104 1
105 4
106 8
107 2
108 7
109 3
110 7
111 8
112 8
113 9
114 3
115 2
116 6
117 5
118 8
119 3
120 5
121 2
122 2
123 8
124 2
125 2
126 4
127 5
128 8
129 2
130 4
131 1
132 2
133 9
134 4
135 9
136 9
137 4
138 7
139 7
140 4
141 3
142 3
143 7
144 5
145 2
146 6
147 9
148 8
149 6
150 3
151 1
152 7
153 1
154 7
155 4
156 7
157 9
158 2
159 5
160 9
161 4
162 9
163 8
164 6
165 5
166 5
167 4
168 4
169 3
170 7
171 4
172 6
173 7
174 6
175 8
176 1
177 6
178 9
179 9
180 5
181 6
182 7
183 7
184 5
185 3
186 6
187 4
188 6
189 7
190 8
191 6
192 9
193 2
194 9
195 9
196 2
197 4
198 3
199 5
200 1
201 2
DEPOT_SECTION
1
-1
EOF
