NAME : gen200_006
COMMENT : uniform customers, demands 1..9, generated by bench/make_tuning_set.py
TYPE : CVRP
DIMENSION : 201
EDGE_WEIGHT_TYPE : EUC_2D
CAPACITY : 70
NODE_COORD_SECTION
1 0.08998714846195588 0.5421517107344517
2 0.7297853149099601 0.2261389248636655
3 0.5718309303497818 0.7309391010602867
4 0.2076734674970635 0.01596240599367771
5 0.6500684885625404 0.0848236452095884
6 0.11476628533068978 0.5872407283271669
7 0.021024826700733912 0.16066125676940068
8 0.15695436793691875 0.811351233647186
9 0.8629132115511983 0.12480037814482259
10 0.8264251510695926 0.9123711526126169
11 0.7436238689303432 0.0526624779790037
12 0.061886081869223175 0.6926256752776037
13 0.1699243695073448 0.014099814075720363
14 0.36844899170337064 0.9933134052338868
15 0.5557828614953703 0.9637244772127771
16 0.20531833011567702 0.05346181536224204
17 0.014535412189888408 0.12234402345402606
18 0.07072715570600663 0.3614025676920569
19 0.7716667545230066 0.6416498308307358
20 0.8767712884389759 0.5380837183573537
21 0.5957998119325939 0.21584168877437504
22 0.31438947119148963 0.6540405816648638
23 0.991508915338468 0.3003360295917479
24 0.16696524278467606 0.4990081537317762
25 0.7428281857051372 0.5555531396460693
26 0.12215694364156171 0.7832530950624554
27 0.5535792014883304 0.6293844033096042
28 0.1241626620460845 0.6640033199861738
29 0.07375009287306222 0.8713100874095865
30 0.729465882804561 0.44983540682976697
31 0.5043873901866075 0.583160498065533
32 0.32086608557694185 0.16324408393948275
33 0.755480295688726 0.09942765478871463
34 0.6893265950122468 0.5512531001311806
35 0.5583311757293148 0.5520244231384576
36 0.596443614813922 0.04619923985430974
37 0.03240676646478413 0.23135871071322056
38 0.2165860658173655 0.14363925530938992
39 0.38833692015637566 0.4806957827067312
40 0.5923293202857172 0.506852497744626
41 0.11252895311770739 0.7794879687387553
42 0.20631946715293026 0.9629560419407965
43 0.550036270992885 0.5119940281387678
44 0.08607826572410993 0.5105569813100332
45 0.23630866749891077 0.5631652042340314
46 0.7338003869223904 0.1510372942314775
47 0.07369352279728858 0.5108075007132684
48 0.19577879909075224 0.9102991782862441
49 0.566243525877848 0.6548525311504678
50 0.564162640527697 0.7108372415628116
51 0.10894485642739071 0.04001675060653631
52 0.8884708351383214 0.06267008635616378
53 0.6682724146629737 0.21467499515347
54 0.754439625243041 0.49885787027075157
55 0.5030988643130804 0.07188132209800624
56 0.492791267852152 0.047847483565219284
57 0.9406937489146706 0.95489052598698
58 0.5577027473282805 0.07726875566437619
59 0.500231034730192 0.31999256352277805
60 0.37014762010643143 0.9656072820860864
61 0.291478184845545 0.09590759205258448
62 0.4703565004119813 0.724862762422106
63 0.9136657439168477 0.37406580294191527
64 0.752362809042377 0.5929704990735983
65 0.3041722875881514 0.893689557886868
66 0.9154312665511697 0.9257382554084755
67 0.6067916412389867 0.9788603211696335
68 0.6086946420642073 0.19083576641245836
69 0.43928908616028817 0.41283030811229904
70 0.4403157150084508 0.6109305164543009
71 0.9290096855805463 0.8021076065295645
72 0.35969726043654926 0.9839263328303673
73 0.3178941277321867 0.7282518376363363
74 0.03946450579718053 0.799322830976825
75 0.4707578704624834 0.7012879597663662
76 0.12767386904157052 0.30653623179142886
77 0.8403896158907794 0.9281773666803911
78 0.8276541728169248 0.5756922009579739
79 0.7729859988756528 0.9725781314461777
80 0.06982642705090081 0.6662393840340909
81 0.06754269421048109 0.27111948575410183
82 0.5464969012698593 0.77870773998862
83 0.3739864275059629 0.9122623960716185
84 0.3784319765732843 0.48914123479964233
85 0.4242816613639302 0.9096421892985059
86 0.6237023025447017 0.909110651368558
87 0.4312415518752102 0.8690924389659248
88 0.4876735871286654 0.3154184266645871
89 0.5770202381793746 0.8050529228172302
90 0.08642597967995269 0.10506566794665018
91 0.8523685525475481 0.8054499601368285
92 0.6831488898743621 0.8225669315253251
93 0.6028636455128753 0.898724142110795
94 0.7234821778624786 0.2649615279580242
95 0.40089017744118105 0.9984153152066607
96 0.1444132237375244 0.3162557646350812
97 0.736883376693325 0.36820577285889433
98 0.8791743875184047 0.3931078489060157
99 0.7961896171452667 0.18814507276915893
100 0.10983548733845772 0.5701915190971677
101 0.6338835714098888 0.10697050794682339
102 0.13315802554272504 0.15339784249644484
103 0.6991869658645571 0.9617107474157941
104 0.20640705639316514 0.3901303747867504
105 0.3922609443860504 0.9550808304132723
106 0.4134481659970065 0.5413066139643965
107 0.2201762262814534 0.49617673896269643
108 0.3872951881373812 0.3067742839593648
109 0.26692142719010514 0.5760398442117461
110 0.7741671357434613 0.11982776633105297
111 0.7932269059100747 0.05920000132871306
112 0.8153920227225813 0.5545778892363609
113 0.8515146789680789 0.8414641746177498
114 0.45117949035786753 0.2855703263891617
115 0.5355153954636989 0.2727156762293418
116 0.526988604272991 0.6161357609828552
117 0.9184977254439785 0.6524053874366592
118 0.7713376404479328 0.757766547625733
119 0.4801212294060275 0.8231217169988894
120 0.29479777324599676 0.08680701802728796
121 0.5832495737693698 0.13635613023726378
122 0.9896499231973733 0.9062733787296792
123 0.5812973847301577 0.04565890299193254
124 0.7167328644635569 0.11937868569791188
125 0.3602306079228188 0.12893209430834673
126 0.7984438867666066 0.9786633035680767
127 0.31639396150608246 0.47120010850281924
128 0.1460200486213885 0.15545742396518658
129 0.7606654709062972 0.6417551886254044
130 0.7936046310656716 0.23277429824211338
131 0.009435934748030284 0.8388486022316782
132 0.5336538652254157 0.2697840666907838
133 0.5099139964882977 0.7562432034841294
134 0.6151352154179608 0.5887175052008364
135 0.6419108240733904 0.7461236526407122
136 0.7779064893702855 0.6311998922240394
137 0.2785566979492883 0.7658105464150252
138 0.4616690284154068 0.24006557122541916
139 0.22826355459460945 0.22215141781227998
140 0.8845890745041268 0.6167344585078887
141 0.19381118472505254 0.9441524306283451
142 0.7393470784236504 0.39750784764895786
143 0.5683242675570552 0.507907182897596
144 0.8559152492163468 0.22804054218002123
145 0.765760932992674 0.4704494217875195
146 0.783981045182457 0.7786060742468057
147 0.849877526984168 0.5738702840362193
148 0.1297849289302091 0.3642052501131563
149 0.10783075960521826 0.24964491305319658
150 0.4700535251381195 0.7663298421843768
151 0.7310376026443124 0.7528417276539977
152 0.37069593333458084 0.07899458220238553
153 0.4064387405717448 0.7052893006345861
154 0.9402290140335682 0.09235627570096427
155 0.2724948476046508 0.9082415254676249
156 0.9321236435705095 0.11628988269514651
157 0.41338806944836737 0.5422744511118074
158 0.7314759386847115 0.29753929678982893
159 0.6428628069681365 0.14576985401591547
160 0.42222856568192213 0.640872407456616
161 0.605578696077475 0.00513985946484119
162 0.20441506478814286 0.4966465357452339
163 0.8588180223253653 0.21150914731970305
164 0.3311529461051047 0.4568762936037247
165 0.8381371631493524 0.19682639866928253
166 0.03893160113736405 0.6513001729973602
167 0.754040423165425 0.9181775639212034
168 0.9928875404016956 0.834948933854965
169 0.020213685792933034 0.06173392224007912
170 0.7845104371081549 0.9672232259988831
171 0.570809025196014 0.8444847493090176
172 0.8950201854066172 0.8055348637989698
173 0.9740719899620374 0.6374457363320306
174 0.1904896603020142 0.1877407621980992
175 0.9128023504175177 0.20880039347343982
176 0.9647455773793643 0.02936935716908806
177 0.5976479048608248 0.9501278316660635
178 0.0598986560558018 0.054324303740449276
179 0.49634028774323236 0.9201790753895605
180 0.14726037728994457 0.9831886047122064
181 0.8753249827038182 0.7676787048878342
182 0.8173498461568499 0.12884813201561063
183 0.23925250967954192 0.7294289869021341
184 0.805195480114143 0.24895306164750042
185 0.44170476489927724 0.30999715834274455
186 0.8328526581613149 0.3128297546482791
187 0.7670051476142352 0.7362282203239765
188 0.8452164497620753 0.685943204972492
189 0.08329818512568876 0.8299962181640383
190 0.9355478950393284 0.9984414926723622
191 0.23119890668229726 0.8078260072124057
192 0.3339449272721756 0.6877194895959272
193 0.5248400618150062 0.43029299796468745
194 0.7717644605727648 0.9696886238321101
195 0.4827794572665708 0.04584056082165444
196 0.8304711123528546 0.9127462651671312
197 0.8320298836478857 0.4237891513738773
198 0.10853702785675956 0.546524044949078
199 0.8477601721920152 0.3808670793779543
200 0.314784250302496 0.5964539166712541
201 0.6709661909117705 0.005666252401794525
DEMAND_SECTION
1 0
2 2
3 6
4 3
5 1
6 7
7 4
8 3
9 7
10 8
11 9
12 2
13 9
14 9
15 1
16 5
17 7
18 4
19 2
20 3
21 4
22 1
23 6
24 8
25 8
26 7
27 3
28 8
29 7
30 7
31 1
32 3
33 1
34 4
35 3
36 4
37 6
38 1
39 4
40 9
41 5
42 5
43 2
44 2
45 9
46 7
47 4
48 5
49 8
50 7
51 8
52 2
53 7
54 4
55 9
56 4
57 6
58 4
59 4
60 4
61 1
62 2
63 5
64 3
65 3
66 6
67 1
68 9
69 4
70 4
71 9
72 2
73 8
74 5
75 5
76 9
77 4
78 2
79 8
80 5
81 2
82 4
83 7
84 9
85 5
86 3
87 6
88 2
89 8
90 9
91 4
92 9
93 5
94 4
95 4
96 4
97 3
98 7
99 5
100 7
101 1
102 1
103 9
104 1
105 5
106 4
107 6
108 2
109 4
110 3
111 6
112 7
113 3
114 4
115 3
116 9
117 3
118 7
119 5
120 6
121 1
122 8
123 6
124 7
125 3
126 2
127 5
128 8
129 3
130 7
131 3
132 4
133 3
134 7
135 8
136 2
137 2
138 4
139 1
140 2
141 1
142 1
143 2
144 1
145 8
146 3
147 1
148 7
149 5
150 2
151 6
152 2
153 7
154 5
155 1
156 4
157 1
158 6
159 1
160 5
161 7
162 1
163 9
164 2
165 8
166 5
167 1
168 1
169 5
170 5
171 8
172 1
173 9
174 4
175 9
176 3
177 6
178 9
179 5
180 8
181 9
182 6
183 5
184 3
185 8
186 3
187 1
188 6
189 5
190 2
191 6
192 7
193 9
194 5
195 4
196 9
197 2
198 2
199 9
200 9
201 6
DEPOT_SECTION
1
-1
EOF
