NAME : gen200_010
COMMENT : uniform customers, demands 1..9, generated by bench/make_tuning_set.py
TYPE : CVRP
DIMENSION : 201
EDGE_WEIGHT_TYPE : EUC_2D
CAPACITY : 70
NODE_COORD_SECTION
1 0.04889243454656189 0.7239279936659617
2 0.9802624629530567 0.029006404472182168
3 0.2660153818845732 0.4373044788300662
4 0.5825988152608206 0.255661866154963
5 0.3734301668478831 0.2585942370116622
6 0.7603244352655117 0.9508073069259706
7 0.5685454347084601 0.6906259518452303
8 0.23728733248959943 0.722459293569861
9 0.7289192335792577 0.763706211802697
10 0.5513318782228532 0.0556214650202721
11 0.8417194952185078 0.5349397222734287
12 0.7337978455104076 0.06421068780024475
13 0.3834676880197254 0.10888017118374216
14 0.23310792838224892 0.7981373412092297
15 0.03198765231919842 0.3880476870610431
16 0.8608511278396664 0.42350308801631265
17 0.8564300590859393 0.42265413488927916
18 0.050289091564161836 0.28932746318201286
19 0.8731970752221396 0.0628411283395639
20 0.11832070770836367 0.5176767247739713
21 0.9104642387160132 0.44936656955540744
22 0.8292159646609701 0.25657141810497874
23 0.566617598626929 0.21707839740530388
24 0.2577043664492886 0.5474063355544251
25 0.4716307985054734 0.9691878041542903
26 0.44200695867317086 0.4019350871060384
27 0.4943309337256857 0.3456406316879166
28 0.8180536382106318 0.6165389570462012
29 0.9530176992580602 0.004842044558449832
30 0.4463320726611669 0.7733598182196421
31 0.5266368386580291 0.08435878540180342
32 0.8912013633572837 0.7256952062486604
33 0.005163900109100283 0.17474761699072783
34 0.3283693326210232 0.15987368842858052
35 0.7689684610752864 0.020290986328541205
36 0.4016341661819901 0.5110808804459106
37 0.04837596301088143 0.15573002717070383
38 0.18170261341799576 0.7432517116713091
39 0.30758661839347456 0.1395357410949053
40 0.29768952657600467 0.4120592415279777
41 0.28494301098291686 0.10606576193121886
42 0.2956227477888195 0.8983145365961936
43 0.8359120716680698 0.05735241555724124
44 0.9840265293796608 0.7743707606003046
45 0.8693830468914733 0.47400163909276805
46 0.9184890635549035 0.9825128269415587
47 0.9685789406574143 0.27600882458295906
48 0.697676057595084 0.759572480180371
49 0.42320623972332083 0.7946146144186217
50 0.32260250154837156 0.013400287920597886
51 0.45454211752496276 0.1601495828126427
52 0.11625511513066145 0.4344195632141479
53 0.6703432728271237 0.2499281762503771
54 0.7345699493109283 0.5969225204906505
55 0.37350579741412093 0.7381717830403295
56 0.2572195880938608 0.682324293807764
57 0.3029145875002276 0.9828654813161667
58 0.5798171083637769 0.6383535186294464
59 0.6743446688518896 0.8728904868524547
60 0.8050621453629974 0.20160420404364554
61 0.33476719036195124 0.16345200670627003
62 0.5032492704499998 0.6502060113336937
63 0.8578810979931576 0.27585620366220853
64 0.7724355608731515 0.22650091238500336
65 0.8197392263342472 0.6365176776845
66 0.060330058013331245 0.5663735442188785
67 0.5522524208360248 0.666223241181394
68 0.15678265507839528 0.7856470401647481
69 0.4977098287079863 0.8079264253414042
70 0.8078413650841749 0.2534220370819106
71 0.12339582908279478 0.3098943344923418
72 0.9163984868881652 0.914833984109801
73 0.10717907337228993 0.9058446193376514
74 0.07855605958175471 0.5313730105078571
75 0.9678877827637306 0.9024776001882336
76 0.9132691515434331 0.654153883018099
77 0.5305888606093329 0.7944531393581583
78 0.5005864825031812 0.564485864099715
79 0.7997810611003294 0.4439598864910427
80 0.4314243138903322 0.0008009098184293961
81 0.6864760625772024 0.5142627676831036
82 0.8963144467745114 0.8713398381268437
83 0.4371832550526443 0.43729372768493735
84 0.9199823880131549 0.6691462173351546
85 0.0025516013847648455 0.6912732861160972
86 0.5096772637756445 0.08707366089998936
87 0.9014424443479658 0.268159783810622
88 0.14709540807000887 0.5697892741598188
89 0.6187638755732716 0.9041572868421394
90 0.7653410729209398 0.7314640515197193
91 0.18498745062388133 0.2617271983082907
92 0.6672899894152535 0.3879763392606651
93 0.8532859503585865 0.15492330541964427
94 0.8653112295132992 0.6888812037084682
95 0.03317128510722811 0.008541878743537068
96 0.14359163826115107 0.1727833566937832
97 0.329961754971965 0.926408291101557
98 0.5736451030715879 0.03297553400194342
99 0.84112179357645 0.6885305140181361
100 0.3721036727814202 0.6958615259904769
101 0.4952271879216331 0.9012295200612934
102 0.40262710130565527 0.14009367123829486
103 0.6936940981288076 0.44834454840659543
104 0.19959058828265863 0.6543315899912988
105 0.6671311040097204 0.19302582052112183
106 0.29087284609756714 0.8820029078692398
107 0.46861713292647345 0.0934214931535512
108 0.016644625447364114 0.4045237474698782
109 0.2495722582518406 0.0372890410420641
110 0.197469693366371 0.07771578852614536
111 0.2847912636491161 0.21908062384810179
112 0.3207628898861612 0.10132628209304961
113 0.07294342223153372 0.0978364289202247
114 0.5302955281272802 0.6809080990296734
115 0.5686474208452162 0.7120742982307329
116 0.9819395632168932 0.20934715491622158
117 0.27355529847241966 0.5671474424275019
118 0.9293125229254814 0.7507986572131897
119 0.475996504908481 0.6989902781617267
120 0.7990327460041287 0.011841979320894591
121 0.5045474779841643 0.024425709516728178
122 0.8087391155629602 0.5536023291158656
123 0.5694314683408802 0.5194448087505784
124 0.35529868131064457 0.9172302098802185
125 0.48989186446125343 0.7904831109234761
126 0.3946145875196606 0.42436282291937455
127 0.8289134627260394 0.946905939123348
128 0.7515109128422086 0.6143998524073914
129 0.9502163107996887 0.876199565704922
130 0.5644092692582522 0.8974460264596665
131 0.44991272331274157 0.5082002230750479
132 0.040286553844817274 0.06589261399248147
133 0.5081814971452936 0.5705217533520219
134 0.9413727243852753 0.4651235355773524
135 0.7069809541775254 0.0664954721940938
136 0.018266392794704434 0.1703156372434016
137 0.6109075647992892 0.1917528413362295
138 0.1252039298668911 0.9152059856530046
139 0.6016668414846426 0.31089845527400806
140 0.7034778200424265 0.4282722167803412
141 0.7911102586643494 0.3062438525517295
142 0.11441236599415372 0.09158864273859124
143 0.29319814478426753 0.3961827850769363
144 0.17079092579256094 0.4417181946106514
145 0.8800744441283673 0.46646589304901254
146 0.4318792920025596 0.20699320662407084
147 0.2739159833473799 0.940626371655032
148 0.2220504240772686 0.6399486668854233
149 0.32372869351823275 0.6318486633209311
150 0.6294361219406741 0.6149034416016697
151 0.8811129743750531 0.39284344041091457
152 0.36551089588624064 0.7892894579362744
153 0.13265972055498476 0.9279787191288513
154 0.5058306276824438 0.6905166947153726
155 0.6842537621352935 0.40918990651815945
156 0.6441421422676534 0.5591930066042186
157 0.26522210012020875 0.5481672809200708
158 0.8786913285620038 0.5576719132840623
159 0.08649329140732742 0.6606660599303582
160 0.8435212198337508 0.7718994789833068
161 0.12381485814771342 0.9037355806563137
162 0.016494102650254305 0.9567508693900829
163 0.3331017136688754 0.7023980824249129
164 0.5547890806546923 0.2518946935559234
165 0.35861563714616174 0.5831513335981258
166 0.3636364810252435 0.9718508322105774
167 0.11154221651239815 0.4955427501045515
168 0.19638507631631907 0.46285414063683783
169 0.4763003074632236 0.615442128767228
170 0.0481065863090131 0.08161001596419659
171 0.053720821039185074 0.19505643874289358
172 0.9255592712790803 0.22972421676977794
173 0.8030477858894063 0.9050372327066228
174 0.5184964092582789 0.6292815428072192
175 0.8516215114721359 0.3125556752455544
176 0.5618911366064661 0.6004615482661192
177 0.039007771891230614 0.7540007816060851
178 0.2835915098995915 0.646206559173015
179 0.9619507453505841 0.6776289533944957
180 0.8177905251540721 0.20651266411026714
181 0.5432176491971854 0.43947827495522407
182 0.2662968617778886 0.6917176502956502
183 0.4914344370074136 0.05832467326489499
184 0.8320530070568987 0.0073134212616046135
185 0.06285591513457656 0.772936515111293
186 0.41140391705136126 0.15788587887769834
187 0.18352579972638305 0.18870636440423694
188 0.18706388255439554 0.9419042205724656
189 0.2538737944145466 0.4165223112594836
190 0.5986839785886225 0.29837790057986624
191 0.6149902238613036 0.6695525801325044
192 0.09164844601067501 0.4744406413046105
193 0.31425479574469506 0.2977471698225973
194 0.7173129405166135 0.16152608858422324
195 0.015987051661138008 0.801400432551544
196 0.8485255570334997 0.10213479224403266
197 0.28476396975585605 0.5258367523358688
198 0.040825507159910734 0.4247915905470092
199 0.883374849740771 0.3930722942669769
200 0.18574857699978908 0.9217023309543891
201 0.3849794182258348 0.4074859274871877
DEMAND_SECTION
1 0
2 5
3 1
4 8
5 3
6 2
7 5
8 3
9 3
10 7
11 1
12 7
13 5
14 8
15 4
16 9
17 8
18 8
19 2
20 4
21 6
22 6
23 2
24 3
25 1
26 7
27 3
28 9
29 6
30 4
31 7
32 3
33 7
34 4
35 4
36 8
37 5
38 7
39 2
40 2
41 9
42 2
43 2
44 5
45 3
46 2
47 3
48 2
49 9
50 7
51 5
52 8
53 8
54 8
55 4
56 2
57 6
58 9
59 2
60 5
61 9
62 3
63 1
64 5
65 4
66 9
67 5
68 6
69 6
70 3
71 2
72 9
73 1
74 2
75 9
76 5
77 6
78 1
79 5
80 6
81 1
82 6
83 1
84 6
85 9
86 2
87 9
88 8
89 2
90 6
91 3
92 5
93 3
94 4
95 9
96 4
97 4
98 3
99 6
100 6
101 8
102 1
103 9
104 3
105 5
106 5
107 3
108 2
109 3
110 6
111 6
112 6
113 6
114 7
115 3
116 8
117 9
118 7
119 7
120 4
121 5
122 5
123 9
124 5
125 6
126 9
127 1
128 9
129 8
130 5
131 3
132 1
133 3
134 7
135 9
136 9
137 6
138 3
139 2
140 7
141 9
142 2
143 5
144 1
145 4
146 6
147 9
148 3
149 5
150 9
151 1
152 5
153 3
154 9
155 8
156 7
157 5
158 3
159 7
160 5
161 1
162 9
163 5
164 8
165 4
166 7
167 3
168 4
169 4
170 9
171 4
172 9
173 9
174 3
175 5
176 9
177 1
178 8
179 4
180 5
181 4
182 3
183 2
184 8
185 7
186 4
187 9
188 2
189 2
190 3
191 6
192 2
193 9
194 8
195 1
196 2
197 7
198 3
199 6
200 8
201 7
DEPOT_SECTION
1
-1
EOF
