NAME : gen200_025
COMMENT : uniform customers, demands 1..9, generated by bench/make_tuning_set.py
TYPE : CVRP
DIMENSION : 201
EDGE_WEIGHT_TYPE : EUC_2D
CAPACITY : 70
NODE_COORD_SECTION
1 0.9143129880355615 0.49093534313314213
2 0.7643236691195477 0.4250358658659701
3 0.3940566237400053 0.11662047851896118
4 0.0001299439054032181 0.5485673747936235
5 0.37623251797769297 0.2510140953955321
6 0.2312174928591012 0.02652739613683819
7 0.171632377295721 0.6441849141040333
8 0.22331826502542385 0.8283993905992694
9 0.7602108271388228 0.29731620400258973
10 0.42740151087146483 0.3163498832461048
11 0.8453554624489742 0.5538192711860759
12 0.2188984253133639 0.6088983306370352
13 0.5181429218182292 0.5548559774820621
14 0.1665699547959283 0.02000043820507813
15 0.971735637853203 0.5752498918538667
16 0.7688340585847551 0.06209756072144157
17 0.8976898615863673 0.5511892399279812
18 0.7723769679303676 0.04686488082858975
19 0.9056986915596555 0.6051817171816897
20 0.30040547170218435 0.1969247797830732
21 0.7235502121035834 0.9608181017349423
22 0.6220427353279907 0.06105010868963068
23 0.22795869375374167 0.4400605035665053
24 0.0455682479381323 0.9671140719761936
25 0.5298502519224814 0.5287978381061034
26 0.16129848102464583 0.13201913208186788
27 0.6203097873485135 0.3688581961257905
28 0.3463530143333884 0.8146452657760034
29 0.45519730838314276 0.061770936773356766
30 0.353377932167509 0.254411084130833
31 0.7787749994819276 0.36943603543850245
32 0.3190792371241118 0.6370510079039009
33 0.6010216044440517 0.9492934654727111
34 0.11921439178333437 0.8912038538161863
35 0.9159208314624188 0.16664888650064014
36 0.7313270544951977 0.5660625033729609
37 0.983704497504066 0.003719425476983007
38 0.4518760106379547 0.9961478587847526
39 0.5555502633875359 0.35847361422547663
40 0.8999898863839136 0.8372880228425168
41 0.4864423601825558 0.7813261389629966
42 0.6654128367804439 0.4584742416050671
43 0.4492712796761398 0.18599256760132554
44 0.04276200550480158 0.6998073865962289
45 0.7512307310149178 0.6435115169615305
46 0.4320653365211343 0.9442370448440518
47 0.5793034954358335 0.9307355857450864
48 0.7388886248795847 0.024676132093229497
49 0.9428451780450786 0.5177485378698953
50 0.2790346492740996 0.8639649087656941
51 0.1525900185870941 0.6041497459920145
52 0.7448588172208604 0.8047838290369044
53 0.42959093692509853 0.9456397716268103
54 0.7096713039192868 0.6531345799714582
55 0.7927297639083057 0.41467797233322057
56 0.7470374655654608 0.9759573371407443
57 0.3139343764542778 0.4024345535926861
58 0.4293210116976235 0.5026161607756446
59 0.5221921298823461 0.5693356759918858
60 0.37166178652602666 0.11379620537889645
61 0.03811001338219289 0.7649650987352621
62 0.23656738742013528 0.5803000224144212
63 0.07036939068569381 0.6863811338704342
64 0.4886258868198943 0.9737935963283594
65 0.8086860304773706 0.8796415065695937
66 0.33478604661406164 0.7412495378041916
67 0.9853081259193125 0.9733751368272805
68 0.24608880711132386 0.9765071149021582
69 0.12256418109722989 0.9993946256556885
70 0.02713247724416823 0.919308208033804
71 0.0923916653201391 0.9450623980855168
72 0.9872910493850677 0.7202848290366507
73 0.06177287099071205 0.8280787966861726
74 0.7171275918699253 0.049366100455796036
75 0.29995730560992495 0.715381849063207
76 0.48376490180153786 0.6428357596111506
77 0.6014793011787847 0.3180185547749571
78 0.09318755032487014 0.8493897751132273
79 0.5044577161110533 0.692447389368809
80 0.45679525239971996 0.4621878820991715
81 0.20080015424667352 0.8978373798522649
82 0.8318986647825486 0.8327315019609527
83 0.29443385429077495 0.25620835280847054
84 0.437354296982147 0.3861535265939361
85 0.5502071825370051 0.3652232572851637
86 0.30912066550901796 0.4486556656381542
87 0.3224658188833526 0.8008437513112074
88 0.005945248868739816 0.3088947354393562
89 0.15751314514168946 0.7423168781915621
90 0.29449353961980695 0.23379788356016584
91 0.19612128743414114 0.8465155424739154
92 0.9826421291855166 0.015531545116748813
93 0.48763555764344146 0.43667899418510303
94 0.8478288200962193 0.006130724576784763
95 0.06674415023230351 0.7254842789155921
96 0.6285983060196815 0.03914656936150984
97 0.291657186793991 0.5039699736744705
98 0.7709902187810617 0.9086325679239711
99 0.7308202314038789 0.26423189803422076
100 0.47690652953702395 0.8836971306997777
101 0.6253058487074887 0.9902580274137271
102 0.393261796285058 0.010440752808699605
103 0.11751952683330336 0.09791420378609805
104 0.2690637970065721 0.3059561207164543
105 0.4960207076436476 0.7422147122048148
106 0.8186411299120911 0.5052347532209618
107 0.17726613085023202 0.7634770780084285
108 0.6433761197333444 0.49207236331112636
109 0.21560942233912783 0.6311681035025775
110 0.6499212025851117 0.6260543929101241
111 0.32012287706056164 0.7226763667924911
112 0.454214437055556 0.09344511576392367
113 0.48308608583779433 0.8599287979533783
114 0.22680721427683248 0.08769042522675552
115 0.7498712257000604 0.7767584294354288
116 0.21180158430083784 0.8416370726399576
117 0.5395353325998512 0.6525147767393947
118 0.5462893828911666 0.5670782548719057
119 0.5559744943273508 0.6447078986314322
120 0.5972886638921849 0.748146757122846
121 0.6771184820950381 0.015569724467304535
122 0.6294261971511433 0.4310016574070361
123 0.17438538965423178 0.9254000200092665
124 0.07231794946469183 0.8942455519343915
125 0.05844033290081441 0.20008315102575425
126 0.08982846169041936 0.9675884173268254
127 0.09384057702442095 0.5111674170429519
128 0.11716995232052907 0.45383778122305485
129 0.8503414703743908 0.3768338665954122
130 0.33379700246151167 0.8800214866869633
131 0.5681438477656684 0.6899798064512432
132 0.07912578753644361 0.5722766185879626
133 0.8437039461325289 0.30904815570079336
134 0.24272186597355982 0.2280117406944403
135 0.5699925911937541 0.061841540649454685
136 0.2546436124804753 0.42681587695592305
137 0.1716273483611982 0.9792833600400987
138 0.9328188110467461 0.7840977225438935
139 0.25285817547488976 0.14445565481772382
140 0.35883614740084513 0.9820262049346322
141 0.9169391407242081 0.7676504708138926
142 0.03637201214401109 0.9229197947843275
143 0.5497937635513338 0.12253166767903934
144 0.16680813137169725 0.22672680756025898
145 0.6051213543632656 0.08858795181149426
146 0.5133610721169406 0.7420678399686562
147 0.5092041648804749 0.9508471718871686
148 0.5915560802981649 0.779930463033729
149 0.9668719102413335 0.9298332375126627
150 0.6198570613036465 0.6941905129875842
151 0.3087665767561838 0.9250189741957109
152 0.64115400197795 0.06133953941437753
153 0.22106996070963558 0.6742394783954488
154 0.6512827384311143 0.7459551572832881
155 0.48475242900463267 0.7348725384067482
156 0.7422433120571234 0.1311398316665554
157 0.1696431410076774 0.841498892447913
158 0.2825284948057645 0.4934899670990103
159 0.5435941197946643 0.7807555745673461
160 0.17304447965024028 0.531019172293308
161 0.1789245813118766 0.06042685392987046
162 0.7694531494407466 0.32185494681764537
163 0.9077283933687368 0.7192169623287094
164 0.11794913005924124 0.4933922122675316
165 0.4016824107589684 0.8130502904248309
166 0.5642031902708876 0.12073797598679525
167 0.5736809554435855 0.20216716969204063
168 0.4557786150663342 0.07261588004608166
169 0.9384373860023838 0.5621558896297557
170 0.288636252679192 0.34910847314085514
171 0.9403769997299615 0.559546625321552
172 0.9095248853640823 0.8525336926753369
173 0.2560323293094974 0.7448139399433218
174 0.9366215267126577 0.5066485027407295
175 0.39229709724436257 0.27179394808641943
176 0.6025356143484226 0.7683050658699954
177 0.7259656833523416 0.5839301949601909
178 0.03052194426862853 0.6705832473031429
179 0.5573172539196897 0.7865941489669303
180 0.1965089602547655 0.8611278985799872
181 0.21672322269140476 0.08413225504131627
182 0.6275778907497181 0.09531431199848972
183 0.6398322954056322 0.5217244769273129
184 0.41195934116021227 0.09143648351377232
185 0.8770493644385232 0.2751668801512911
186 0.9040875031900988 0.0336283510679487
187 0.4957410147592166 0.5794433123313393
188 0.866419876200085 0.8104329823296983
189 0.8483333465015785 0.8845068114868357
190 0.10407741503896695 0.6552709227347405
191 0.7064462476882977 0.4888566126960965
192 0.40250165693952533 0.6839766883931104
193 0.030759249135428712 0.9350968361099186
194 0.8639623928258049 0.7051397988183313
195 0.8672769630862466 0.6724415542362797
196 0.01856851106693913 0.6036864310445859
197 0.6546968784316344 0.8888893824123081
198 0.3381654205476172 0.6034654539896195
199 0.9795717016063235 0.35017182310319517
200 0.3258633165150784 0.03265511585642045
201 0.6847182241438315 0.2720731372389319
DEMAND_SECTION
1 0
2 1
3 6
4 1
5 2
6 8
7 2
8 3
9 7
10 3
11 1
12 3
13 7
14 5
15 7
16 1
17 7
18 1
19 4
20 3
21 9
22 4
23 7
24 3
25 4
26 4
27 4
28 8
29 3
30 2
31 4
32 9
33 4
34 5
35 3
36 2
37 8
38 5
39 8
40 3
41 7
42 8
43 2
44 9
45 2
46 5
47 7
48 9
49 4
50 8
51 6
52 5
53 6
54 2
55 6
56 3
57 7
58 3
59 8
60 3
61 3
62 7
63 6
64 4
65 8
66 2
67 8
68 1
69 6
70 1
71 1
72 3
73 6
74 3
75 5
76 7
77 7
78 3
79 2
80 4
81 8
82 9
83 9
84 6
85 4
86 8
87 4
88 8
89 4
90 8
91 3
92 5
93 8
94 3
95 8
96 8
97 9
98 1
99 9
100 7
101 4
102 8
103 8
104 5
105 6
106 5
107 9
108 3
109 1
110 3
111 5
112 1
113 6
114 7
115 9
116 5
117 4
118 3
119 5
120 3
121 2
122 4
123 6
124 5
125 4
126 9
127 1
128 5
129 4
130 1
131 3
132 1
133 6
134 6
135 1
136 6
137 5
138 8
139 6
140 7
141 8
142 4
143 2
144 2
145 6
146 1
147 9
148 2
149 5
150 1
151 4
152 6
153 1
154 5
155 1
156 9
157 7
158 2
159 3
160 3
161 1
162 1
163 5
164 9
165 8
166 2
167 6
168 5
169 3
170 1
171 6
172 5
173 3
174 3
175 7
176 8
177 7
178 8
179 8
180 9
181 5
182 1
183 4
184 6
185 8
186 7
187 6
188 1
189 7
190 6
191 4
192 2
193 6
194 2
195 9
196 1
197 2
198 1
199 1
200 5
201 4
DEPOT_SECTION
1
-1
EOF
