NAME : gen200_027
COMMENT : uniform customers, demands 1..9, generated by bench/make_tuning_set.py
TYPE : CVRP
DIMENSION : 201
EDGE_WEIGHT_TYPE : EUC_2D
CAPACITY : 70
NODE_COORD_SECTION
1 0.6615862847817263 0.4518244255618825
2 0.7330119335845359 0.21448354252699486
3 0.7878061614106102 0.008680742838492517
4 0.1285763786154559 0.620851224358974
5 0.2195329051766628 0.25182833077006805
6 0.7350091447046826 0.3498641694803414
7 0.35471492716592345 0.7177012776784104
8 0.9188678325733368 0.24150739271325428
9 0.21187154479535553 0.07034234380910365
10 0.7361184773496587 0.6122861556883598
11 0.8551114956258193 0.30520873850129926
12 0.7604166821063191 0.27019788630275143
13 0.5637609412855663 0.3840934425856396
14 0.1413861582564231 0.4561901844811571
15 0.7915111823048372 0.5293646879229886
16 0.8701724840655439 0.9341868777529515
17 0.9632662848239012 0.1311713205599424
18 0.6442862756431771 0.5771694461596907
19 0.3709836645203638 0.23513893422766974
20 0.5953990919374359 0.4504057271641546
21 0.5142933897723165 0.2725629523559169
22 0.20156528614791402 0.8057319624129037
23 0.08937600037159033 0.8192165953013939
24 0.2929460045705402 0.49215737454884223
25 0.2231442434332428 0.9211263666477365
26 0.009767904704120034 0.9170463997773296
27 0.7257846631439024 0.8954857495436948
28 0.20724218992393784 0.7752637452329414
29 0.9530343286973397 0.8262554744620888
30 0.7683140299603899 0.44153596175736587
31 0.6865816507923552 0.13583266112808579
32 0.1408893694543778 0.6913017645937033
33 0.8036680580005008 0.12234823920893934
34 0.14388747929716406 0.26696596198516775
35 0.07683229347146459 0.8966801925343961
36 0.4281982985223408 0.5340204016889476
37 0.2118198916237467 0.4657273872070308
38 0.5836459682405251 0.1453658810272438
39 0.7391022158342151 0.34872417976654246
40 0.5429670945092865 0.6515855934992569
41 0.10832194679060947 0.21657027838024112
42 0.7895833937523222 0.4235105854603426
43 0.46877177819190574 0.522695094279792
44 0.6344179242741875 0.11541240331057256
45 0.8199722178845815 0.9804161787634753
46 0.23289524446931675 0.8914298646691718
47 0.37686203808724617 0.8319514769949159
48 0.3385226156843323 0.371804314428803
49 0.7656114042477806 0.817230988275909
50 0.39269374221957776 0.46645747226821765
51 0.5628990348265244 0.09366273877417952
52 0.9069683680215708 0.6256907010918277
53 0.5046167420145948 0.9855866693398015
54 0.14794578817015058 0.8575810833559978
55 0.7626455848897499 0.6019507424498914
56 0.43709079681279184 0.999692030838234
57 0.46330331830753657 0.9672064381752424
58 0.7504987327327817 0.12753225543372804
59 0.9543943743998525 0.14647210388795062
60 0.5564636420202668 0.7771381237006489
61 0.5113291495773289 0.9018439814372878
62 0.0011785035292559698 0.6733349501209989
63 0.9804706244935303 0.6354323865744047
64 0.08237108979873553 0.4460083990195235
65 0.6306168379694358 0.5589904707760872
66 0.2771063579977875 0.6711679529456648
67 0.7582750352940046 0.7820755656576651
68 0.3436594325795487 0.8970262060194909
69 0.7371610334441624 0.10164629343805098
70 0.09795811149908862 0.3240574965531482
71 0.31346183554764995 0.9030759030710961
72 0.07821251873327018 0.6929168474730522
73 0.689471655688148 0.24185184678252158
74 0.5841465443700133 0.7277516276983581
75 0.5265363011078859 0.22997753100097873
76 0.6230478751150674 0.04818012093988078
77 0.2820487450074496 0.08560870843506918
78 0.2637750083471908 0.08169889055204194
79 0.12128988832535181 0.8821891315614739
80 0.15502133528725648 0.6945794386888966
81 0.3380523858748119 0.8329847629802966
82 0.6147851775596636 0.04134120326407331
83 0.5131093380341187 0.26328510884525946
84 0.9058248881967407 0.19946768617929722
85 0.20073447359449326 0.9147078391560721
86 0.44450577963977567 0.3383278175002553
87 0.010165112432483081 0.018703466938277846
88 0.9885350962906339 0.18216242464021126
89 0.12945999376305883 0.507392858572654
90 0.5401083261296546 0.9645554228832817
91 0.6904365183282333 0.041012076679856735
92 0.9428204380414157 0.011959996221999503
93 0.2822742937939754 0.25646279436571773
94 0.32590269847438347 0.06802500896261321
95 0.7169255989703016 0.49422766233616733
96 0.485155575104283 0.3871090180940707
97 0.30191908573626736 0.12027796172087768
98 0.21648192626117935 0.8853640566544403
99 0.8281560480480703 0.3221039333642154
100 0.0018864270735218236 0.17039801635909924
101 0.11925608238096208 0.1859820174271254
102 0.8064723546884455 0.8073566419605231
103 0.28129138095649875 0.3677656063316955
104 0.26525400727908244 0.41249213098339965
105 0.14665687608055733 0.3101490056032411
106 0.742784544003475 0.4552145873920922
107 0.4247883355198383 0.6221090174232042
108 0.4791043546615672 0.45037676427671425
109 0.5446082161970179 0.9574978319085924
110 0.11631956884870931 0.8451128059987935
111 0.42592956058768605 0.6965376549585689
112 0.4521322990907398 0.8352254532819912
113 0.694716455707503 0.15168653730699
114 0.46969698654752545 0.9295389500358575
115 0.17304563138211948 0.24899291150007175
116 0.44788162059420267 0.41759289250466036
117 0.5814144365098994 0.3393537166578682
118 0.9561987068944275 0.3862519826701978
119 0.9996148630151355 0.5212186669567358
120 0.7918942380531131 0.614504800812887
121 0.41300444222143795 0.5086131263094953
122 0.7392067387934712 0.6168611253265166
123 0.5105471101577749 0.02499894496947952
124 0.4185118351007332 0.18569498841007492
125 0.9408094731920653 0.4475033758045599
126 0.05200323898062975 0.7231500259170017
127 0.35438260483718687 0.04155270956071555
128 0.184130129220895 0.5669086808611076
129 0.2226439825881813 0.05428737805868977
130 0.008729335689089623 0.8555703259435062
131 0.5832831462685278 0.9798537258288214
132 0.5692101700330704 0.44459832394714305
133 0.31291343886641476 0.532268630424872
134 0.7170818139191558 0.09773756591355376
135 0.10497029302763494 0.9575577197533558
136 0.8410770090858778 0.5014744376655061
137 0.7290902839921218 0.6374548887460892
138 0.7168980941708706 0.9645486069847746
139 0.19284633044074317 0.7272130780845577
140 0.8881149668227346 0.6842322045103922
141 0.14513675502714518 0.844787350264398
142 0.6768119952750482 0.5402154076050063
143 0.7000341239699195 0.825429148475382
144 0.03468018822451591 0.8173958085224204
145 0.2727057905894672 0.8350222388741269
146 0.3805904370108718 0.626624787007445
147 0.60874679978073 0.11565592257277346
148 0.4096205950558758 0.8019836225169145
149 0.8415428572562326 0.5504941434255419
150 0.4577299456688084 0.4746059737593794
151 0.648747876997484 0.2248281536884552
152 0.7128718717904441 0.04818205113577778
153 0.8651379507022804 0.9697877512963471
154 0.17489514968193476 0.9144555832703665
155 0.1478455229072978 0.3008824306413461
156 0.25898699799535896 0.6682334911602211
157 0.7901589954047487 0.2962687546130235
158 0.33131576000031626 0.07834187438412954
159 0.7417800395714956 0.7815534663388306
160 0.8790017115535255 0.04300428750074836
161 0.2818837960165397 0.44662722914019737
162 0.5347332385459662 0.46180321337356833
163 0.43737280811975765 0.9059665361206217
164 0.04574173713519947 0.8485291064356294
165 0.37799888155121864 0.4745559256350642
166 0.29072204866730045 0.7119107510116254
167 0.802781477715585 0.9947484703834573
168 0.9577936346143571 0.22659848085800782
169 0.9661169674398179 0.33826684424682707
170 0.2770942598704953 0.32772451574257533
171 0.9947324433792833 0.3907229758928288
172 0.013302060656741554 0.4621040262673576
173 0.27372457257782556 0.23173206147463532
174 0.2537222698149614 0.7823764404863648
175 0.24649717730230747 0.07037606151131304
176 0.3456294071393373 0.8710387893995521
177 0.25510615094773414 0.5518450566846781
178 0.1774277788177978 0.3970130511529225
179 0.5537979814196345 0.18589610239448118
180 0.9422698750444557 0.2740554685729655
181 0.537576660747589 0.4907729261560473
182 0.6712313666180165 0.056990858074518536
183 0.0071494443271871155 0.2134249148062206
184 0.3733309750478543 0.05826990267541188
185 0.8727286728450363 0.3362955866379935
186 0.8759838009919712 0.977681436221426
187 0.5068627318181528 0.6778729075898001
188 0.7878772111895624 0.11096097482463307
189 0.7048939915675976 0.02292530918478841
190 0.4597955186775229 0.2997766664854933
191 0.755953954652468 0.7698096290134995
192 0.7461240018216131 0.9975528323494749
193 0.8296243378429763 0.3232373391786578
194 0.21047755455342765 0.9771770142075256
195 0.410071259073447 0.9700090828164148
196 0.2403714670270789 0.7635052256342206
197 0.7149675083404058 0.46550124888123556
198 0.7589592632964293 0.24345165754608977
199 0.0053788132754255535 0.1504447119219945
200 0.9369172452464789 0.5949408932108934
201 0.9046399172130205 0.6793691679499986
DEMAND_SECTION
1 0
2 1
3 9
4 5
5 8
6 1
7 4
8 1
9 2
10 8
11 3
12 7
13 5
14 9
15 9
16 3
17 6
18 7
19 4
20 6
21 4
22 2
23 3
24 4
25 3
26 2
27 5
28 3
29 6
30 9
31 4
32 4
33 2
34 3
35 4
36 2
37 4
38 4
39 9
40 9
41 3
42 4
43 9
44 2
45 6
46 3
47 9
48 5
49 2
50 8
51 7
52 9
53 5
54 2
55 3
56 7
57 4
58 1
59 1
60 9
61 1
62 5
63 9
64 6
65 5
66 8
67 6
68 4
69 1
70 5
71 6
72 7
73 7
74 4
75 1
76 9
77 1
78 8
79 1
80 2
81 5
82 1
83 7
84 3
85 8
86 8
87 6
88 5
89 4
90 7
91 7
92 7
93 5
94 7
95 9
96 8
97 7
98 4
99 2
100 6
101 5
102 7
103 6
104 3
105 7
106 8
107 1
108 4
109 9
110 4
111 3
112 3
113 6
114 8
115 3
116 1
117 9
118 1
119 5
120 7
121 4
122 6
123 4
124 5
125 4
126 5
127 3
128 4
129 3
130 9
131 6
132 2
133 4
134 1
135 7
136 5
137 2
138 8
139 8
140 1
141 4
142 6
143 3
144 6
145 1
146 5
147 9
148 5
149 7
150 1
151 5
152 2
153 1
154 6
155 6
156 7
157 9
158 2
159 6
160 1
161 1
162 9
163 6
164 4
165 1
166 5
167 5
168 8
169 6
170 1
171 9
172 7
173 6
174 8
175 9
176 8
177 7
178 8
179 5
180 8
181 6
182 8
183 3
184 2
185 4
186 5
187 6
188 4
189 1
190 6
191 9
192 4
193 5
194 4
195 9
196 2
197 7
198 8
199 5
200 7
201 7
DEPOT_SECTION
1
-1
EOF
