NAME : gen200_005
COMMENT : uniform customers, demands 1..9, generated by bench/make_tuning_set.py
TYPE : CVRP
DIMENSION : 201
EDGE_WEIGHT_TYPE : EUC_2D
CAPACITY : 70
NODE_COORD_SECTION
1 0.9304500366759562 0.5687326337872147
2 0.6181545236289346 0.23609946418471195
3 0.0344101460262054 0.062037799907424085
4 0.15446248330916612 0.06818157603595099
5 0.9005288990441755 0.692400538465542
6 0.3323495399535762 0.9527911561556917
7 0.7584567068877791 0.9977323620981144
8 0.3828537754784692 0.8999570795498835
9 0.6148107316452999 0.5146044230130642
10 0.7654067859431457 0.4065424788773151
11 0.1144732986091469 0.4079990174892085
12 0.043923531794131 0.33739580865347063
13 0.47951755520734274 0.1751299670238895
14 0.8451017342801105 0.41673550334029774
15 0.19816465593335575 0.96514649547356
16 0.3827863423617095 0.626935859934559
17 0.013090660593800374 0.9729862847995231
18 0.9406672658213995 0.09624906770384323
19 0.2720304697217911 0.16977371754294412
20 0.2567637199524416 0.9052567730011801
21 0.6220579803344203 0.4426536606186531
22 0.17393581715263873 0.5876112160950806
23 0.06996219877814802 0.060811702687537994
24 0.6681221143435565 0.3664686447305192
25 0.6257892940480988 0.21237379514477683
26 0.0834104823985824 0.0935417558591275
27 0.4992839871658086 0.01517568727047125
28 0.5137377761549227 0.503485959508674
29 0.7442723394017063 0.6920227983823255
30 0.12805021552672213 0.03738263730986224
31 0.4793782516877163 0.696531882735354
32 0.6253707446639039 0.8846409121751903
33 0.9834832978580943 0.30126114205272325
34 0.8821795396660603 0.06011551377210722
35 0.1198063876027805 0.7745892486312814
36 0.7773619645326542 0.4911537728309191
37 0.8563359999274114 0.2930796748525465
38 0.4129661076792357 0.7513499545197256
39 0.9028919722282326 0.683999901785217
40 0.4719700487689896 0.4299814435979974
41 0.47955552998282525 0.5128776958156452
42 0.8143372387371817 0.900021912339985
43 0.9432660431235402 0.38785439234725005
44 0.016117043179286306 0.8351754361269751
45 0.956821986252512 0.9837261438590722
46 0.7332974605719309 0.33435301632138814
47 0.17856145264060475 0.10390999274246426
48 0.23893699679907332 0.07657949082170135
49 0.8805839298858844 0.5631945753618071
50 0.05256020669776962 0.9373895550328377
51 0.7288548281147269 0.11563592794432753
52 0.958694268835903 0.09989883818797285
53 0.9002777998784031 0.3068353940480598
54 0.8688109755696058 0.6283987327028303
55 0.8397729268184194 0.6553729801973188
56 0.3887371460508787 0.16343444911123772
57 0.21122904723911817 0.0965003627744786
58 0.3590183268625431 0.8670827406260231
59 0.56973413470846 0.7435283532077106
60 0.94444602568826 0.052488892981795154
61 0.9093187997055246 0.2363826954216255
62 0.8232491434324866 0.41941093293913123
63 0.39863659289403186 0.5116105921035612
64 0.22766512326489985 0.824039543963563
65 0.6686535208391962 0.1263143229123468
66 0.4881985454680904 0.8968542254608244
67 0.6836688814573455 0.5193755231009025
68 0.5524493057275611 0.946350153888872
69 0.9936342717840536 0.2541238102628932
70 0.9756244599120995 0.17846800858220335
71 0.5835759969106024 0.9403390289270191
72 0.304517966704268 0.0927719138600297
73 0.44330354935439165 0.1521956638805415
74 0.22438007845219443 0.8064105622658889
75 0.7808181451789752 0.6203775193358595
76 0.12807974109945475 0.6651168642921174
77 0.525016158725265 0.6061238736436659
78 0.765682523395281 0.7232102963855896
79 0.940368444562974 0.497127843919414
80 0.012186349332368396 0.11628083269000378
81 0.23729557434335136 0.21960243959240278
82 0.8186094243833322 0.6947685635118016
83 0.8606841238507608 0.6697126054071957
84 0.5544801962449465 0.28127336647898227
85 0.15256930953060366 0.9849288523987495
86 0.8134393701975141 0.05763976094135581
87 0.6473773660591714 0.3101726838653007
88 0.371963183243739 0.8364418584581613
89 0.9876367763398602 0.38817246503551317
90 0.8081428918583404 0.16526953515090015
91 0.7600580149283431 0.06049532210395525
92 0.4550602882075402 0.8461724621787927
93 0.8376541732382269 0.08206627326851368
94 0.9264672493188028 0.7105114787319651
95 0.8351191382212395 0.9096104911313933
96 0.9963491699076304 0.8258888728622846
97 0.666545664712426 0.8951183349144587
98 0.2543504459255084 0.5613860008107138
99 0.6360927668520305 0.9318783999986336
100 0.5584224304151411 0.9370620517580123
101 0.7102991226282687 0.815595910376462
102 0.941924376767526 0.2179817235420789
103 0.7738080324431537 0.46245188667154613
104 0.5534338071394782 0.7685103564056054
105 0.6732281581871092 0.2558237917393541
106 0.3799315297336565 0.7724843220106727
107 0.6193158960702305 0.820226589407067
108 0.3965621731119918 0.09108472214158714
109 0.4051763625592951 0.2050299767927133
110 0.9757531985914347 0.29473003855591007
111 0.8749798006406448 0.6766408521664905
112 0.6557133538130115 0.1840983223562075
113 0.6702400512862506 0.9522830656328063
114 0.9019131450246884 0.2700988273679725
115 0.4094551614843013 0.04167245537411113
116 0.8145825576173392 0.5109674818746068
117 0.13989705800827845 0.39457782620829096
118 0.9798383288694035 0.3606302616253533
119 0.14035159724796287 0.974596400706583
120 0.20251404146136698 0.08906210207474441
121 0.06661069544873244 0.7314423938817152
122 0.5193213494771891 0.8471778018614236
123 0.839921030485762 0.3476649009852567
124 0.6407010092807061 0.05417018657747841
125 0.6992310387164142 0.2910393196304798
126 0.6847690045218925 0.5407866465770891
127 0.8146533317342014 0.418939916220852
128 0.4525150392178211 0.7573730771829674
129 0.9111715913970043 0.8932389273978066
130 0.9693588159512558 0.5266783760985676
131 0.8349346272100509 0.39447876142563953
132 0.41589085933076764 0.9261849327014755
133 0.453077005392435 0.4350121663473304
134 0.135494971204839 0.9905073563294403
135 0.7029896736515236 0.11894401280206701
136 0.07782731168894219 0.6394238407919614
137 0.4985757016965696 0.14851397237524155
138 0.562868015505346 0.3665010355800523
139 0.8788250902218092 0.7409463460018048
140 0.5587492937956452 0.23864922745611206
141 0.15472420933462416 0.20945224323988976
142 0.4544000429646877 0.7311808147428931
143 0.08303685648275183 0.9835957848038541
144 0.5250970997555392 0.43604715814796713
145 0.41594890677204155 0.7570569103493178
146 0.4008580815963415 0.607586800640684
147 0.8804042263219789 0.15409127157858538
148 0.032385860100249464 0.8032154202905092
149 0.8123734371876998 0.8152618217077577
150 0.7266356762028918 0.8852779501645803
151 0.34420206241320395 0.04651977966175769
152 0.9037902760491617 0.5322791678529594
153 0.718910504757957 0.2437578318616771
154 0.10222676316364465 0.7897618352931145
155 0.9402973088709726 0.9668078530165793
156 0.5735399537242841 0.3823658681726959
157 0.6550070404940079 0.7770081370376639
158 0.027099228779825624 0.6171496641271852
159 0.7007838208093481 0.5344152533075482
160 0.16057943388688556 0.8800749781867327
161 0.18382251465021548 0.48257695903785647
162 0.9810762241052338 0.14818994721879342
163 0.32412435874349976 0.11395720736233372
164 0.1531530526513114 0.3187674276853243
165 0.6282983956096968 0.05451189435436665
166 0.36023220789218424 0.6333725499033512
167 0.4771200126760853 0.9682655316712937
168 0.5198956851648112 0.6556022275059856
169 0.3584227720081101 0.8296805123489155
170 0.3711194161576842 0.07864974730628482
171 0.48592050738894976 0.25872576903791666
172 0.8995405423022413 0.5666128327387404
173 0.093738384128219 0.9922240362552578
174 0.8018631064502544 0.05589818146489123
175 0.5412616965068893 0.8128546292972451
176 0.6324788913923879 0.3426174158642463
177 0.2113693572053711 0.4668411971886576
178 0.47674762524732595 0.6154106444348223
179 0.11256833399366994 0.07566710898688278
180 0.37878812462124245 0.9596386539700472
181 0.6368965056065163 0.1257810907421968
182 0.045234489332424355 0.04891281216137966
183 0.6514989401582036 0.5405670866146687
184 0.4886453907931041 0.6264024116539418
185 0.624366217503359 0.04903341355579327
186 0.9252699357046803 0.25115800852635806
187 0.6474724598420982 0.9871883763052155
188 0.0257828557390275 0.7135795601375459
189 0.2811860696254249 0.9990099021501676
190 0.6311246663014167 0.4851081018718477
191 0.581506782339446 0.48894407438842746
192 0.46433626815874995 0.9433217734265165
193 0.8809000103439146 0.5094216464769167
194 0.02904426651153391 0.2621409539655145
195 0.28495643303034546 0.5152853807882068
196 0.4945574799172623 0.3428046671433105
197 0.04495736003261375 0.6674671357273366
198 0.23210163459216726 0.47483341971281856
199 0.1475157170860124 0.6895383377854042
200 0.3061851834979713 0.32085031132223607
201 0.4490235707186111 0.03170946214445414
DEMAND_SECTION
1 0
2 1
3 2
4 5
5 9
6 2
7 9
8 1
9 6
10 9
11 1
12 2
13 9
14 9
15 8
16 8
17 2
18 6
19 6
20 7
21 6
22 8
23 5
24 6
25 9
26 1
27 2
28 2
29 3
30 8
31 9
32 5
33 4
34 1
35 5
36 2
37 6
38 4
39 3
40 2
41 6
42 8
43 9
44 4
45 2
46 3
47 9
48 9
49 2
50 2
51 5
52 4
53 8
54 5
55 7
56 5
57 6
58 5
59 2
60 8
61 2
62 8
63 1
64 6
65 5
66 6
67 9
68 7
69 7
70 8
71 1
72 4
73 3
74 9
75 5
76 7
77 6
78 4
79 2
80 6
81 8
82 1
83 3
84 6
85 6
86 8
87 5
88 7
89 6
90 8
91 7
92 4
93 6
94 4
95 3
96 8
97 4
98 2
99 3
100 4
101 3
102 8
103 8
104 5
105 8
106 7
107 4
108 1
109 9
110 9
111 2
112 4
113 3
114 2
115 5
116 6
117 4
118 3
119 5
120 8
121 8
122 2
123 8
124 2
125 4
126 7
127 1
128 6
129 8
130 1
131 1
132 6
133 4
134 6
135 1
136 8
137 6
138 4
139 5
140 9
141 1
142 6
143 4
144 7
145 4
146 1
147 1
148 8
149 1
150 4
151 7
152 5
153 7
154 9
155 6
156 6
157 1
158 7
159 6
160 2
161 1
162 7
163 6
164 1
165 3
166 6
167 8
168 2
169 8
170 8
171 6
172 3
173 4
174 4
175 9
176 7
177 1
178 5
179 9
180 2
181 5
182 8
183 7
184 3
185 7
186 3
187 3
188 9
189 3
190 1
191 5
192 3
193 1
194 6
195 3
196 5
197 5
198 2
199 7
200 8
201 5
DEPOT_SECTION
1
-1
EOF
