NAME : gen200_015
COMMENT : uniform customers, demands 1..9, generated by bench/make_tuning_set.py
TYPE : CVRP
DIMENSION : 201
EDGE_WEIGHT_TYPE : EUC_2D
CAPACITY : 70
NODE_COORD_SECTION
1 0.9512387145164813 0.39661617081144773
2 0.5910248880390281 0.8862647522657862
3 0.00449233921362957 0.9225728854072832
4 0.6797789163087581 0.826702326390129
5 0.473664301198539 0.9013851944528225
6 0.4986607727328072 0.8494280362899888
7 0.3360364538971512 0.377264503854154
8 0.6864914495789914 0.17610878741039337
9 0.9914278134068308 0.953523759811726
10 0.4786835172225983 0.14025369840328106
11 0.8066848381059171 0.5612378347386877
12 0.30120475896984344 0.009472161243881394
13 0.7608174099985813 0.8771770211510943
14 0.15509315051533934 0.1391990063478057
15 0.8254120600007391 0.18049971150659672
16 0.44644025587103675 0.6061572544486059
17 0.42744755595979766 0.5643008685008875
18 0.8621044805059368 0.2522917431364806
19 0.3049825671304245 0.4526302725320439
20 0.012186788114736391 0.6459178458059696
21 0.5043656065163288 0.3343443435283334
22 0.11441812961988451 0.1987228753403022
23 0.992861402056583 0.7464658614849647
24 0.16581205806382193 0.6995470939252022
25 0.44323181402609746 0.0604413152188098
26 0.42392643087241566 0.9610967468023095
27 0.99134019647028 0.8637956103118458
28 0.8353596259967427 0.4778622849542902
29 0.4950376728582623 0.23870465113465378
30 0.3000256883449144 0.6950888253084748
31 0.1882687327331104 0.27574606159084203
32 0.04003876094502268 0.44072822855461335
33 0.21879164497504178 0.1623252498646519
34 0.8412511430063337 0.04177948530156106
35 0.9908367023181341 0.9229430861989274
36 0.7574625207890918 0.9938385159103135
37 0.2917574778583266 0.9788432634851587
38 0.358076583216802 0.2807892020705105
39 0.8422480367607283 0.32537030625624785
40 0.9879865364527682 0.9748829487609746
41 0.45549500730083115 0.9654117332652836
42 0.40437576981309387 0.8183686494061265
43 0.3413763970932655 0.30297634863232303
44 0.1908768952820422 0.24949536027124064
45 0.4645238388514934 0.5277655854398866
46 0.23477790302404533 0.8798332096839252
47 0.6800581015881174 0.4607186662986772
48 0.9940933844672627 0.33202772931913904
49 0.34819643494298347 0.8848908216384773
50 0.2061034580053963 0.8537745435938822
51 0.7985636466490279 0.7462690916346159
52 0.3162549894049368 0.3136660485631082
53 0.8869800235162041 0.3098444550454281
54 0.2817304316701065 0.9562665000922278
55 0.9956790117473544 0.8297488400425806
56 0.18130729578595373 0.689458901678417
57 0.7238360790590121 0.3187565591948336
58 0.3722168799028994 0.5076887467303044
59 0.7180825170109306 0.6692438826217703
60 0.8132710666602154 0.8455095702904243
61 0.24313839855619734 0.879458677798074
62 0.32879842823175354 0.07794688254459237
63 0.4604095140445744 0.013086470301315822
64 0.5114290969095143 0.03337116145899155
65 0.3829473195811113 0.634582812852312
66 0.9353832860166086 0.910854027224243
67 0.1617680396247998 0.9048791064235301
68 0.6786385210926518 0.8248379320301109
69 0.34909444604776896 0.6622453941877091
70 0.5279062253071591 0.9294228315046802
71 0.394494056430161 0.878022116209088
72 0.511361316597194 0.1626571077594553
73 0.22045952258347323 0.9862920064377368
74 0.2654588348297815 0.11318634886904266
75 0.23309037478438355 0.26788605099829055
76 0.15350552389120942 0.9853821751370979
77 0.3054134944077056 0.9849335334982199
78 0.3736242177796689 0.21095031843259382
79 0.9435985931380753 0.4736642246651712
80 0.7581692981956971 0.30840339156080965
81 0.06724452412805215 0.9078668762897176
82 0.6836973888059303 0.22113318070388388
83 0.6263905976649278 0.9813126877087939
84 0.3940756343362716 0.7436937985787497
85 0.14184445361238585 0.4205274913058564
86 0.12959705207444283 0.6303305638946506
87 0.6775762224346588 0.230610213218453
88 0.8113804473800823 0.35815095472843395
89 0.6707740887595166 0.6424705365079757
90 0.16793395796212407 0.19372769588714822
91 0.9966921288904351 0.25321700272408865
92 0.054916755752017266 0.30990556224466603
93 0.34390770330965825 0.6631565481919938
94 0.48100264775430035 0.35968704748929037
95 0.16821334819696465 0.7606638904397446
96 0.004667342505086491 0.38408118806419234
97 0.8622994873056399 0.5122522585704355
98 0.5561279189830761 0.24689104747423796
99 0.6278873822376504 0.050305321475729636
100 0.4102541860867964 0.24592912136154765
101 0.26421950122618565 0.022031557066656604
102 0.5454220771502026 0.05715159217894039
103 0.6578955762195188 0.09528482789443904
104 0.9063380409015753 0.09558847965191886
105 0.8321817189244469 0.6759880774046507
106 0.9776246415732001 0.22393899496084024
107 0.948666178037302 0.45542549818809586
108 0.5656411223354907 0.990454447550952
109 0.2507806481623964 0.30439236666688585
110 0.7583271701538693 0.5584347903283341
111 0.558450467172479 0.7183037712768389
112 0.693325588160054 0.29074104190806027
113 0.21974405595082436 0.6263392174282914
114 0.6527155215321949 0.12202139954143998
115 0.9075969416021664 0.8182946916541858
116 0.5011405704687212 0.521425294233906
117 0.42716083066696586 0.2588625984488896
118 0.08922273445078488 0.5099007888175767
119 0.5981712201999873 0.3280366048456089
120 0.0851632047471621 0.15119231639582953
121 0.09490894712513931 0.7384815498911216
122 0.6128895910327444 0.7945361110595767
123 0.004610741162054066 0.704352876048152
124 0.3227742167701433 0.8631512310750723
125 0.41843991945964276 0.20805977090547978
126 0.33119237320822403 0.8833614237407692
127 0.5984594289757384 0.922864179605149
128 0.6411249653007074 0.250845427386691
129 0.9557653131120089 0.3102364701855579
130 0.886559724856574 0.22069877562246
131 0.5437424877469006 0.3576272049729098
132 0.5962736449396855 0.4903549101256488
133 0.5464118093231756 0.4656002972745795
134 0.42061184728884615 0.2034854298080273
135 0.9323575787906373 0.57007503525643
136 0.9106442808356445 0.6846745316750664
137 0.9204041358980951 0.38410652471177165
138 0.35895543969600774 0.44773691242000513
139 0.4334739707671518 0.6269415453795864
140 0.3355167374232849 0.39610983613872075
141 0.7120811584991303 0.37661483032809395
142 0.23724125623348657 0.9337331934744223
143 0.29495935309810417 0.7089703674628796
144 0.6190070027228144 0.0880663332113959
145 0.1233099076852463 0.6371841685293925
146 0.025697161756092046 0.4807271933367454
147 0.798779465392459 0.02066886338858509
148 0.9017604409674789 0.16761630690248197
149 0.9684697063920349 0.1954742121237325
150 0.15032527118961025 0.7833870441900959
151 0.07173014654139531 0.4523103638839363
152 0.8101874999849947 0.8615611883946457
153 0.04736569212135866 0.25122074204800515
154 0.5304124506648278 0.4250222931347003
155 0.2160784945979629 0.9431528856728858
156 0.14102385153525432 0.6922738136199967
157 0.2602499611118928 0.5587724214784677
158 0.46059250727518153 0.9981214936518198
159 0.3377875479689958 0.30363221569974297
160 0.8874649413027027 0.6104143636952611
161 0.05464123430145673 0.19227726904081277
162 0.8453519983053905 0.011854506871310289
163 0.6183992013373552 0.020139136130780444
164 0.9580703805711847 0.8557547953548383
165 0.8668035818547918 0.18782249287679165
166 0.8389510736277922 0.39068938156878785
167 0.31745414430009433 0.907754666254574
168 0.16790632338364375 0.5192917405852611
169 0.6340051963984439 0.05761960664400323
170 0.7789690474213503 0.07718059185836912
171 0.19448476064803555 0.5440149933981009
172 0.17410536299131796 0.007243676219760076
173 0.3307405099466677 0.12363237425284512
174 0.9715166444279314 0.8704698505828592
175 0.3025658654197818 0.8558379529159031
176 0.4808853133200929 0.6136388723115982
177 0.675810465087651 0.7765623659344104
178 0.2190363515844933 0.5926758452693969
179 0.8177298799358067 0.37629666895164804
180 0.25941237452378485 0.8944297717477349
181 0.31386531661670947 0.45166160218865026
182 0.6790697875285798 0.5799607819382571
183 0.11965574929933542 0.6986412257968732
184 0.9735486669712423 0.9528151657424941
185 0.0852017505997662 0.2917489774428008
186 0.520210564660481 0.2179221308496252
187 0.37735361346511886 0.4749345927272871
188 0.3541205478415569 0.8295553741815234
189 0.7561948468903927 0.4690155394813956
190 0.6352670463852468 0.7405686972187503
191 0.009189670190118404 0.3318048063298764
192 0.16289334731699556 0.6068860610585617
193 0.6254651887479235 0.20384298247950494
194 0.5218780730318441 0.8511928178793156
195 0.5838771358015395 3.365670378496777e-05
196 0.4391035719412574 0.2575105761019847
197 0.24908456611593488 0.37181427005543943
198 0.9535751718043607 0.23696732358145634
199 0.6499930685565803 0.6210934940715516
200 0.10843375968514524 0.881334509162143
201 0.945391843324852 0.5984222253297952
DEMAND_SECTION
1 0
2 2
3 5
4 9
5 4
6 1
7 3
8 1
9 5
10 6
11 7
12 9
13 5
14 7
15 1
16 8
17 1
18 1
19 9
20 1
21 9
22 1
23 2
24 2
25 1
26 1
27 2
28 8
29 2
30 1
31 8
32 3
33 1
34 1
35 2
36 9
37 6
38 8
39 2
40 9
41 2
42 9
43 2
44 8
45 6
46 3
47 5
48 5
49 5
50 7
51 7
52 3
53 2
54 7
55 2
56 7
57 4
58 3
59 6
60 9
61 9
62 5
63 7
64 8
65 4
66 2
67 4
68 1
69 7
70 2
71 4
72 2
73 7
74 9
75 7
76 9
77 6
78 8
79 2
80 3
81 2
82 7
83 6
84 9
85 2
86 8
87 6
88 8
89 7
90 4
91 1
92 2
93 3
94 2
95 1
96 4
97 3
98 3
99 1
100 4
101 2
102 3
103 3
104 4
105 7
106 8
107 6
108 8
109 6
110 4
111 1
112 2
113 1
114 7
115 5
116 5
117 5
118 7
119 3
120 7
121 7
122 9
123 6
124 6
125 3
126 7
127 9
128 3
129 9
130 2
131 3
132 3
133 3
134 1
135 7
136 9
137 5
138 6
139 5
140 5
141 1
142 9
143 8
144 6
145 2
146 7
147 8
148 6
149 4
150 9
151 9
152 1
153 9
154 3
155 7
156 8
157 5
158 7
159 2
160 6
161 6
162 5
163 1
164 6
165 9
166 2
167 3
168 8
169 1
170 1
171 1
172 3
173 6
174 5
175 8
176 9
177 9
178 5
179 1
180 4
181 9
182 1
183 2
184 9
185 4
186 4
187 3
188 1
189 8
190 9
191 1
192 8
193 8
194 5
195 9
196 7
197 7
198 3
199 6
200 9
201 2
DEPOT_SECTION
1
-1
EOF
