NAME : gen200_000
COMMENT : uniform customers, demands 1..9, generated by bench/make_tuning_set.py
TYPE : CVRP
DIMENSION : 201
EDGE_WEIGHT_TYPE : EUC_2D
CAPACITY : 70
NODE_COORD_SECTION
1 0.5549434721558305 0.7630079028110536
2 0.5495261961331614 0.8229787396809157
3 0.1998610796310163 0.5020971530837134
4 0.2692864111404951 0.18427921613993248
5 0.4356369107599367 0.3040266793328984
6 0.3292235390026219 0.19194023473961364
7 0.38912343504427127 0.8770822915065499
8 0.8180124346689664 0.10047834729992511
9 0.3624526997789844 0.988047251338628
10 0.7408297190465459 0.012522513773562727
11 0.051977095173085575 0.34549110987667997
12 0.21938880977903963 0.5552788033927574
13 0.1369310969752695 0.745014057215427
14 0.6877971585638023 0.9361363365311904
15 0.508561257613262 0.6183704320697195
16 0.31513471105922497 0.9832148798111277
17 0.609745791736032 0.5416280884195974
18 0.5736745698081795 0.6384768428869178
19 0.04784188806786571 0.6001120308227764
20 0.10947920116749632 0.08233842995000717
21 0.8572799196111988 0.4411428276081071
22 0.39889451928208186 0.24441806157734725
23 0.06582645742874393 0.48359201584323885
24 0.38969791875724213 0.5362591678274297
25 0.22470300764999795 0.38461446779327646
26 0.0954661967374909 0.77065484409425
27 0.6085396048501552 0.22902569794306293
28 0.7804300662330067 0.07625796368679782
29 0.42583303361805924 0.738581170400118
30 0.6265994012758677 0.1984561009057586
31 0.42013219256242895 0.9696168948157069
32 0.8364613509991837 0.24055809249523485
33 0.9255358929608203 0.3354612134022992
34 0.8388662006631454 0.8204983940225213
35 0.7322738055319035 0.4203693128238204
36 0.6112243219129103 0.9004706268681311
37 0.14846079044209792 0.5654294676740861
38 0.17854280933380895 0.9898536980409238
39 0.982700492598551 0.15127407294526063
40 0.8227219033418596 0.00798075531940634
41 0.9761090635690796 0.3044940592160288
42 0.002544330492200375 0.41283901568425185
43 0.7717029079501897 0.5768994738654805
44 0.960739175366793 0.7035798657329861
45 0.8321011219430263 0.06772204528260073
46 0.206038322842938 0.19124221216591053
47 0.7745048103052162 0.12676678885432613
48 0.29888751677829717 0.5271625835281327
49 0.31334271533642133 0.7012770007121262
50 0.33848475844761283 0.6027445502982525
51 0.8853725493063679 0.5519851633422684
52 0.4399986932765967 0.9855396832264484
53 0.4440588801652452 0.3348922828046922
54 0.6029738190706039 0.022360770183600165
55 0.0019907920909779664 0.9577547954379597
56 0.400307445497478 0.34664165094781296
57 0.621294102049278 0.706703358386884
58 0.7440713321112912 0.37514117216989307
59 0.2666571478618982 0.1325652742231097
60 0.03355516796502411 0.1552276473082722
61 0.49889951166935587 0.019008284184007684
62 0.3450964235778441 0.5264693315256387
63 0.6470609618516788 0.023983361729002506
64 0.5202881770330847 0.6594321029068265
65 0.8683634604466094 0.6298774231533093
66 0.23944782364492634 0.5186090170142836
67 0.09545403948089182 0.3109588936950777
68 0.5793777508504245 0.38240908905575655
69 0.8351922586793811 0.8673090739459212
70 0.8611898934300012 0.03136161795587056
71 0.007210957916604421 0.9116512126244074
72 0.10157907957778833 0.5911908685872972
73 0.9156693326024127 0.18670361610122754
74 0.8824330494557133 0.866007923320981
75 0.14949578393098317 0.7888882081807268
76 0.6184515139371277 0.03601975279332181
77 0.9578927403706747 0.03186206984426365
78 0.5212871732133574 0.9226370012653295
79 0.47410309662746897 0.26633260036702566
80 0.4574689731423295 0.297820310343764
81 0.2507834716397417 0.9698965958805195
82 0.48256056185702 0.5368547776188551
83 0.15252604508703727 0.2603792888233044
84 0.8929343767278087 0.42994559919000375
85 0.40484791474997217 0.9185017453536213
86 0.7155104815050148 0.9200960877337488
87 0.2334805684188982 0.09278890441703169
88 0.5257853644100535 0.3036933515350011
89 0.02083362657990906 0.7979924025370506
90 0.6454350967430631 0.05695724393059798
91 0.8506164770777542 0.01004298241442969
92 0.9431354625601135 0.15284467078853903
93 0.7418168530277356 0.18549852707951686
94 0.9863942143871225 0.2167940373957874
95 0.7283976486204291 0.23295443232895063
96 0.3056712758081983 0.7567764190804832
97 0.6918348290390548 0.7938403619071972
98 0.39012473703388606 0.641588648545863
99 0.37016298875691134 0.8141891376159793
100 0.393529514340475 0.01545104451478585
101 0.48839868273314047 0.4584056265485209
102 0.7614521305731717 0.1627363973063921
103 0.006240988286541738 0.5062235225611716
104 0.9633590613399088 0.18642280966416946
105 0.14304951148328204 0.9772065230876494
106 0.5833253163920596 0.8601298263875304
107 0.058965750536876804 0.9043565988463652
108 0.6778664693409238 0.7567727404179878
109 0.6964801855840547 0.8708279146243197
110 0.9863491518568623 0.8112746765187344
111 0.5896974275424465 0.18491368346148263
112 0.5885675539742672 0.06993329695522466
113 0.38321960790691445 0.9958302970291076
114 0.5640547881874867 0.45126144566541804
115 0.5726483389131276 0.16325610611451968
116 0.17687236194264477 0.3016754634267764
117 0.20721610357321962 0.5239411276793938
118 0.3289561298565744 0.09926340684442825
119 0.3807085244110091 0.8989546924517752
120 0.12797997483488632 0.7859795814737447
121 0.38408904223766127 0.30250424300985335
122 0.47726645444475646 0.9056982712386179
123 0.3638252436835687 0.31345623658672506
124 0.8929728946249055 0.9284336124498406
125 0.1651810288176908 0.5094725831538259
126 0.34364268665241315 0.97605857306386
127 0.3235144146326815 0.9226778305279796
128 0.036168197430801796 0.05815137277717908
129 0.9570682123805587 0.43569991389806684
130 0.8927213918191941 0.6514597304778325
131 0.34561215634038667 0.08810181616265811
132 0.13765693820555847 0.533496009881501
133 0.10846380948159973 0.7814459593308251
134 0.7446920970966157 0.04173831800527006
135 0.6096822534978328 0.9074898961026161
136 0.8918641004524114 0.35334451094755526
137 0.2583502060443531 0.6032996231068041
138 0.9955469920815612 0.9181213449982961
139 0.5521167016867936 0.7997482788684551
140 0.27636960863253024 0.3786849718035594
141 0.5068853650211462 0.5252469482704355
142 0.45048037885716163 0.9768027471888693
143 0.8355237684489512 0.7723104969510737
144 0.689937827461329 0.6202031207059961
145 0.11373551966703699 0.07229008096926492
146 0.6102105386066335 0.8204339267392559
147 0.23503368105997136 0.9690338022411825
148 0.9776261329625819 0.42908685056017526
149 0.8572710325985943 0.7260873451579593
150 0.6162459526030967 0.21353722725742796
151 0.939004425519056 0.2352532866673659
152 0.020192672623408292 0.7992963220860458
153 0.9365927213703024 0.5241103557859933
154 0.8473092399908702 0.6710395916625582
155 0.09931430717130896 0.6666050440992753
156 0.7773250947237564 0.09272365358002066
157 0.8854642232096696 0.9347604251868987
158 0.4279165423284097 0.43773574327624865
159 0.7338928937392095 0.15113400457469917
160 0.23038909644578776 0.27305501687099343
161 0.05380552000414107 0.3393253439461542
162 0.5330848168200112 0.9753568554293757
163 0.5132911829119788 0.11744290452237593
164 0.9957450504198128 0.15314400397430927
165 0.7932890525104378 0.2901669292437815
166 0.7548037826964455 0.941502718833457
167 0.8674114181198457 0.21984665165800155
168 0.687323812068707 0.47023452273917854
169 0.9397572609427541 0.7382998591399866
170 0.47900654864262604 0.6373483972899274
171 0.43992999876238537 0.8526180284004699
172 0.10475989722664847 0.8878599593576265
173 0.3119441274431304 0.7514315036429691
174 0.6980737295783551 0.10220328115492583
175 0.5434902161466585 0.2752146290790489
176 0.9723300336607967 0.6703128805775771
177 0.6813065723987272 0.7019770403696639
178 0.6656923185553535 0.8564162019621161
179 0.1510722506786768 0.30000447070643166
180 0.05653529036964988 0.6005576464978587
181 0.6777632763116065 0.25306655649315923
182 0.04056733167892301 0.3375212185930683
183 0.8973990576237957 0.7619789951049689
184 0.25714669835484627 0.7473298930157579
185 0.2561834441534676 0.6817729521791268
186 0.15503326290446617 0.06350011083621232
187 0.9166659846175156 0.530989316116719
188 0.5865663862250075 0.02703446884157834
189 0.6952286967090395 0.04398879510909948
190 0.6141762215384815 0.8160021747564999
191 0.3788519843729454 0.8959106471737923
192 0.12619709136787582 0.30648124110597474
193 0.5648397589980567 0.7750990091277983
194 0.012491063061285113 0.44683181798043414
195 0.4983096358187129 0.958335274840689
196 0.10856093062748662 0.19712683049160706
197 0.32643143476739667 0.5107906252605373
198 0.7926653499512285 0.40715153117083125
199 0.7544082036549848 0.9878744143656877
200 0.36558027801516846 0.5822106857278553
201 0.692658545174856 0.7644384824760433
DEMAND_SECTION
1 0
2 3
3 3
4 1
5 5
6 6
7 5
8 9
9 6
10 6
11 9
12 1
13 9
14 6
15 7
16 8
17 3
18 9
19 1
20 2
21 8
22 2
23 1
24 2
25 5
26 1
27 1
28 8
29 2
30 6
31 7
32 5
33 8
34 1
35 4
36 5
37 7
38 1
39 9
40 3
41 5
42 8
43 6
44 8
45 1
46 3
47 5
48 5
49 6
50 9
51 4
52 4
53 2
54 4
55 7
56 5
57 9
58 9
59 1
60 5
61 8
62 7
63 5
64 7
65 8
66 7
67 8
68 3
69 7
70 7
71 1
72 3
73 5
74 2
75 9
76 9
77 5
78 3
79 9
80 8
81 5
82 1
83 9
84 8
85 1
86 6
87 6
88 2
89 7
90 8
91 3
92 3
93 8
94 9
95 5
96 3
97 4
98 3
99 7
100 2
101 2
102 9
103 9
104 5
105 9
106 8
107 8
108 9
109 2
110 4
111 8
112 8
113 1
114 8
115 4
116 9
117 9
118 3
119 2
120 4
121 4
122 8
123 8
124 1
125 1
126 5
127 3
128 3
129 3
130 2
131 9
132 2
133 8
134 1
135 3
136 4
137 9
138 1
139 2
140 5
141 5
142 8
143 7
144 5
145 4
146 1
147 3
148 8
149 2
150 6
151 2
152 2
153 6
154 8
155 3
156 6
157 9
158 4
159 3
160 9
161 9
162 8
163 8
164 9
165 4
166 1
167 2
168 9
169 8
170 3
171 1
172 8
173 6
174 3
175 3
176 8
177 8
178 2
179 8
180 1
181 9
182 2
183 7
184 8
185 4
186 2
187 7
188 1
189 7
190 9
191 9
192 4
193 2
194 9
195 1
196 1
197 4
198 3
199 5
200 7
201 3
DEPOT_SECTION
1
-1
EOF
