NAME : gen200_022
COMMENT : uniform customers, demands 1..9, generated by bench/make_tuning_set.py
TYPE : CVRP
DIMENSION : 201
EDGE_WEIGHT_TYPE : EUC_2D
CAPACITY : 70
NODE_COORD_SECTION
1 0.3701918010699442 0.6242321532371901
2 0.3994342152261724 0.8744055374069942
3 0.667277656697447 0.6369073706458549
4 0.9666073595610385 0.6753423932596359
5 0.5277438018682544 0.9804993395058857
6 0.08715525045149253 0.2365170175180018
7 0.2439797813099961 0.4096756673236466
8 0.6029575170787692 0.42640049182589046
9 0.14332721818849492 0.20200264360996156
10 0.0760048886596143 0.2752656864811672
11 0.7524983370629923 0.32496565767074803
12 0.3519256595951261 0.5850959717599851
13 0.7201562092818363 0.7170326599459041
14 0.3718519803931396 0.6007933356586205
15 0.19526063640600688 0.17274616876105653
16 0.08806241912066126 0.13234862062467956
17 0.32445712991813136 0.017510215660784922
18 0.16789627342674618 0.07486909893576243
19 0.22965164112769143 0.679723613480613
20 0.32022723587050206 0.5642373653800842
21 0.10169951855673909 0.1218935485912187
22 0.4324761254546656 0.5695212791354568
23 0.7035202721606422 0.6754463709619533
24 0.062203680064764844 0.514451026166954
25 0.1710188319442444 0.6192671511580216
26 0.9801818594604697 0.5266856993199802
27 0.545057510925705 0.09022057753689539
28 0.38738197243541694 0.5101759654811024
29 0.7266139946730781 0.33173639790687826
30 0.7722743780602207 0.6957791388928206
31 0.4490833685491772 0.43447211066064184
32 0.009846142869390784 0.14980674390064075
33 0.1820874859523588 0.45578219729093095
34 0.632074026303062 0.3991187043102681
35 0.637554550053995 0.645266152749999
36 0.15117498837208365 0.17817953123647468
37 0.6703740058968202 0.6296824095978278
38 0.28495403109921313 0.2578372588034258
39 0.9416966068536226 0.6461331220424787
40 0.5837195700350609 0.5147588415345904
41 0.4022603184583007 0.15899727798005514
42 0.5927826807675576 0.7922673001992907
43 0.6591728791737227 0.2854661422459932
44 0.8456179833144978 0.5613199161074737
45 0.3228620872729673 0.2488211926490702
46 0.7143746349767044 0.31538733888192716
47 0.5632324984715862 0.12049686237891133
48 0.17101698972985424 0.030804819931461003
49 0.7015651535706797 0.6351551971969418
50 0.025866170780969866 0.2979404812964419
51 0.38799776207798287 0.9427834981658413
52 0.4476335235297113 0.3017832671766497
53 0.7182844674006649 0.9639304555914571
54 0.010735037293104543 0.1746215745217613
55 0.30481168996783914 0.1813217019221911
56 0.6825822662228208 0.004846587493407051
57 0.08711642902335248 0.0008499231947843855
58 0.11731363087254809 0.26819632998495546
59 0.1547553949701621 0.8799246703816532
60 0.26776701189538266 0.08415463901001574
61 0.817106190548725 0.8770230097346388
62 0.23888535438541625 0.08824219390409627
63 0.8088488057178986 0.21451496043694018
64 0.6063835040497185 0.5739937079043034
65 0.8883964459689923 0.6106491748608205
66 0.8537384179607379 0.22939708625218536
67 0.40423933696409 0.8308982562885332
68 0.2187807715194634 0.0650680161277607
69 0.4124040123183017 0.3945383897036392
70 0.7210628070836224 0.7781356850231113
71 0.22266682603821975 0.798724225609
72 0.7385571523316347 0.46016154618484684
73 0.9690126326669624 0.5738658218484513
74 0.2313572408913508 0.7812634429132757
75 0.7574977818004808 0.8565176381430513
76 0.3644626141293975 0.3283186202792002
77 0.2544582340102901 0.9358138409617593
78 0.25693048391924056 0.8850096250104871
79 0.5168481412427256 0.9691754497678486
80 0.6103139505226125 0.781061517696457
81 0.7546625120243764 0.1580124840553142
82 0.8702640408400681 0.6879302065859221
83 0.09728561231358601 0.4572500184116287
84 0.049347626302975844 0.9860267527201759
85 0.3319933880073659 0.07847724277136492
86 0.8850786197478855 0.5668999482308732
87 0.11432854883731924 0.49343159528621805
88 0.5953864067145616 0.41656538958782585
89 0.23113626952970312 0.05390785870950088
90 0.3452958151630472 0.08073589822343374
91 0.6745329057211022 0.9482925383224682
92 0.9331346857714438 0.5486222834721588
93 0.08802857360476146 0.12223401793915956
94 0.7200764186137324 0.840349089053813
95 0.5442176938713315 0.5018724515691017
96 0.4436590897655198 0.3552694236487327
97 0.38633757834201554 0.5451179720692879
98 0.11587096526446627 0.6211236490527453
99 0.18055643630811324 0.10856775948548336
100 0.5648729759740237 0.4042256644279326
101 0.21018487162222066 0.6286492552666091
102 0.028284441043633146 0.7807532855985861
103 0.9260000535978988 0.12333553909977502
104 0.35022094836935946 0.016684059880561763
105 0.22327245922984817 0.32711223698314806
106 0.6073379553091145 0.6210409694108746
107 0.8974833129211305 0.9958850029590705
108 0.2728669884943741 0.9288151886872402
109 0.4667737319234112 0.16559536656786522
110 0.2670966216687978 0.13402959150671678
111 0.4781319252796642 0.1474167510368093
112 0.45123714798964354 0.8599118686105635
113 0.3706818390591221 0.7800808928966716
114 0.554042500729352 0.030152382214184592
115 0.10656918232647283 0.6550680178759438
116 0.5594450163234357 0.8040573737427293
117 0.5312042449806019 0.4889089949644134
118 0.6605406449209464 0.4931805857317144
119 0.726622146202281 0.39926078873419146
120 0.9372343980866156 0.17586267549547685
121 0.052777769267407515 0.5322406222007988
122 0.9493201707334644 0.316353169903829
123 0.20774846472760689 0.4461846848059233
124 0.3525161939147845 0.3820573212384938
125 0.13717781999942114 0.6471327022455085
126 0.009552057330268648 0.8807998305858225
127 0.4042303331712225 0.33784973072475133
128 0.7677332578455496 0.9275340060381345
129 0.8474394991387931 0.3070782101093945
130 0.17057963232047302 0.7785009572825041
131 0.32156744408774296 0.9397436022071342
132 0.1740522743798929 0.5299116898387424
133 0.35443488135662493 0.3028294676343273
134 0.7021534762354954 0.8220412498799031
135 0.06810683448613508 0.03972168453894731
136 0.6484910911005664 0.7514557322635738
137 0.6970522665097949 0.22215558323238283
138 0.14860183314024333 0.8849874470671438
139 0.012705928266811606 0.9031027910197739
140 0.583298823747206 0.8295987756078207
141 0.1419494814702824 0.5618441451151025
142 0.41187955951475286 0.29208692281569837
143 0.7460289096347033 0.29085880616604043
144 0.009985356797276634 0.518560065772653
145 0.3252314990278856 0.8966529441636278
146 0.6613768416006567 0.05020668842800957
147 0.5856254824703124 0.0039319102884520785
148 0.7429706878681833 0.4033459443638725
149 0.1607299802760762 0.4758303760912552
150 0.8558892466909274 0.05877996657813844
151 0.2871503945430125 0.3273838158367288
152 0.868447136442295 0.5080033790033778
153 0.485423756116116 0.7880252259579127
154 0.5633660330286169 0.5868169506180563
155 0.3601090963660398 0.1709522057517484
156 0.18964324530421517 0.08121431995615502
157 0.6000474775882407 0.21762733527892963
158 0.6677968642916124 0.42315492795818177
159 0.7488026985727139 0.555334864997859
160 0.02532984668632343 0.24621653182267322
161 0.3267740172770811 0.2961503343778641
162 0.9255824656416989 0.304643591536519
163 0.4419643259946999 0.06739592309672027
164 0.04126411744530667 0.2687139056532114
165 0.790089654890045 0.30164819501684437
166 0.8483700350076928 0.03508284862962474
167 0.5449735221609932 0.3485641165443466
168 0.5099092119912939 0.24942426378639537
169 0.45007386276310657 0.7887258715792821
170 0.052316221978057076 0.4414837872412608
171 0.7016286889209773 0.05591072614387227
172 0.23604158975587253 0.9799524906026832
173 0.18439516510495624 0.3754425411571751
174 0.6202492820274044 0.9451581063283291
175 0.589138677569798 0.9087409880452717
176 0.7630838933359629 0.7214961513959153
177 0.7965534227367719 0.3916628193956778
178 0.395809107007535 0.42815346180939495
179 0.454050130467642 0.3148807212858431
180 0.47348019518467266 0.7278307657031986
181 0.19234590093499004 0.15164389433922765
182 0.280397814676271 0.050645727981354915
183 0.6724212649079697 0.8628266692761573
184 0.048863954680341104 0.7255342040962407
185 0.5012441936775768 0.8348326918802786
186 0.8449862943642814 0.7946191421807824
187 0.7331663663570996 0.919216542173305
188 0.062078144112789335 0.6592866827605488
189 0.7844192763077696 0.678028639400876
190 0.6993603228133519 0.3236198347974756
191 0.5160549989942589 0.5128149586166457
192 0.7847801378369612 0.6691747961330072
193 0.4462287529695803 0.38580395076710705
194 0.8264115980109398 0.6462270740562194
195 0.5116511569892231 0.9258737519029462
196 0.5110888907711093 0.00814134665385835
197 0.8104405300199724 0.5219592656718338
198 0.8334728700417101 0.32722796218947514
199 0.7784465446064113 0.38781257399655544
200 0.6893613904713376 0.5707918260709725
201 0.36448314694778905 0.2650903177557651
DEMAND_SECTION
1 0
2 5
3 5
4 5
5 4
6 4
7 6
8 4
9 6
10 7
11 7
12 5
13 8
14 2
15 9
16 7
17 5
18 5
19 4
20 3
21 9
22 3
23 7
24 2
25 8
26 9
27 1
28 7
29 6
30 7
31 7
32 5
33 9
34 6
35 8
36 1
37 8
38 7
39 5
40 3
41 5
42 3
43 5
44 3
45 4
46 9
47 8
48 4
49 6
50 3
51 8
52 7
53 9
54 7
55 9
56 6
57 1
58 3
59 9
60 8
61 5
62 8
63 3
64 8
65 5
66 4
67 3
68 3
69 4
70 3
71 6
72 5
73 5
74 3
75 3
76 4
77 9
78 6
79 1
80 4
81 7
82 7
83 6
84 4
85 3
86 2
87 6
88 1
89 4
90 2
91 9
92 4
93 9
94 5
95 7
96 9
97 9
98 2
99 2
100 9
101 3
102 3
103 5
104 1
105 8
106 3
107 3
108 2
109 8
110 3
111 2
112 2
113 8
114 2
115 4
116 8
117 2
118 4
119 1
120 1
121 8
122 8
123 9
124 1
125 4
126 8
127 4
128 9
129 7
130 6
131 7
132 5
133 1
134 2
135 7
136 2
137 6
138 7
139 6
140 9
141 3
142 2
143 7
144 5
145 7
146 1
147 9
148 3
149 4
150 6
151 7
152 9
153 1
154 7
155 6
156 6
157 8
158 6
159 8
160 3
161 7
162 6
163 9
164 6
165 9
166 3
167 3
168 1
169 2
170 2
171 8
172 5
173 6
174 9
175 1
176 5
177 4
178 2
179 6
180 2
181 3
182 3
183 7
184 6
185 5
186 9
187 8
188 8
189 4
190 7
191 5
192 2
193 8
194 5
195 9
196 8
197 7
198 9
199 4
200 2
201 3
DEPOT_SECTION
1
-1
EOF
