NAME : gen200_019
COMMENT : uniform customers, demands 1..9, generated by bench/make_tuning_set.py
TYPE : CVRP
DIMENSION : 201
EDGE_WEIGHT_TYPE : EUC_2D
CAPACITY : 70
NODE_COORD_SECTION
1 0.1332576731931 0.060602598218875814
2 0.06464801256581099 0.4136894944157551
3 0.42284414453205643 0.3605566443556094
4 0.7385856533286039 0.23337904719524438
5 0.6500286591642249 0.9585689880178827
6 0.6411724458420224 0.4370342044467799
7 0.9012142593955099 0.7679609137008746
8 0.33793622324079897 0.7777440453267231
9 0.06363966457769088 0.5178130541309764
10 0.01169352137010815 0.22220842778552696
11 0.5995730240654541 0.9721059968926291
12 0.41679138483430545 0.7162231267116983
13 0.4927374402925204 0.4161516962015669
14 0.7763545845943124 0.602003041640018
15 0.9431313443230924 0.7178459566668176
16 0.10481892334257636 0.3605614087165325
17 0.2115983986666532 0.03280206852376055
18 0.5234324977544095 0.9945770315649916
19 0.5089828974796216 0.08233631123565721
20 0.3744477413809534 0.016023709321318025
21 0.14920207674757535 0.16847012998146738
22 0.4162205276812123 0.5560954007985521
23 0.969498319131648 0.6388342521682912
24 0.6101156110003547 0.4321554454403924
25 0.09156263457797265 0.23169190131460848
26 0.23117298286378907 0.015564658349748295
27 0.26597657635087146 0.3615809769793882
28 0.9662071651610824 0.5248278779470846
29 0.5756799736191909 0.26104297888708206
30 0.24910991772650104 0.7745163927386489
31 0.3812125689764889 0.9547769259138849
32 0.9959093340310808 0.7361025433431307
33 0.4563258388944823 0.23923564502826378
34 0.5046496242579587 0.09054651308097805
35 0.9986738618623506 0.7315838832228355
36 0.8448631946570524 0.8484441315153904
37 0.2907436491322326 0.5980174749809286
38 0.3258989602143769 0.8719997807416495
39 0.6991481424732788 0.17590944973626121
40 0.43089114989394284 0.365985257313603
41 0.7875508830962192 0.1887807676467893
42 0.060105325961621214 0.45583299531639976
43 0.11079643723673094 0.9118220894326917
44 0.9443239051111195 0.5779765357592384
45 0.9801676984907587 0.7321919793246068
46 0.6217166960184556 0.9354951678167626
47 0.29988473932758497 0.7372068038930787
48 0.43231989384293235 0.22413325914800653
49 0.1720678608817091 0.35461827979282123
50 0.4163311919561896 0.9862780103291351
51 0.9677629603769822 0.974467985227457
52 0.486372653286701 0.2795660563617629
53 0.2524092334849196 0.7620933715732412
54 0.7734169782673649 0.9770142450559666
55 0.2480946690382102 0.18029007243984596
56 0.03637994546309953 0.8794100927923136
57 0.5361848271076552 0.1641883630413944
58 0.660849949296193 0.8677329148434956
59 0.4475672759606141 0.3202712108638237
60 0.23602031400691947 0.08645091501709767
61 0.12990630966555605 0.003003960995482946
62 0.9073730181759002 0.6014076014984667
63 0.8087122211719879 0.8571040135263898
64 0.2143853398216804 0.7726966300900836
65 0.7318775080969123 0.03344298365245191
66 0.7924128395521637 0.6659900877613837
67 0.6178082318126621 0.8594622697747591
68 0.9545635830455605 0.5940589985055076
69 0.3545794388727238 0.4393392773728728
70 0.019619707501344563 0.35258570744948936
71 0.2674223414699042 0.5806274829629754
72 0.966836773713111 0.3633149919939167
73 0.45320319929642117 0.6383423038553447
74 0.9637586384157882 0.7006190137112652
75 0.04584601092789875 0.8107672275826736
76 0.049549840183875316 0.473701349588576
77 0.38797823566675327 0.09084721284633046
78 0.30061479521369583 0.2740659879414804
79 0.3011609549474501 0.9129358285348179
80 0.8077696890229225 0.8711861976228199
81 0.001535816262418055 0.03056330663436224
82 0.8240076674408864 0.6257521035643369
83 0.9220901502507449 0.3128906257240326
84 0.822791952460485 0.10155987353102391
85 0.42299208876704675 0.3610201764019809
86 0.7798317469303532 0.8621631130588755
87 0.7749359961235388 0.16899841964119755
88 0.467244172528663 0.35644932545041885
89 0.6716569812936141 0.8615903010865147
90 0.1704694370866503 0.9962426018000212
91 0.49145851299913634 0.7518605599823857
92 0.6066563169407149 0.1633306599050547
93 0.25471128176891644 0.9813394013035933
94 0.8194023941962831 0.9401954471219092
95 0.020605177457100998 0.9780816562780047
96 0.8674106755843112 0.26643486280388473
97 0.5278868230814638 0.28384847295960325
98 0.7089957382524235 0.9902572880236152
99 0.23862709456766173 0.17979097168893088
100 0.16233562872997986 0.1302975217834934
101 0.8917486801939508 0.08342855518742631
102 0.13574596930032712 0.4375071535716277
103 0.506925304537637 0.8608918156133013
104 0.10460587421763645 0.10183464772585182
105 0.2579132142807704 0.9949560778877311
106 0.6173220659616111 0.42513391188069927
107 0.15994765612960626 0.17609087979988347
108 0.020058434962439642 0.6132432336098452
109 0.27655359037514105 0.6796858209479366
110 0.17249096795934582 0.5257261994732365
111 0.33550164727201837 0.5301651178477238
112 0.5653307984928865 0.1792588398012417
113 0.7499472209555103 0.5889231061767838
114 0.4588956432407132 0.8473186869172745
115 0.9856043688738495 0.13074330067318973
116 0.31195131110756313 0.5576126257673869
117 0.9821499628562375 0.5212031970471163
118 0.7192838866436233 0.35136359963918207
119 0.7041791864825107 0.7755344004681476
120 0.6559558246993976 0.5317177251877756
121 0.4473854914514478 0.34106208834578144
122 0.8092221917578949 0.004522493053125354
123 0.5346148508440691 0.31945550494795627
124 0.03001107738816622 0.3413578987744075
125 0.7403085425255067 0.05789162632177569
126 0.8149627643295202 0.27581114113340544
127 0.6755739434162623 0.924512141166227
128 0.5981616440749997 0.24637328650016665
129 0.39859401374188264 0.383420399942056
130 0.3920862885668711 0.267780647727883
131 0.41683935307219455 0.30074024940913324
132 0.5018277852660512 0.3208688048433528
133 0.3187996559785222 0.9382254442529948
134 0.508424674445735 0.23627976995938227
135 0.9223484472408402 0.673160884975039
136 0.23633388410206435 0.623656014810849
137 0.30250627286437437 0.5417056064566711
138 0.9209212945990755 0.276555892944372
139 0.7758301833636378 0.859218057320529
140 0.8575556616512546 0.30573502933618213
141 0.41687583804691375 0.9748721200752943
142 0.8546753634184034 0.7921705256361069
143 0.9593603920477803 0.443865749421145
144 0.8305536483766334 0.3954114226669385
145 0.10191454883659634 0.3518823265303903
146 0.12140175389760233 0.592571612288759
147 0.8255733248065543 0.6042187590957105
148 0.4283170140055499 0.7075453991264263
149 0.23592688811866902 0.04341035370991686
150 0.5601187467050585 0.8576802350602433
151 0.8278474908186491 0.13433052349182972
152 0.3242863729367055 0.22716822968912764
153 0.4984498861832133 0.9016879193528418
154 0.11050477184031382 0.08154171440288582
155 0.7738001008869608 0.4576782418293963
156 0.4107098320453738 0.925586900396556
157 0.44123530173562364 0.9649067588040278
158 0.3728602682363811 0.9166190285427276
159 0.071101133533789 0.2820766277767106
160 0.4645673194203368 0.9964154417082813
161 0.8251698873578892 0.8458589464967733
162 0.5373706022625416 0.12572116195525207
163 0.943496916654276 0.009795012726776409
164 0.38682842719379473 0.7836584444170581
165 0.17766739470882442 0.3854955755653058
166 0.8167155779447441 0.3127396321403142
167 0.9372442146602894 0.44139510769601964
168 0.42397563222600143 0.6077652219675084
169 0.4049148016825247 0.05483851466852463
170 0.7067623499936436 0.8047493988355078
171 0.8962005070171466 0.9847840951150914
172 0.4030282641521161 0.5586637512833085
173 0.33480903692837616 0.24149002861995283
174 0.1532789210220904 0.1617536146825721
175 0.5757797258424675 0.33373361294404524
176 0.5145779470521559 0.9848167062239715
177 0.9575856659461133 0.8998953593280054
178 0.632359420882319 0.8410546106624672
179 0.5527004524345555 0.37322544380003386
180 0.2945400454342946 0.07466245503852187
181 0.8643884707963998 0.7436274970161566
182 0.14513053971546364 0.010825582284739177
183 0.46760718861574113 0.30540123259734453
184 0.41326479997436005 0.6933862960129114
185 0.2078931307411066 0.5814908375573741
186 0.15192839167670114 0.5181083056557705
187 0.35295788494082103 0.5300470444435412
188 0.5318396005051119 0.4912462806116421
189 0.5299457259897805 0.3474296895440879
190 0.7012415761973703 0.5507440583088246
191 0.9247598367850017 0.4370144205759403
192 0.9876335811055701 0.9122942728012564
193 0.8468960752046182 0.5156595794307377
194 0.3287681472936985 0.7512905813962404
195 0.9032616269033055 0.6952037559399717
196 0.9985235941381997 0.9139778558288045
197 0.7125201555311166 0.4068738283709452
198 0.25311435691287953 0.5501532919542698
199 0.028906700858730705 0.25182055086742716
200 0.10079774266781572 0.8483414981904025
201 0.3995472315640093 0.30408106695620685
DEMAND_SECTION
1 0
2 3
3 7
4 6
5 7
6 9
7 6
8 6
9 1
10 1
11 2
12 9
13 2
14 8
15 9
16 6
17 6
18 9
19 5
20 2
21 5
22 8
23 3
24 7
25 1
26 3
27 9
28 3
29 7
30 5
31 6
32 9
33 8
34 9
35 5
36 5
37 9
38 8
39 6
40 8
41 1
42 7
43 4
44 6
45 2
46 5
47 9
48 7
49 3
50 5
51 7
52 4
53 6
54 7
55 8
56 9
57 4
58 9
59 2
60 7
61 2
62 5
63 8
64 8
65 2
66 2
67 3
68 2
69 2
70 6
71 7
72 5
73 3
74 7
75 4
76 6
77 7
78 1
79 5
80 9
81 1
82 7
83 1
84 1
85 3
86 6
87 2
88 1
89 8
90 7
91 5
92 6
93 3
94 1
95 6
96 1
97 5
98 1
99 7
100 5
101 4
102 9
103 1
104 6
105 2
106 1
107 1
108 9
109 6
110 5
111 5
112 3
113 3
114 1
115 3
116 5
117 4
118 6
119 2
120 7
121 6
122 9
123 9
124 9
125 2
126 6
127 3
128 8
129 7
130 7
131 9
132 5
133 9
134 4
135 7
136 6
137 9
138 4
139 6
140 2
141 6
142 7
143 4
144 8
145 5
146 5
147 3
148 4
149 5
150 3
151 4
152 3
153 3
154 9
155 5
156 3
157 7
158 1
159 5
160 9
161 9
162 6
163 6
164 4
165 2
166 6
167 3
168 8
169 1
170 3
171 5
172 5
173 6
174 7
175 7
176 9
177 4
178 8
179 3
180 8
181 5
182 7
183 4
184 8
185 5
186 5
187 9
188 5
189 9
190 3
191 1
192 7
193 2
194 2
195 4
196 3
197 8
198 7
199 6
200 3
201 2
DEPOT_SECTION
1
-1
EOF
