NAME : gen200_023
COMMENT : uniform customers, demands 1..9, generated by bench/make_tuning_set.py
TYPE : CVRP
DIMENSION : 201
EDGE_WEIGHT_TYPE : EUC_2D
CAPACITY : 70
NODE_COORD_SECTION
1 0.9039724187971013 0.24678274093944996
2 0.17122787210112422 0.1581331944239336
3 0.14464144775842358 0.7958695067352018
4 0.01843525006772695 0.3695152214874289
5 0.4014895237221351 0.39452513254865285
6 0.9853659254803052 0.5900047221997802
7 0.7685916769526042 0.04401243404756949
8 0.6038249814144206 0.7167315383826217
9 0.5610902316220278 0.18021512327697453
10 0.21403580256792298 0.6338027031724016
11 0.259608916217798 0.8715770511464512
12 0.7518968848985187 0.5210269550999768
13 0.23026398835666673 0.0447977834911949
14 0.6145485734275561 0.6268487504715393
15 0.3140629538442967 0.8923023805456086
16 0.8883578504740819 0.8381780973766956
17 0.37079862890219417 0.6881788284633987
18 0.9214143863735528 0.7292086497756962
19 0.6302781895339846 0.4737041804094806
20 0.9486261787838464 0.7902527239797784
21 0.27825847756196354 0.1520554506898134
22 0.61898765656353 0.9515464966167212
23 0.17081887016169062 0.8771672709435581
24 0.5533098424821604 0.36536223702165915
25 0.9723030737109356 0.34110392377681387
26 0.8957835012153819 0.4175193738706119
27 0.4066142793766493 0.6411340176437067
28 0.10479854550793477 0.5580838662279092
29 0.39772112025835915 0.833919133657048
30 0.5203415994566498 0.7638548620505106
31 0.26913951143093884 0.6145903404617445
32 0.0681940908578752 0.053878209648697495
33 0.8713940297961995 0.8817282677396608
34 0.5739278964736124 0.27765036424818734
35 0.4753000114950716 0.5335028322432326
36 0.40361128158101245 0.6835158134655585
37 0.9746010191818208 0.33800400793255747
38 0.2451888707677501 0.4917265695832107
39 0.45601508742404595 0.17208985378220265
40 0.11371015150917962 0.3311255395158825
41 0.8737245310779319 0.4163974970215061
42 0.224528954171064 0.5669206526362927
43 0.8230750980670445 0.49781957327170656
44 0.1868690562906582 0.6283745050840752
45 0.8588531589657035 0.7349018759046219
46 0.08507737572866769 0.8601274444218604
47 0.8706361066667067 0.36369664911479105
48 0.4068989913584905 0.7741444344316234
49 0.73756079031282 0.15198016002942272
50 0.6962376382205371 0.2380245614389067
51 0.6592818365885774 0.7756603276877471
52 0.3604108600423953 0.9235693587734285
53 0.09368758671078947 0.3206727026314664
54 0.10701750024767087 0.02071419011568676
55 0.5141854719369707 0.8393375903341778
56 0.8555232926722434 0.3482338120405163
57 0.24376581694699728 0.2786626328229136
58 0.9627668919423814 0.436374730852946
59 0.18782098938618397 0.5886070231889968
60 0.3049413355907882 0.9809305198413716
61 0.34933151103205284 0.6562678092117491
62 0.6777643886606958 0.40272317288743065
63 0.5267950552470994 0.11204378330539155
64 0.12062054128089983 0.5893214054959914
65 0.5741610520574613 0.460829872263401
66 0.9065506767466326 0.46070360059226034
67 0.8989707499368482 0.28461535701340257
68 0.7105245840333037 0.06184285753875185
69 0.2108383858007723 0.7313239703338412
70 0.9808797161175519 0.4823383457933673
71 0.6073765914467499 0.2995339135272588
72 0.21811688187725609 0.36271147986735486
73 0.5694180945617804 0.4704078345144952
74 0.12611553486535176 0.725048925272143
75 0.3062365428440579 0.9827655175600685
76 0.709941860301859 0.9457280027179035
77 0.8218802479154553 0.791078871749652
78 0.6034320792562338 0.9880316254929272
79 0.2990494532008393 0.4469486196789919
80 0.018570471531240806 0.6182560493103325
81 0.6920850604439428 0.8520664496317485
82 0.7572444183523385 0.1663866212193823
83 0.3819652451877906 0.7738056998489774
84 0.3032305091420562 0.058517494480275434
85 0.1834397093399649 0.6796456064378855
86 0.33137636070841325 0.14289568352278414
87 0.014486022070778426 0.3364042201484584
88 0.500971576397375 0.18597954120118998
89 0.11468146113855104 0.4996026488835493
90 0.7219585153881695 0.19539907290360903
91 0.5994643400638529 0.7327032876392434
92 0.08376446932446213 0.36984351785284153
93 0.09761651678346706 0.879881988705642
94 0.9157668434410954 0.9210019999109003
95 0.32510224412400646 0.28961130442585015
96 0.9985215765061888 0.7179113435910002
97 0.8556288043783755 0.27944220220780147
98 0.6572050649974261 0.669288418595559
99 0.7987528758079948 0.4100319279120117
100 0.18148749629187755 0.48438697136877573
101 0.062006324697331805 0.22232965094441604
102 0.7184726066257358 0.8360412960274016
103 0.054741092160383475 0.2565057640138835
104 0.37003731451031496 0.28600937331726284
105 0.6252987482828378 0.8594484954025926
106 0.04269562649916414 0.16184738643663032
107 0.9795726110181817 0.6600166033300597
108 0.21350354419628725 0.12669062843612033
109 0.7417013551527473 0.4828805138450729
110 0.04211475380370078 0.7140372355012728
111 0.7637852526990664 0.8619786736606938
112 0.777095750169151 0.7375089579733224
113 0.42655774473189134 0.3818631771873189
114 0.5507304243979544 0.929233623050403
115 0.9396193592954858 0.9672906699221987
116 0.016319955838934197 0.4816974865844844
117 0.6649334597492211 0.08077800923749212
118 0.9064211515732477 0.6346322655112815
119 0.9797522541164027 0.8109401607582236
120 0.10773446661520747 0.3354722786560571
121 0.8534081940553374 0.014618310610160612
122 0.17783949675617583 0.8033623440470238
123 0.09128620373835616 0.5284687790282789
124 0.2906926298207594 0.933877983197798
125 0.31097394016981184 0.6463631646063162
126 0.2765285173279006 0.842028239794641
127 0.38150941187524445 0.3819949851324205
128 0.4948961424267697 0.2307279526345586
129 0.1895884915950089 0.16664286191335542
130 0.839035154786006 0.8033085450569869
131 0.9090562908885224 0.5903469412375805
132 0.30241879736101884 0.8844410034060085
133 0.05081697781518413 0.8867689583322345
134 0.4358357159515388 0.5075035312914483
135 0.16126339651928945 0.6114880410406119
136 0.3835970496206421 0.16294340447079658
137 0.5341642851089403 0.31144940297832346
138 0.06190780447416255 0.7695585998388388
139 0.24131272962692196 0.889336709283137
140 0.033896873505753544 0.8119909764156791
141 0.7034625883143659 0.11305467014300741
142 0.5026398778310598 0.34465306813831553
143 0.22401942614458392 0.6012227798974425
144 0.31907866911397353 0.4590067338938566
145 0.22257671358542697 0.012620452603051668
146 0.33318596418148405 0.21730027587227363
147 0.5370604166526418 0.7172070886277249
148 0.9665953715306324 0.5440405687252533
149 0.42549255293319044 0.09506997428932917
150 0.43177877011876276 0.1778068342020328
151 0.6686037827197191 0.8969126656226413
152 0.8194844637075049 0.9820740294414309
153 0.8188284815833645 0.6197239001787156
154 0.2583971350720474 0.13001578566939598
155 0.7914607109030997 0.41026594323149934
156 0.3103902436604994 0.9266004430610408
157 0.2554717550816771 0.49345405826231636
158 0.8357240448717301 0.03831226494145579
159 0.6809544228701466 0.7291942987768315
160 0.6200353810900905 0.051792275818544065
161 0.7938478707864387 0.21608049107151772
162 0.7556501540274227 0.04530103068970992
163 0.6242500836716053 0.874490047556662
164 0.5586926081954978 0.5486727393874216
165 0.5570737777164162 0.014862107273033609
166 0.811262457002854 0.8073699599579574
167 0.8643034116315691 0.6782368856074069
168 0.5723636590119046 0.5108036778196021
169 0.35176092611490195 0.15983477856879424
170 0.06625983244249334 0.95391076130175
171 0.3700040765788777 0.7586328336715225
172 0.5682091352602564 0.24893075046678748
173 0.5336567427064217 0.8846204307137798
174 0.533697294339002 0.9888959862427222
175 0.24848660446228465 0.3509709793687068
176 0.7633461101289797 0.3359634118597229
177 0.5598732066374327 0.9471506914965048
178 0.6253424413400535 0.22756345836857772
179 0.04368032583085213 0.07939923555802575
180 0.9576561855615967 0.9451556890475519
181 0.609344722429483 0.22049145595676167
182 0.8289174453214312 0.4567375974324699
183 0.6471676759615591 0.5845862803944005
184 0.21033756635098022 0.22079356269758588
185 0.25056071374157574 0.7488994398401551
186 0.29635161085625916 0.0420996139572033
187 0.41037947133132147 0.6079418814481581
188 0.2170886968587975 0.34327872403771154
189 0.6193906119684158 0.5465470266867826
190 0.8495370838296641 0.7377904370450555
191 0.0905772759189607 0.40394285146867337
192 0.4558573580524842 0.4467449460241647
193 0.2782627452057924 0.7879002941502995
194 0.9907383372625951 0.9230983498701903
195 0.3818374232602689 0.7816314099993963
196 0.2832554611534398 0.4641827570619568
197 0.5673013209769815 0.07746280886300483
198 0.09815512493828027 0.05665005164282855
199 0.799531970761022 0.8717540771052652
200 0.07252454569440614 0.15421734829371547
201 0.5798265148757956 0.48055158419767063
DEMAND_SECTION
1 0
2 4
3 4
4 2
5 6
6 7
7 6
8 3
9 2
10 5
11 1
12 2
13 8
14 9
15 5
16 5
17 2
18 4
19 6
20 6
21 1
22 5
23 3
24 4
25 8
26 8
27 1
28 4
29 3
30 5
31 3
32 1
33 6
34 2
35 9
36 2
37 3
38 1
39 5
40 9
41 3
42 3
43 6
44 1
45 1
46 4
47 1
48 4
49 5
50 2
51 9
52 9
53 2
54 9
55 9
56 3
57 1
58 9
59 4
60 2
61 9
62 8
63 6
64 3
65 4
66 5
67 2
68 5
69 3
70 2
71 5
72 7
73 8
74 7
75 6
76 1
77 9
78 1
79 1
80 5
81 7
82 7
83 6
84 2
85 7
86 3
87 5
88 6
89 8
90 6
91 1
92 1
93 8
94 8
95 7
96 6
97 5
98 1
99 3
100 3
101 2
102 6
103 2
104 8
105 8
106 9
107 3
108 6
109 4
110 2
111 7
112 8
113 9
114 1
115 3
116 4
117 3
118 6
119 3
120 8
121 3
122 9
123 7
124 1
125 7
126 3
127 6
128 7
129 3
130 5
131 3
132 9
133 5
134 5
135 3
136 4
137 7
138 3
139 8
140 7
141 7
142 6
143 2
144 8
145 1
146 3
147 6
148 6
149 1
150 6
151 7
152 3
153 8
154 2
155 6
156 1
157 5
158 1
159 2
160 1
161 5
162 3
163 4
164 9
165 6
166 8
167 2
168 5
169 3
170 6
171 6
172 8
173 1
174 7
175 8
176 2
177 7
178 7
179 9
180 6
181 7
182 1
183 3
184 3
185 1
186 4
187 4
188 9
189 7
190 7
191 5
192 9
193 2
194 9
195 3
196 3
197 7
198 8
199 6
200 7
201 4
DEPOT_SECTION
1
-1
EOF
