NAME : gen200_008
COMMENT : uniform customers, demands 1..9, generated by bench/make_tuning_set.py
TYPE : CVRP
DIMENSION : 201
EDGE_WEIGHT_TYPE : EUC_2D
CAPACITY : 70
NODE_COORD_SECTION
1 0.00782507123842735 0.9013950553481882
2 0.9059915068638762 0.09149380953718955
3 0.7041029883971092 0.04089101850120991
4 0.8192826380908691 0.9418091713111771
5 0.054935248711852736 0.5922936337326724
6 0.0764196048189224 0.910251856602723
7 0.862177417270209 0.584180309947697
8 0.8873361237638127 0.07235635592226086
9 0.046075130760738214 0.13855259391910446
10 0.9503372064619123 0.7528065092625228
11 0.1016548934176803 0.36989274480736634
12 0.11896372945252554 0.7497322644038412
13 0.620041570907688 0.13797810552105683
14 0.2046068513463899 0.5182050448000619
15 0.22122278083551994 0.9195201284132393
16 0.4878524016708059 0.8024426841420255
17 0.6228679999762495 0.8383622867886178
18 0.18380706143177972 0.14821315510230937
19 0.9841078968993611 0.07489596423311773
20 0.01842017432484 0.9422249968941003
21 0.9089763578367821 0.10000203519560646
22 0.030356367209728896 0.528440334253074
23 0.5001117708905883 0.6768359631746276
24 0.07160233679847217 0.46434633190229035
25 0.3943438466630199 0.6795616649591512
26 0.5364310554677157 0.7264049072589883
27 0.10591695538620016 0.7573052619814076
28 0.6796484486502067 0.31776965671981416
29 0.6896370530772311 0.8782637234221572
30 0.06954982410791655 0.638203953210986
31 0.41512593689656696 0.43632193392390517
32 0.8301183393554361 0.21932828974183916
33 0.2236459449832927 0.605543735747336
34 0.9624469831790547 0.5179813160432949
35 0.9304802569859367 0.8780895829541724
36 0.8376834642697673 0.8153022883564695
37 0.8229592746940466 0.23407066500132168
38 0.5525046410070653 0.16803056018641338
39 0.36051449826247794 0.8658655830996298
40 0.13429902468163069 0.9090209810026669
41 0.8253314794363734 0.8232037607132857
42 0.21401352855531197 0.032262577446423135
43 0.19129107575507942 0.4667872869547788
44 0.8582545391681707 0.24460854024347978
45 0.5484777824077319 0.5045405484301435
46 0.536610999523627 0.915355496901571
47 0.842755485404138 0.26388506548259905
48 0.6115677731961815 0.5870958395471555
49 0.9156688525685204 0.11779325447244682
50 0.28337756484695764 0.49918417183495045
51 0.3227450561445797 0.48346946932023716
52 0.28292803262822586 0.3267894788377512
53 0.2899228970180735 0.48488456347445774
54 0.5675042606629532 0.3909994118795602
55 0.9978831757596245 0.43107949066240947
56 0.17005006323108862 0.4921079741783475
57 0.7301034254238268 0.3675217011469839
58 0.25637290537299984 0.6262152544161543
59 0.24836374610578982 0.8187434943295073
60 0.6310511728847262 0.5984730448032541
61 0.9167740841973012 0.781511281109576
62 0.3655243900444347 0.9409653540161593
63 0.5433577893624275 0.8034406539685465
64 0.4781764240299615 0.20493245209948885
65 0.4164946106275311 0.41621755464812926
66 0.3564569996445067 0.4573137515470893
67 0.0446562905153578 0.163052267550859
68 0.42828773134234155 0.3124067881718454
69 0.4162132802435835 0.6977438994154486
70 0.6936449757329545 0.9766235345015875
71 0.25907372927092676 0.13428491877644522
72 0.844064659099493 0.7596969705001788
73 0.5552020083152884 0.24100532412788
74 0.15217995901626402 0.5820334146964296
75 0.37019641798784086 0.16503772622272872
76 0.5816069189024089 0.6919702028819908
77 0.14938708182242144 0.0761101778515818
78 0.036298347458001756 0.788444719137876
79 0.06248180638354495 0.6310052326841488
80 0.01780281417834617 0.9793655990266932
81 0.3261659653570125 0.9497559646417403
82 0.26269886392586683 0.8250290878287491
83 0.6349258969768904 0.9053540083274082
84 0.11888993908668166 0.922254452008906
85 0.7513652379087888 0.9836280119813983
86 0.60513105739569 0.8251435765142717
87 0.8984381802956893 0.18508924128111204
88 0.19229784974382924 0.6077534896235877
89 0.20304981697490554 0.31759349645835566
90 0.9489564799236248 0.5845768253283881
91 0.2828805778944077 0.2905087178216974
92 0.6748379535141059 0.20793959450331412
93 0.5447577179531724 0.1514621519726077
94 0.38250502337540115 0.5862941673794949
95 0.46026423792542814 0.4412811444502486
96 0.8643854417594135 0.1370660103362441
97 0.2891672756351281 0.8926716105683431
98 0.6800322448881453 0.3393069486516518
99 0.050841983787300316 0.1413033506694562
100 0.5610574139315285 0.9766443264768461
101 0.3178190165584165 0.055869845375032035
102 0.08399706349533975 0.03322006607216277
103 0.2815291163990541 0.23533954024685266
104 0.578977192657504 0.3299490186796845
105 0.4445215973281986 0.13243413318490416
106 0.5767308249792374 0.1121665800204823
107 0.7760296838238094 0.1778967848960631
108 0.08847062244718984 0.580436885976703
109 0.011101547859528327 0.8476458769279923
110 0.425022323120376 0.6606402331124326
111 0.5485200740468594 0.0645246176118921
112 0.2240822434232137 0.9287400173049574
113 0.2507065177594887 0.7930764495673446
114 0.5288710596627394 0.03271667290099922
115 0.4113112417574969 0.06691648094917058
116 0.6901272095931074 0.3898673656679016
117 0.34935442804816896 0.7667596060266361
118 0.8557861195395157 0.4202910678696783
119 0.6750713377315986 0.48639008015333207
120 0.6299489552424352 0.9779054431960653
121 0.06246810819259574 0.07434587488067079
122 0.2455746119888409 0.09068444785176855
123 0.6122081420713863 0.9377154003649466
124 0.9373348138686255 0.4008589899376733
125 0.7729487180516703 0.33914480381776646
126 0.23844878092508281 0.6558434991202624
127 0.2334580333328624 0.4883744059873797
128 0.721473651135885 0.25144002048096104
129 0.14042148732532567 0.6070676128304691
130 0.870133654831602 0.4096891432687445
131 0.4643112404575256 0.5471631005430901
132 0.4014398597901264 0.984270105040576
133 0.3783275255570159 0.0005612125976345306
134 0.81329412333883 0.36964702294023155
135 0.7530891798561392 0.7625627339226081
136 0.1215855077409681 0.8190489398416113
137 0.13146411727504914 0.057964482299289743
138 0.06828363158829054 0.6845313476889281
139 0.44792464520794384 0.7038516037791488
140 0.5336775309746606 0.15571448108828834
141 0.0875097254680719 0.14661474725823087
142 0.8041458068307605 0.6038204162555696
143 0.78404583158424 0.7546481902923916
144 0.44475406397310846 0.7422208763061257
145 0.36935349255061667 0.5736950517725186
146 0.40926381887760543 0.056047517990273965
147 0.30865031333940796 0.5820390835828492
148 0.7209576282248266 0.5576146408480062
149 0.148083899748077 0.885330995594692
150 0.9401180298815891 0.9105866490599817
151 0.35270871899005196 0.9869486254820329
152 0.2798471155843323 0.9207687502846631
153 0.2503586557396904 0.12627266981752472
154 0.4740611035258975 0.9857907272287503
155 0.8474846638514935 0.9283103152744062
156 0.820697638009623 0.7070686198857788
157 0.9415679697848793 0.6208433328240311
158 0.9682776124249626 0.5173229209056811
159 0.17351185734802133 0.7794706254154001
160 0.2467412554104892 0.5062486322074589
161 0.9741186086808626 0.5953169281070476
162 0.24814875410225623 0.8781192322811202
163 0.5553748165860247 0.01597808285320601
164 0.1375791816446369 0.5106357923762632
165 0.7484749077587746 0.298522352796892
166 0.9983336346827945 0.9527407848193873
167 0.09292144581731798 0.15478240842126934
168 0.569819303833393 0.2789793413933467
169 0.4667424666254545 0.7643098406644856
170 0.6962756662561902 0.8315731440441777
171 0.5394121518714506 0.5953892683704006
172 0.38342594563580557 0.5257490784539931
173 0.10874521566802509 0.16610481265160504
174 0.46347240331741013 0.5456067206137524
175 0.5920503080346895 0.1093609265988682
176 0.15426247446262586 0.9017262101112599
177 0.7039464713099157 0.034254722967414275
178 0.6424851031398199 0.4639234907849594
179 0.6673604042920207 0.3251589208882538
180 0.802064314338933 0.9865274054342277
181 0.8832774542578703 0.5259973288655367
182 0.486364172756772 0.321842200270967
183 0.2584449183629266 0.7720687580488919
184 0.16804429202932902 0.6914128461796901
185 0.036827726878475575 0.6980842864733585
186 0.8228413144834884 0.9714687109522655
187 0.20558453579078828 0.23531931729656286
188 0.9224475382037998 0.06853987550904705
189 0.8292448947042267 0.7802434276760063
190 0.9964053770930956 0.749832354064754
191 0.6464763832539515 0.12222151840615592
192 0.7102251638683091 0.9651034259201329
193 0.6109288557407441 0.49676796767553555
194 0.6730454796275548 0.866470092775813
195 0.6338519522096673 0.6366428397656442
196 0.8598414102137785 0.6153729485167424
197 0.7828711280788436 0.4016384810619199
198 0.43249930682242965 0.20266256501760527
199 0.2458665425716594 0.5727629058266168
200 0.2775811486960985 0.0799420165220911
201 0.049799714034865494 0.9182813743125586
DEMAND_SECTION
1 0
2 2
3 1
4 9
5 8
6 9
7 8
8 2
9 1
10 9
11 5
12 9
13 1
14 6
15 1
16 2
17 6
18 5
19 6
20 9
21 3
22 3
23 3
24 4
25 5
26 7
27 6
28 3
29 9
30 2
31 6
32 6
33 6
34 7
35 6
36 5
37 9
38 9
39 4
40 9
41 4
42 3
43 8
44 4
45 7
46 8
47 4
48 5
49 7
50 6
51 7
52 4
53 3
54 3
55 7
56 4
57 2
58 7
59 3
60 4
61 9
62 3
63 7
64 8
65 7
66 8
67 1
68 7
69 4
70 9
71 3
72 9
73 3
74 7
75 2
76 9
77 7
78 9
79 7
80 5
81 7
82 2
83 1
84 9
85 7
86 2
87 4
88 9
89 4
90 6
91 8
92 8
93 4
94 7
95 8
96 9
97 4
98 4
99 3
100 2
101 1
102 9
103 6
104 4
105 6
106 1
107 8
108 9
109 7
110 3
111 7
112 2
113 9
114 9
115 5
116 8
117 2
118 7
119 6
120 1
121 4
122 8
123 3
124 5
125 3
126 8
127 5
128 1
129 5
130 4
131 2
132 2
133 4
134 9
135 4
136 1
137 1
138 9
139 6
140 6
141 1
142 3
143 8
144 6
145 3
146 7
147 3
148 9
149 7
150 6
151 5
152 6
153 2
154 7
155 9
156 9
157 6
158 1
159 9
160 5
161 9
162 4
163 1
164 5
165 8
166 6
167 8
168 9
169 5
170 6
171 9
172 6
173 7
174 9
175 6
176 2
177 9
178 4
179 5
180 5
181 2
182 8
183 3
184 6
185 4
186 7
187 4
188 5
189 4
190 2
191 4
192 1
193 7
194 7
195 7
196 2
197 3
198 9
199 3
200 7
201 4
DEPOT_SECTION
1
-1
EOF
