NAME : gen200_029
COMMENT : uniform customers, demands 1..9, generated by bench/make_tuning_set.py
TYPE : CVRP
DIMENSION : 201
EDGE_WEIGHT_TYPE : EUC_2D
CAPACITY : 70
NODE_COORD_SECTION
1 0.6103218349276788 0.6414952020649485
2 0.8895741290933689 0.5342624267106549
3 0.43253693242672486 0.3574718711217739
4 0.3476698352624429 0.12167400401359563
5 0.3592697661681512 0.7372021039317554
6 0.11987854460692993 0.7242169005026867
7 0.9525993349869016 0.9105184229237399
8 0.6310098643150157 0.7945093995220002
9 0.6499770288111595 0.7409626504691542
10 0.8644708619923529 0.8761083714032043
11 0.5372223160871094 0.7339716615214218
12 0.909968879674252 0.9233868405205456
13 0.9697081846489991 0.3583614265751224
14 0.35915685309223844 0.9701815232578156
15 0.28612660114690924 0.6749066475052219
16 0.2564857518419372 0.7304213841413091
17 0.87505004263851 0.13694280421670824
18 0.7339085484696113 0.23131130760465002
19 0.4028332095883106 0.8329686376972086
20 0.8899723937097245 0.6759597805066389
21 0.256126424692675 0.7351735224042041
22 0.7562198816474276 0.843047749281285
23 0.4502101874231367 0.3801175972216809
24 0.5803602379569791 0.28759512595842374
25 0.14831195020882726 0.485170018337139
26 0.05573552479191057 0.14485315296944545
27 0.6085932455813097 0.014803655138260874
28 0.9248996426812527 0.03938061442469609
29 0.1170544249335842 0.9342385774332229
30 0.38222352668938364 0.23213779108696697
31 0.21231767445804606 0.8045792042789524
32 0.9864523397616934 0.3875762488972213
33 0.7428285157430821 0.390116418524321
34 0.7746295593911449 0.2477745999153772
35 0.8650938860617325 0.3567907294691869
36 0.6492998260146119 0.26662850250767123
37 0.22419851846445338 0.08172013390384247
38 0.3655424256270343 0.7526281202966304
39 0.7324333101828986 0.1998144180980157
40 0.1807576607588034 0.6788525347004926
41 0.08684462193342257 0.6404557977774523
42 0.9521699411723926 0.2855164302114599
43 0.9336837771564788 0.49326284353613314
44 0.6991719343895146 0.165387939036863
45 0.5818714566223049 0.582147015744995
46 0.2814639307219845 0.09437266396719701
47 0.9150129042240163 0.3111553980525391
48 0.5584164207756523 0.2584364177228001
49 0.9144499906030474 0.8597964831892948
50 0.9768984191451874 0.32265079933526
51 0.6844360891351082 0.526352092747452
52 0.46043578798204554 0.24931484904607504
53 0.20077567211486125 0.9378999647256392
54 0.3850494329146389 0.9021641723139681
55 0.9297564704235829 0.6967023533228431
56 0.947582115747172 0.6653469300830732
57 0.9772855895009663 0.7953738364433954
58 0.41527060820395056 0.6767860796952718
59 0.431761495731789 0.0032765243249628373
60 0.8538950882757008 0.20960076731063892
61 0.9574972203539953 0.7979525265045705
62 0.36850099776984035 0.3916636236554164
63 0.7186782627655264 0.4150370095952518
64 0.17918772833992624 0.7833221777402085
65 0.2050917292472122 0.7646868973046569
66 0.2984227153329092 0.5293105880500975
67 0.7042261953204385 0.37113090818866357
68 0.6294268896470663 0.2895096051046032
69 0.8916830663510051 0.10922559058742909
70 0.4753396480393649 0.3061863096854275
71 0.5959884485506559 0.05382444569757694
72 0.8411084446742272 0.42746118282809553
73 0.5399144964135857 0.6411743459975163
74 0.7907651442957003 0.7879404439643068
75 0.6397500803251877 0.13217213313556053
76 0.010070432778266247 0.5691997757606649
77 0.09354070038712892 0.716164044908118
78 0.03945853861090298 0.3879134393820336
79 0.28791491348083964 0.09372424061681572
80 0.266032525216363 0.01907960240969342
81 0.46441638204617597 0.5640173070778468
82 0.5962325649517652 0.08221005189341546
83 0.4222612187169734 0.3402661978307254
84 0.6907861717244844 0.8096055978526572
85 0.8093755654270884 0.8893553559063443
86 0.9471890444344789 0.7802417127023548
87 0.47805240830472584 0.8050786300229529
88 0.26687425927117103 0.8968464516757946
89 0.2138794670371077 0.4736438819163986
90 0.23590848072396498 0.6157732033452028
91 0.2506363930489365 0.9823910457112286
92 0.9443822997843215 0.0069948781174581365
93 0.6760071399570767 0.1176492854367085
94 0.6423099467812662 0.7600967685390757
95 0.9811707391814665 0.2620313755968321
96 0.21255914650161134 0.8214716078369707
97 0.2986396977213298 0.6226901388736258
98 0.39739894716442503 0.8777526088944779
99 0.9040830079236775 0.8412397588023792
100 0.2218339126161406 0.5013119113301606
101 0.3491360763100728 0.5777839788295912
102 0.6957504115731687 0.9144570483008514
103 0.21436094967841768 0.8043174633293415
104 0.09080826556697785 0.44679738386937984
105 0.19831715971310526 0.3696137956717962
106 0.45428883095814765 0.4947958140102424
107 0.5485471988161164 0.5774886730650651
108 0.664680800967 0.5923350996444272
109 0.49192412057116475 0.2914113917880159
110 0.9050486547184924 0.9461068384835907
111 0.998422308781469 0.228109809703946
112 0.25100194752402105 0.04563488087740464
113 0.004775040445947898 0.9664483980365443
114 0.4714912045014803 0.30444404302069106
115 0.31249680349700926 0.9585880863065311
116 0.3312659638350429 0.21517058144761014
117 0.058579586117117555 0.018370268922177746
118 0.3388645997069134 0.2151401341741015
119 0.3881450112841677 0.6636825961565704
120 0.37089748571550785 0.7052256866349108
121 0.32796516653729035 0.07854207569062288
122 0.7115093403443962 0.0729836902251102
123 0.6207871423545995 0.5662466409191275
124 0.05559001891139426 0.8059877095266844
125 0.5384252701303645 0.4829779294336837
126 0.9995265836096443 0.3461573744585177
127 0.626356454679979 0.2591565446376849
128 0.18917437088751032 0.4281926417160975
129 0.5421136676167135 0.08444375217895961
130 0.9809929845077784 0.3691347633355665
131 0.5447489370911235 0.9995454082645736
132 0.4161972917169201 0.7494833729673764
133 0.45648785474206743 0.9425589108748681
134 0.9926027458202064 0.8797869626263177
135 0.2572458003381378 0.38508087785957656
136 0.5891018338934043 0.9690453075352576
137 0.4542868302119678 0.41769936625039994
138 0.33448432467507105 0.23693953451544525
139 0.7302690101916081 0.367279123275972
140 0.2222394460573599 0.15778054588685442
141 0.3514264829864252 0.7598875863059814
142 0.4642435788624367 0.9216257350464727
143 0.4321164571526602 0.44530528422926985
144 0.9244110974302957 0.1428579665647972
145 0.3973047486492347 0.6020455009426481
146 0.6749273372837388 0.9648703523998228
147 0.9047547746152391 0.5957822913090876
148 0.27422659032828534 0.9247087644172285
149 0.7664433187517564 0.20473147892300403
150 0.49077598642097886 0.05105367052268739
151 0.43715021081871897 0.7136957643916119
152 0.486629162532634 0.2902748663090883
153 0.26652436215258946 0.9669414696007992
154 0.8566256055254802 0.8974091316639463
155 0.45057743648169823 0.5715577577946183
156 0.31905965528907787 0.583339162822586
157 0.1665621486219503 0.8440318652322701
158 0.3397477508249098 0.6127068225257748
159 0.4320105516362279 0.7490100393932337
160 0.06058261912276208 0.43107218762510535
161 0.7920786043858502 0.6825490700087108
162 0.7811110345797238 0.43408332187627374
163 0.02716701737086602 0.46963732997057106
164 0.6394467502698652 0.25710843604238454
165 0.9823414007281622 0.4090236100607534
166 0.1410545390511181 0.9304247014247294
167 0.465694523121187 0.13408282020973172
168 0.9042962643305406 0.8529971331104376
169 0.2912307045122733 0.5969896772163996
170 0.7812619887264307 0.6486441942451391
171 0.8245654778420631 0.8984534306181592
172 0.9960600489278169 0.8186749776214746
173 0.6023753139303325 0.9497231054905857
174 0.06662659908479462 0.8250262338509614
175 0.08247009434387953 0.20447401782228236
176 0.05306944450914075 0.4069253794890556
177 0.5250964596029633 0.4067617356510549
178 0.27497223691378014 0.055739612625947954
179 0.07497964916841204 0.7078127842172861
180 0.21504130343156036 0.720243610197752
181 0.3147786658063526 0.9671752045621969
182 0.4148564289561626 0.1752831395454051
183 0.6340721084240186 0.43975415041240984
184 0.4501316653409171 0.2450490140094287
185 0.5183331925411283 0.42507996442063634
186 0.9215260403439509 0.9636003585139878
187 0.16161112428976931 0.03942455260520805
188 0.5282835838219118 0.7756399928459311
189 0.23943178178376912 0.1100454439368358
190 0.6304915563634483 0.2702331356864083
191 0.6280119156495022 0.6293844221382565
192 0.706907617070634 0.7731076787861583
193 0.23664224102125087 0.8028379033423286
194 0.19729899346640467 0.962532303328509
195 0.25035521372534775 0.3620778122682441
196 0.1956732620709769 0.39829877131428115
197 0.2717390329717897 0.22344769378350615
198 0.6787581514252978 0.9758725116706913
199 0.5741065010969031 0.0638098394308052
200 0.640495927826827 0.3655617508612441
201 0.9659705510843107 0.6499340977759459
DEMAND_SECTION
1 0
2 4
3 3
4 5
5 1
6 1
7 4
8 6
9 5
10 3
11 6
12 3
13 6
14 1
15 8
16 9
17 5
18 1
19 6
20 1
21 6
22 7
23 4
24 8
25 6
26 5
27 1
28 1
29 7
30 6
31 4
32 3
33 2
34 6
35 1
36 4
37 4
38 6
39 2
40 2
41 1
42 8
43 6
44 6
45 1
46 3
47 5
48 7
49 7
50 4
51 5
52 8
53 2
54 6
55 5
56 9
57 5
58 2
59 3
60 7
61 8
62 1
63 9
64 4
65 8
66 3
67 2
68 2
69 7
70 5
71 6
72 3
73 5
74 8
75 5
76 9
77 4
78 4
79 5
80 6
81 1
82 5
83 7
84 6
85 4
86 6
87 7
88 7
89 7
90 6
91 3
92 3
93 5
94 4
95 3
96 7
97 4
98 4
99 5
100 9
101 3
102 4
103 2
104 7
105 7
106 1
107 6
108 2
109 2
110 7
111 9
112 2
113 5
114 2
115 2
116 5
117 9
118 4
119 5
120 3
121 5
122 2
123 6
124 7
125 5
126 9
127 9
128 6
129 8
130 1
131 2
132 1
133 4
134 9
135 9
136 9
137 4
138 8
139 6
140 7
141 5
142 8
143 7
144 7
145 7
146 4
147 5
148 4
149 1
150 7
151 1
152 6
153 6
154 9
155 7
156 1
157 8
158 9
159 9
160 5
161 8
162 9
163 4
164 1
165 7
166 5
167 4
168 5
169 3
170 9
171 8
172 3
173 3
174 4
175 3
176 3
177 5
178 4
179 7
180 5
181 9
182 2
183 3
184 9
185 9
186 4
187 1
188 9
189 9
190 6
191 3
192 6
193 6
194 7
195 9
196 1
197 3
198 8
199 7
200 7
201 2
DEPOT_SECTION
1
-1
EOF
