NAME : gen200_028
COMMENT : uniform customers, demands 1..9, generated by bench/make_tuning_set.py
TYPE : CVRP
DIMENSION : 201
EDGE_WEIGHT_TYPE : EUC_2D
CAPACITY : 70
NODE_COORD_SECTION
1 0.8007878158694756 0.19348405334557717
2 0.4958760615455067 0.5118419617071813
3 0.07773774171823744 0.09484098975721156
4 0.7962270623913897 0.4133766446862709
5 0.3116283969430058 0.2725062209291529
6 0.9945438554719248 0.12469655118901657
7 0.27734519372528377 0.10901625686644545
8 0.15892424412216943 0.7416001627255754
9 0.2588104594020697 0.9037312799513196
10 0.6900513888563993 0.1433860768134244
11 0.474609031728206 0.49867865490599805
12 0.3102747796988925 0.9971288013754807
13 0.9841489401061526 0.37586134535234383
14 0.5176924323636368 0.046390664037854634
15 0.033167248655714854 0.07967718353718645
16 0.7929508510316948 0.49896077191738175
17 0.41119616528563085 0.046843370866217815
18 0.7134772176078504 0.5744698118234153
19 0.959343427646507 0.742851858050557
20 0.3627731377813267 0.5364798662362302
21 0.4503259085372775 0.7256527331126555
22 0.7847617343073732 0.5111088271419245
23 0.3794596702041527 0.06269687086004472
24 0.3870915569176613 0.4496749413848363
25 0.7479758711927884 0.9415043580944542
26 0.5569997236895435 0.16472888811210595
27 0.4846247594486117 0.6840127368076762
28 0.9419717354353061 0.8566209823291955
29 0.6518012583272242 0.7196629433998405
30 0.7209362138463633 0.9101112935304765
31 0.6920717852302928 0.6989469108857764
32 0.6965887505460021 0.5753419041415764
33 0.8717854740970424 0.6758634443260625
34 0.7943336677884137 0.23597814248711302
35 0.13396234948518815 0.7012883190266741
36 0.06211129351276368 0.5641198417904566
37 0.9264337756350705 0.047927160478408726
38 0.8906266408614731 0.1170337646577907
39 0.3771217024323933 0.6478272599934635
40 0.9070950643719056 0.6751819213642817
41 0.3324282058485465 0.6568872988521481
42 0.9029322158377374 0.6971751264009118
43 0.7790188512519435 0.6458938453997746
44 0.42875412998735285 0.49399841197532834
45 0.8500864956840057 0.576925512882475
46 0.29417403904303907 0.4059224855194602
47 0.48146128599320137 0.9120283064903655
48 0.3626387382103098 0.058961920541231616
49 0.3177284289356159 0.46220693910038346
50 0.1367854628013696 0.20611430923056073
51 0.36617276738667204 0.4067853729347861
52 0.44744105213351915 0.03918096566069584
53 0.5651346139414071 0.6533627990020174
54 0.11255088036275385 0.6884137056526286
55 0.45069476144192744 0.9708204649617581
56 0.6769935707329171 0.7612398470252582
57 0.43034612760246627 0.5173742325903422
58 0.43533295025858354 0.1579717299819572
59 0.8967789563684576 0.8126858656119907
60 0.4213761401431142 0.156794751587782
61 0.6567314029192127 0.823347972783916
62 0.14597842867076527 0.2976999610090447
63 0.8479787566507947 0.6078472751978823
64 0.5769218575486593 0.2461986682664037
65 0.5412346955012295 0.7803310524998237
66 0.9919133236007159 0.3777583899986958
67 0.24184891007575793 0.6336408041190483
68 0.052728472458062337 0.27065490131709646
69 0.18612702724761576 0.5916915098020264
70 0.5084835371557441 0.8509756601893721
71 0.2994625991115576 0.9113789881127022
72 0.6279347971534535 0.4119164054863861
73 0.4573277030282129 0.6642035817020122
74 0.07662808466115878 0.9149246947841989
75 0.2931099557778837 0.7884072841232986
76 0.31359942257055307 0.025679721384807452
77 0.38763354723616894 0.0003590366541545986
78 0.48876963054715616 0.6500303691448227
79 0.14805013536471645 0.3428379160752276
80 0.7098493429989176 0.0567962426240366
81 0.9650231406323921 0.269895078088945
82 0.540821893944372 0.02489283835230649
83 0.37746239982889374 0.6332690736420276
84 0.2791611984687802 0.32399628125358815
85 0.7771262500830984 0.07993818413389653
86 0.4688814821664362 0.7420820685078894
87 0.32695974665054484 0.048752262802104096
88 0.11356007288226233 0.6815537466234146
89 0.7948469334902716 0.43698896953403155
90 0.6259165843469248 0.39475911934675134
91 0.28586507013391793 0.7059809737102903
92 0.6946654820509278 0.9101010519818956
93 0.7431620191316398 0.15546827614161363
94 0.40038674556121445 0.4010646502197862
95 0.8021465805000825 0.41098091958749017
96 0.49497102919988534 0.34759085371984033
97 0.6747359978320491 0.18151531526310716
98 0.19611325316869832 0.7940119380786678
99 0.33294361532837125 0.8632426078156529
100 0.8866508332111939 0.2798165264867305
101 0.5934807217446098 0.898329233224532
102 0.16936707985098898 0.15869416972785044
103 0.06470613230497502 0.8384192899769175
104 0.7973614365125958 0.9242274067550507
105 0.5976956195120647 0.8701835828346556
106 0.045235174576874426 0.9434923893574247
107 0.4871091924803437 0.9788109338347226
108 0.5318534269730858 0.8822221366385038
109 0.7654225961352751 0.8054135405908925
110 0.09984093337721678 0.7849575035901561
111 0.7216744584159456 0.39331909336566906
112 0.00579371856002564 0.6396454992283422
113 0.5618209020205179 0.6371383038637632
114 0.6631667054557491 0.3640436494161875
115 0.9313540430093739 0.7679861529136017
116 0.4203584920559351 0.1940510781039243
117 0.0779414519376419 0.537257333745517
118 0.4690078174155202 0.7740109581254099
119 0.1698937394667953 0.07139555226703997
120 0.033556655297718785 0.23060093301716034
121 0.6921315123929244 0.41800146013355877
122 0.3124065569242632 0.617932940607753
123 0.6174694030266793 0.19838017121047058
124 0.1038421445323473 0.27222241382330603
125 0.693629737433447 0.39806023968367166
126 0.6094648859295785 0.6710804387167614
127 0.0198026489718115 0.9316438659223943
128 0.5945113346322815 0.0863090350596144
129 0.6554796783432426 0.10480411549184476
130 0.43925761867868496 0.1715175868368236
131 0.7937336956338369 0.6949392114881393
132 0.34850581973824524 0.7196296137710815
133 0.7919600007664365 0.540771046320766
134 0.2830575448888719 0.9939185430966527
135 0.27298558545753326 0.7287633578537187
136 0.5381973689642069 0.814391091862949
137 0.913286296261923 0.011632953635454024
138 0.4220713236831183 0.46196108036858363
139 0.2433345816072312 0.6179931225692875
140 0.2974210041345636 0.7098979226991846
141 0.4309285307219599 0.3050403237273358
142 0.3467304420384829 0.9884963952754151
143 0.7168277615579784 0.994681532611261
144 0.24276106566740419 0.5363472150270905
145 0.13118293228092104 0.5973418456878519
146 0.22794052669952136 0.2900035900950241
147 0.7202940283620074 0.039641540320362045
148 0.3933415148232837 0.9630231179501346
149 0.5813088510232196 0.9401955484986786
150 0.7012291429845114 0.11952894278828818
151 0.03231885740840457 0.9810505251401496
152 0.1681848553588432 0.8146009134280425
153 0.2558019186940883 0.34093882587603686
154 0.07731321162047389 0.06367985449951397
155 0.3974813556635902 0.2567203968839744
156 0.48776396721138127 0.8341296905239183
157 0.0964868625372931 0.4024749612891235
158 0.2379531507709618 0.8030853720271572
159 0.7622961491614153 0.8727534222911387
160 0.5448317215620939 0.6078266664170417
161 0.5351372610962862 0.6493427401444729
162 0.5955371477294429 0.26557944982342696
163 0.9950934334768956 0.9937293217036282
164 0.41149801774533623 0.651892165826244
165 0.42788877184591545 0.581108508251246
166 0.24210699744920283 0.9536761860086203
167 0.7916500722886726 0.7661025255869339
168 0.525913838303714 0.6930940445373871
169 0.6813506508222101 0.9504636377550354
170 0.5604296781164815 0.9124557923417608
171 0.1535901477245183 0.6928655399697666
172 0.6515333569141174 0.3800522122677571
173 0.2681241179522279 0.21330816772581707
174 0.6683375373014002 0.872673550606888
175 0.005922202635605389 0.9833849616485838
176 0.8980310148782974 0.9041201524601524
177 0.07801899849743743 0.37564516875925724
178 0.4360228142500707 0.25722769621169084
179 0.3459506486034819 0.9389626016245409
180 0.16898992274714908 0.9183249430778126
181 0.7175926524272868 0.4783224803139646
182 0.5050630456280156 0.5911110567679083
183 0.987151008950412 0.5867127299120241
184 0.7994306406824322 0.5805086640004185
185 0.4111375985331972 0.6137691689925093
186 0.9435672503089744 0.856160062709494
187 0.8399102482572283 0.8753936819060655
188 0.9578606675639222 0.0638979370930548
189 0.8107961075566977 0.5035284746739058
190 0.6113736410957448 0.7893002198618504
191 0.4153102061549824 0.6048002688385131
192 0.47241684156316377 0.5112396526245797
193 0.6096728070694807 0.8993787311121805
194 0.9583511618059772 0.7775343913597763
195 0.10438784786943622 0.14545961883748904
196 0.3674786191756101 0.29213107513371617
197 0.5599451466050257 0.42326773575011667
198 0.21640141526821133 0.28639108066168084
199 0.05346294675344343 0.050686988769926944
200 0.9506720009834339 0.4762432337818471
201 0.2540626574274625 0.1680567069658232
DEMAND_SECTION
1 0
2 3
3 3
4 7
5 7
6 8
7 9
8 5
9 7
10 3
11 6
12 4
13 6
14 9
15 2
16 9
17 7
18 7
19 5
20 4
21 4
22 1
23 8
24 6
25 2
26 2
27 8
28 9
29 2
30 4
31 7
32 2
33 9
34 4
35 7
36 1
37 2
38 4
39 3
40 1
41 2
42 4
43 5
44 2
45 4
46 5
47 5
48 3
49 3
50 6
51 6
52 9
53 2
54 3
55 3
56 4
57 1
58 8
59 2
60 4
61 7
62 9
63 4
64 1
65 5
66 2
67 1
68 2
69 7
70 2
71 5
72 5
73 5
74 8
75 2
76 1
77 1
78 7
79 1
80 5
81 1
82 5
83 5
84 2
85 4
86 4
87 5
88 7
89 1
90 5
91 8
92 5
93 6
94 5
95 5
96 6
97 9
98 7
99 7
100 8
101 4
102 7
103 6
104 6
105 3
106 2
107 1
108 6
109 4
110 7
111 1
112 7
113 9
114 8
115 6
116 5
117 5
118 3
119 2
120 4
121 6
122 3
123 1
124 4
125 3
126 4
127 1
128 8
129 9
130 2
131 5
132 5
133 6
134 9
135 7
136 5
137 1
138 3
139 9
140 5
141 1
142 8
143 3
144 3
145 8
146 7
147 2
148 8
149 1
150 7
151 8
152 8
153 9
154 9
155 4
156 9
157 6
158 5
159 8
160 6
161 1
162 9
163 9
164 9
165 3
166 5
167 6
168 4
169 8
170 6
171 1
172 1
173 4
174 4
175 7
176 2
177 4
178 9
179 1
180 9
181 8
182 9
183 6
184 4
185 8
186 9
187 4
188 8
189 2
190 8
191 8
192 5
193 4
194 2
195 2
196 5
197 3
198 8
199 5
200 7
201 3
DEPOT_SECTION
1
-1
EOF
