NAME : gen200_016
COMMENT : uniform customers, demands 1..9, generated by bench/make_tuning_set.py
TYPE : CVRP
DIMENSION : 201
EDGE_WEIGHT_TYPE : EUC_2D
CAPACITY : 70
NODE_COORD_SECTION
1 0.965005670853769 0.4731015162225446
2 0.07776340513099644 0.2909830171411366
3 0.9507314424498357 0.29062585311533984
4 0.84132889452308 0.2826622085106103
5 0.3215250457001737 0.7181693377375733
6 0.6328867041068544 0.12511086546810435
7 0.1325170319391531 0.2197987812293387
8 0.013761695104928418 0.4112868621289696
9 0.886645821773217 0.09287211830367548
10 0.3020378755164672 0.5417412549967322
11 0.47796190467674415 0.971178463811471
12 0.8228825912888985 0.9581187641774881
13 0.9237924029745818 0.687498876549954
14 0.43566849934996055 0.1622851016240845
15 0.9356470684611095 0.14823801568940198
16 0.3071498693201705 0.8876300111268033
17 0.49406088526121084 0.43487606639493204
18 0.5444921498430125 0.46177506971793447
19 0.07932075034013264 0.9177619117855392
20 0.45412414694693315 0.20193030835799275
21 0.42781934090673246 0.2863444211458439
22 0.4639556834024493 0.7837562666199728
23 0.7226788764316586 0.3512749839025596
24 0.23107454088425994 0.16338433824673415
25 0.14829415442502736 0.8812538211013925
26 0.19146510120284588 0.9732650477432426
27 0.8062614616774865 0.21278470496537727
28 0.040161674367915734 0.771965804123443
29 0.2766030623269896 0.5361072336613363
30 0.600917215524719 0.174173680123063
31 0.44882041358760005 0.7294267991343392
32 0.27801557910460495 0.9740895309226802
33 0.13613746422601936 0.778402780998536
34 0.565298161641919 0.028299476149970748
35 0.5343450423117577 0.6115049706116742
36 0.5442969765004487 0.6363006678470376
37 0.2926052536188345 0.4460011262415622
38 0.7551931201424746 0.4456446192026635
39 0.06378488717767539 0.7842454837354322
40 0.32212859805612526 0.2841918936324106
41 0.374733140630632 0.13022784734048076
42 0.830694227972678 0.6553889045204618
43 0.7444810473841473 0.5211642764471144
44 0.6409318327826394 0.13710671343451952
45 0.26851332671231354 0.5157692209811386
46 0.29706103465125 0.7723096196198652
47 0.3981584229455709 0.3641888409989975
48 0.9289113697697573 0.4809108984253767
49 0.29950392196871745 0.863102694350309
50 0.889760937963608 0.3448091252231178
51 0.19590364375978297 0.16450488229022642
52 0.4461757938213222 0.9401210867988793
53 0.7649296859870751 0.305151131442424
54 0.028039327611985132 0.4822394355878843
55 0.15578164353314916 0.6091521022757733
56 0.22708279098814332 0.5677585001617602
57 0.6686101109802823 0.7797393381425778
58 0.9855599877244592 0.3136701729698502
59 0.3955544311241527 0.47041843988227394
60 0.07801517236527711 0.547001614254963
61 0.24567556116722256 0.35276604473921636
62 0.27801028055317956 0.13274489358529684
63 0.6907842489340731 0.571192961489477
64 0.7604748695307567 0.5625154366464392
65 0.6184779329379682 0.04725865698066811
66 0.6429241500482634 0.0032461080012013976
67 0.3815235120535505 0.11707781000452744
68 0.5607845838431436 0.1456450005075679
69 0.14478496997508405 0.9513742172323765
70 0.3962161836062461 0.871211516560337
71 0.2805113057128372 0.5497667670867797
72 0.48626062367884837 0.28582759623378295
73 0.12853488925138168 0.6620440907062389
74 0.9975463583761978 0.11104795171394977
75 0.764640757472442 0.5633848817200616
76 0.05126141787571159 0.4090778814588141
77 0.48686023602403605 0.11750375012503789
78 0.41745097672567866 0.3117696951074985
79 0.841856762226756 0.5241136118573438
80 0.3651521134215251 0.17880304827158933
81 0.5776750638083051 0.8981454598066984
82 0.5332992824860793 0.7549236315432156
83 0.9991778073236066 0.6504108073267114
84 0.30215751785583733 0.3768971206540612
85 0.07350209526607965 0.9223900309892643
86 0.5373550427321313 0.5777100011389759
87 0.2276257002082548 0.5903758874280062
88 0.640621957238704 0.07745810052791002
89 0.7625463991833669 0.9807813496647602
90 0.6419233571657497 0.003426635562000735
91 0.5359627312338066 0.5820036650387916
92 0.10348345736321762 0.5917650399002747
93 0.9513160861010476 0.3108456918900806
94 0.5209455758307289 0.2679086539000136
95 0.7949929827199725 0.8563856731921481
96 0.5472822088571726 0.5421116913552082
97 0.8851518773638046 0.4561344540673725
98 0.12048808905669284 0.14578900131373052
99 0.4292736497835241 0.12626096748672622
100 0.9345956626690355 0.9481221893267833
101 0.45277409999291973 0.7708043686639185
102 0.48350056529209906 0.32044198607027485
103 0.2800999241219979 0.19024637349403628
104 0.6612121167416964 0.6617706455434018
105 0.3084366651665129 0.9934280636425817
106 0.05255640687768737 0.8080774199122488
107 0.39384917359834637 0.7856749053202656
108 0.44716903324892676 0.6388472325089758
109 0.7182531093119723 0.9850471079471241
110 0.15455872788887892 0.29971962223426785
111 0.45026650488208775 0.3235645747876752
112 0.06812358975887578 0.22728718873334153
113 0.14924547189821402 0.17525081067242976
114 0.6957626358528709 0.7689666059431193
115 0.650995301939833 0.3250860019397781
116 0.6182061044635527 0.17285727490641734
117 0.6653672362829617 0.1392026306109725
118 0.8899630339013032 0.781924571206513
119 0.48265427148365736 0.6282554036838461
120 0.1335443036841263 0.3395103104347822
121 0.5885323686432471 0.08307684873957266
122 0.8707314583847945 0.7756590557299017
123 0.3057493385421385 0.929695126903435
124 0.6395852183740788 0.5400142494918064
125 0.6598920704936553 0.11050711111342237
126 0.12467661857296775 0.48824464407250334
127 0.5183981417863842 0.6935352313424791
128 0.028027878420669783 0.6655930677240067
129 0.40868664705545277 0.08474366029008051
130 0.2796450454082452 0.6951774594756522
131 0.6215777414837712 0.6198228937299152
132 0.46471511887851735 0.8497165194424913
133 0.9873887631881838 0.4073495714699559
134 0.2728010774365087 0.7962254775960081
135 0.0900288959073362 0.6408949303553253
136 0.6382660093371303 0.2840899515244014
137 0.24901928244392812 0.42654755149433776
138 0.07818927922883057 0.25703732463815243
139 0.26626734142352226 0.408043958288985
140 0.8682699082006822 0.11817049937360069
141 0.8447493361746427 0.9778023045281864
142 0.03100844666535485 0.13677769862860756
143 0.71233788553522 0.23310437652461613
144 0.06622924250949247 0.42656809509266314
145 0.8365994672904669 0.9951626302025279
146 0.8606860145180961 0.06069762475395457
147 0.5235422715966118 0.9036380309467589
148 0.1880989361267711 0.1212911075814207
149 0.23305516443202767 0.7288148554031857
150 0.026442544253639677 0.5102154633121813
151 0.06590651316139384 0.41836836409798817
152 0.38752248365621067 0.024300633833465146
153 0.35347447373416885 0.8025830349460668
154 0.9660844487063878 0.6336826732008336
155 0.13132485675036487 0.9288802042609655
156 0.1139382454488711 0.9527742396398506
157 0.83039846902585 0.04850149167912088
158 0.7423499788757854 0.9760819017080934
159 0.10761271420879692 0.9067895353126622
160 0.4894013941073433 0.3958908743547974
161 0.861077326815272 0.8175689102050212
162 0.6463068197253948 0.6210457403570603
163 0.4811882597072852 0.8388942388578949
164 0.749974472588387 0.6905909143664501
165 0.35713271029962734 0.0790269359875172
166 0.47499956820730305 0.10689254670932447
167 0.4170543853233005 0.895306184053171
168 0.3456227312220784 0.23049316509279472
169 0.23538600016828803 0.6666848795929683
170 0.9849776683754694 0.10743676972366711
171 0.9302616119933547 0.5215204593534772
172 0.8123636481244654 0.6405134115179046
173 0.39144600617795033 0.0788841680832385
174 0.4807202304357818 0.9367952321898745
175 0.4718435548592811 0.5505205311186551
176 0.34196391641359125 0.6903156766311175
177 0.9445962739581824 0.5390208857686891
178 0.3616574168845762 0.14265235479327254
179 0.9602472865298348 0.7901616601891196
180 0.6362741223008278 0.24525996736877675
181 0.08414825736928411 0.7283975345580009
182 0.1654065720970116 0.9806983863520359
183 0.2984265153873471 0.12913266589276573
184 0.9924515615421247 0.8031823165969542
185 0.0495222385182017 0.7808894386333903
186 0.8393267418326703 0.9068579500644057
187 0.6511425310855243 0.6338665132953133
188 0.22477416386439886 0.4835026860753353
189 0.6574796020264769 0.668390023797815
190 0.6829811752866003 0.300093027610444
191 0.059567440055428134 0.39174343839332015
192 0.060219538581778975 0.12823932998357235
193 0.7259309376566768 0.6853643960747176
194 0.5381939417039294 0.4056521991882841
195 0.6055115359355088 0.3460615564569475
196 0.568485333476959 0.7398416221136203
197 0.066004402701343 0.29786209460287005
198 0.6550341994002963 0.9373634516903189
199 0.3723034379347111 0.35027765286851054
200 0.05630656538148737 0.39846018022737906
201 0.014365204664086417 0.8680753716613638
DEMAND_SECTION
1 0
2 1
3 1
4 6
5 4
6 8
7 9
8 3
9 8
10 7
11 9
12 4
13 4
14 9
15 8
16 4
17 9
18 6
19 6
20 4
21 1
22 1
23 5
24 3
25 9
26 7
27 4
28 7
29 3
30 6
31 1
32 1
33 8
34 4
35 3
36 2
37 9
38 5
39 8
40 2
41 8
42 1
43 5
44 3
45 2
46 2
47 5
48 1
49 9
50 2
51 3
52 8
53 8
54 9
55 6
56 2
57 9
58 2
59 4
60 6
61 6
62 2
63 2
64 3
65 1
66 5
67 6
68 5
69 8
70 2
71 6
72 8
73 4
74 5
75 7
76 9
77 7
78 9
79 3
80 8
81 3
82 4
83 1
84 6
85 7
86 9
87 7
88 4
89 2
90 1
91 7
92 3
93 5
94 1
95 2
96 1
97 6
98 2
99 4
100 9
101 2
102 6
103 6
104 3
105 5
106 9
107 3
108 4
109 5
110 4
111 7
112 6
113 1
114 5
115 6
116 7
117 7
118 4
119 3
120 8
121 1
122 1
123 9
124 5
125 4
126 7
127 8
128 9
129 6
130 1
131 8
132 1
133 5
134 8
135 1
136 8
137 8
138 3
139 8
140 8
141 9
142 6
143 4
144 4
145 3
146 7
147 2
148 8
149 2
150 2
151 4
152 2
153 8
154 5
155 7
156 2
157 8
158 4
159 8
160 5
161 8
162 3
163 2
164 9
165 8
166 3
167 3
168 6
169 1
170 2
171 6
172 9
173 2
174 1
175 7
176 3
177 7
178 1
179 8
180 5
181 7
182 5
183 8
184 9
185 2
186 3
187 5
188 2
189 9
190 7
191 4
192 9
193 7
194 8
195 9
196 5
197 5
198 1
199 4
200 5
201 7
DEPOT_SECTION
1
-1
EOF
