NAME : gen200_014
COMMENT : uniform customers, demands 1..9, generated by bench/make_tuning_set.py
TYPE : CVRP
DIMENSION : 201
EDGE_WEIGHT_TYPE : EUC_2D
CAPACITY : 70
NODE_COORD_SECTION
1 0.887776690164478 0.282844350913637
2 0.8445408876177057 0.5866375751223708
3 0.6039402844830434 0.1008038308461301
4 0.16587516009868075 0.820834076676984
5 0.2544733074621718 0.7586013628888908
6 0.3493018258483971 0.6876457211434661
7 0.4681608957022958 0.17105584585924083
8 0.5517215437548632 0.5702517878514122
9 0.22803847063053195 0.9282731785901818
10 0.1050009919790813 0.3225920244668856
11 0.37642794417915826 0.30937333256964605
12 0.3507312008772546 0.06715314411160256
13 0.15027604283037976 0.5936318146774501
14 0.07348373089270921 0.3678404180195849
15 0.14690065995199475 0.6036905787846972
16 0.2983702087052438 0.9200679901944244
17 0.15233386705989949 0.9711682094184252
18 0.0777158170767056 0.664241493898768
19 0.5997392365914478 0.998512444758614
20 0.45819616186283263 0.9479871472492993
21 0.4362814591321781 0.23362937308612375
22 0.21889465577848777 0.014142950885897343
23 0.5770404432667895 0.2686492138547725
24 0.7201993336265855 0.6958040012468051
25 0.2513971380810608 0.3124275025584904
26 0.3211114323999996 0.8563803963313267
27 0.7801295300286893 0.14665005681820253
28 0.559172302349292 0.8784451558599691
29 0.48708969850603445 0.8000069551352496
30 0.08822148858777779 0.880101695854423
31 0.8702531508436366 0.5483324612500173
32 0.42557449792623225 0.8224954629681877
33 0.3120478119744068 0.7321849225106302
34 0.04188270173148845 0.3113739033501117
35 0.36395506748236817 0.7548405337309613
36 0.6090194146062399 0.39293934978784983
37 0.4271513287879778 0.9859207063802488
38 0.16390188371430126 0.16321041351698395
39 0.3783853830980619 0.6093268061598097
40 0.8528692701514549 0.5011103460847447
41 0.8064648619939342 0.5053216365117902
42 0.5387791871663111 0.7672814035873519
43 0.22519807529734492 0.9002891470224594
44 0.4749218381607424 0.745969800810469
45 0.34200000189830915 0.1281014227788907
46 0.3041512281373837 0.15930259645788414
47 0.8844909195764287 0.37083888882437455
48 0.029190508713544894 0.6973548642478006
49 0.4575121508720409 0.9763285305018025
50 0.7665451398948125 0.8445439960927297
51 0.7162726852972523 0.599178550822807
52 0.1514480837834835 0.5835400352943821
53 0.5748890369678863 0.9921875744497717
54 0.4914218629185204 0.7412226420733862
55 0.07908648929999718 0.272084188816212
56 0.2547439998197444 0.9774505298325279
57 0.6603231881461024 0.8627941497470074
58 0.9622467337733134 0.8328224328718244
59 0.8949675191166698 0.7430569973097871
60 0.42672395849123257 0.9831387508930977
61 0.007518519916778654 0.30956376766562643
62 0.6834968363192166 0.14625439665856566
63 0.8002940718166798 0.08985537568572655
64 0.6170699288048276 0.4362169893476653
65 0.27804271223039045 0.48342036952158185
66 0.46628574221988794 0.5128326293499609
67 0.355110467765018 0.08207570138705689
68 0.3422883104218283 0.44800086372915604
69 0.7620520830382174 0.9641318716521402
70 0.16341738648391868 0.4095964727141963
71 0.30765826436263555 0.6480268210497877
72 0.47453226137580895 0.9206283816609846
73 0.5805017130596771 0.8017415784398626
74 0.0978459592587072 0.33666492118902247
75 0.24508808738173404 0.8649284269464561
76 0.2186333420431521 0.9695993159817419
77 0.7965473842076186 0.8509372374141442
78 0.32736891441708704 0.1713499475805773
79 0.9518375289811826 0.6943828429383624
80 0.9780657633499653 0.5889686392290524
81 0.4998915562162658 0.7767582842860807
82 0.17512377557662562 0.232277342624997
83 0.41179415349152115 0.22038418660140824
84 0.7919539260820001 0.29614887638722587
85 0.8082829665603128 0.9646352664499753
86 0.6647687367870317 0.6709097592855128
87 0.006459504783205228 0.20313349984947804
88 0.49277175922429783 0.23068482792338774
89 0.7757665435325791 0.14470804509833068
90 0.2017164419741937 0.9811589664490433
91 0.6361672846687491 0.037476441819837
92 0.006741381622825782 0.6306758665497734
93 0.9068990306980471 0.02977871724512693
94 0.4838391653740086 0.592414010645229
95 0.9292722078187025 0.08227859008463445
96 0.05228437566265265 0.5767331145153485
97 0.8089595987767816 0.0643221465634426
98 0.5552287274596411 0.25322825419213435
99 0.42879728767645986 0.2889790776809572
100 0.5849371443770583 0.7734997241488304
101 0.7172222084168507 0.9159721225152334
102 0.4564461474553789 0.6141344812942943
103 0.8148850012022758 0.4465204478701029
104 0.48689192775555146 0.2482365532834071
105 0.8564833720781267 0.7527216345569258
106 0.6215737372058057 0.3698001796672181
107 0.9238820304338645 0.4802510427975032
108 0.7291855872114751 0.918390554416195
109 0.9229988015492256 0.7689088278717905
110 0.8627768802625356 0.453525220740172
111 0.9875517335251353 0.9483966711841704
112 0.618178868124299 0.2702453693880382
113 0.08634918776962686 0.4713930841826185
114 0.7477984272102934 0.03724729725794951
115 0.22868298205319337 0.060991824009948514
116 0.6194619308892491 0.4799587285642197
117 0.275665157734445 0.4369389461043033
118 0.07964678966002026 0.9178756958587578
119 0.36725378068024084 0.9001186636537586
120 0.5244238406895618 0.6779452951292178
121 0.17406682855376832 0.5194657403686094
122 0.5070477052451607 0.6023185624362403
123 0.9452776071984612 0.5333824739258629
124 0.5931978138434167 0.8650574181476537
125 0.9129671696105078 0.7849232587446048
126 0.9555251043296016 0.04146203936643367
127 0.48355337404243315 0.3575228312816855
128 0.34775723171947415 0.7952651503426452
129 0.00784426826536655 0.49727177333544725
130 0.8972312577429801 0.8161161005348438
131 0.5514694216144277 0.030374709702214342
132 0.4373146078847595 0.8237158189992333
133 0.8442000472902603 0.32974094264770815
134 0.8170950611628967 0.8905973974887696
135 0.5665958158800011 0.8250078091099443
136 0.6887637824671874 0.06874661905825896
137 0.9890313551346451 0.029185542151546118
138 0.23154270968369395 0.42769945024857925
139 0.7834245392406107 0.38738316491926117
140 0.06552543907426733 0.3910147650519341
141 0.6523818838304686 0.32975368507089875
142 0.4774119970092874 0.16328484714781433
143 0.2457682618776803 0.5791396442585642
144 0.18596859949993083 0.4542194585141013
145 0.7712246704943436 0.2914090557703808
146 0.13644928028762404 0.6363500024106942
147 0.4531218610560547 0.5300129032447757
148 0.506072015988019 0.6334985939678188
149 0.4009207920096084 0.6430374588206332
150 0.6818496588115728 0.5622234752565544
151 0.5059143149646494 0.7886947103794458
152 0.5594863976220712 0.6906140303575121
153 0.6473510104651572 0.14316262946820169
154 0.9124387686271548 0.1963976826664675
155 0.4597784420960793 0.1620090463479159
156 0.5344437662684031 0.8520341533221941
157 0.7539810372899187 0.3610312845739867
158 0.9829235281533681 0.14165391343935474
159 0.5729924912354583 0.5926312128178924
160 0.5771705302731899 0.19574923552793655
161 0.6974542991002636 0.1279669994917959
162 0.6565951437524508 0.2577978541170608
163 0.5652651698002984 0.9123687819741978
164 0.9283671475258956 0.3059217146649994
165 0.6534744771951513 0.13369366185760267
166 0.04763833786671334 0.5352560100623293
167 0.34749493253782304 0.17095162059830238
168 0.5369642892259647 0.18064712922113846
169 0.20510096854846593 0.5386056635155043
170 0.7328104736310439 0.7832261122597718
171 0.8698774977690407 0.572558861338361
172 0.08030935014514395 0.43126264796895275
173 0.8768265962577356 0.03679884991484472
174 0.5343293297329647 0.9296434890899894
175 0.9819207930571493 0.14078959820797654
176 0.4223266534646478 0.03775623669798989
177 0.10811965872893015 0.7270596645507028
178 0.3879962202401791 0.8183237578695634
179 0.8099228330201877 0.0296309002840468
180 0.7174392362777271 0.7739083111734615
181 0.767939131673898 0.7800707975799136
182 0.9265338234349826 0.38573013339002304
183 0.7009781273347402 0.47877280007896117
184 0.14654977650671885 0.8490046558736861
185 0.29133487466958485 0.952877663507383
186 0.4698794708126841 0.08455690193835896
187 0.49295794324660336 0.5394669350674116
188 0.6672006349361739 0.23925839404223026
189 0.4595697896986356 0.36331302295992285
190 0.44589525027674737 0.44112183033160757
191 0.06126978501947544 0.8595720723568017
192 0.6211963663232216 0.9222829384375976
193 0.5512431530372952 0.7614142282188784
194 0.5029998183224889 0.42565288658228106
195 0.9422876115535995 0.8335628951620779
196 0.7944640288698283 0.7448013689778609
197 0.9343952135585791 0.08907763738460728
198 0.05122618015978131 0.38180822165620953
199 0.40309631144499536 0.14654053980522386
200 0.44017412388753985 0.6532863955693867
201 0.3234342785279859 0.24992448991105654
DEMAND_SECTION
1 0
2 8
3 7
4 3
5 7
6 3
7 9
8 1
9 7
10 7
11 4
12 9
13 6
14 4
15 7
16 4
17 1
18 6
19 7
20 2
21 6
22 3
23 3
24 6
25 1
26 1
27 3
28 1
29 3
30 1
31 9
32 8
33 6
34 9
35 9
36 3
37 4
38 2
39 2
40 3
41 7
42 7
43 4
44 5
45 5
46 5
47 1
48 5
49 2
50 1
51 1
52 6
53 7
54 6
55 8
56 4
57 9
58 3
59 3
60 7
61 1
62 2
63 2
64 4
65 4
66 3
67 1
68 7
69 8
70 3
71 2
72 3
73 3
74 1
75 6
76 7
77 3
78 3
79 2
80 3
81 6
82 8
83 1
84 2
85 7
86 2
87 5
88 2
89 6
90 5
91 3
92 6
93 2
94 8
95 4
96 7
97 6
98 6
99 7
100 3
101 7
102 2
103 7
104 6
105 7
106 7
107 1
108 3
109 4
110 3
111 6
112 7
113 6
114 7
115 7
116 4
117 7
118 2
119 2
120 8
121 5
122 1
123 8
124 1
125 1
126 3
127 8
128 1
129 7
130 1
131 3
132 4
133 8
134 4
135 8
136 1
137 7
138 2
139 3
140 7
141 7
142 6
143 6
144 6
145 9
146 9
147 4
148 8
149 2
150 9
151 1
152 4
153 9
154 2
155 4
156 2
157 6
158 2
159 4
160 4
161 1
162 3
163 5
164 1
165 4
166 9
167 3
168 5
169 3
170 5
171 4
172 9
173 1
174 9
175 6
176 2
177 6
178 6
179 8
180 2
181 6
182 2
183 3
184 3
185 5
186 4
187 5
188 9
189 9
190 1
191 8
192 8
193 1
194 2
195 4
196 9
197 8
198 9
199 7
200 3
201 4
DEPOT_SECTION
1
-1
EOF
