NAME : gen200_026
COMMENT : uniform customers, demands 1..9, generated by bench/make_tuning_set.py
TYPE : CVRP
DIMENSION : 201
EDGE_WEIGHT_TYPE : EUC_2D
CAPACITY : 70
NODE_COORD_SECTION
1 0.09333084305172112 0.9009198764532443
2 0.40150230587221836 0.9304044513241319
3 0.38542769841988 0.8453402491065248
4 0.40285615391000296 0.08337548690293317
5 0.8812161686932595 0.3539254032898097
6 0.5417515768312829 0.9502334498260812
7 0.9796857894104476 0.12310914321862387
8 0.7661205208047895 0.5156115874550512
9 0.6288727099519109 0.9991464546993287
10 0.7886875126454427 0.9021282060917002
11 0.7691908858039236 0.7779619237800043
12 0.8810491672644414 0.6591866627196143
13 0.8422780424377713 0.938451182945171
14 0.8388316518108331 0.33072488101926745
15 0.43698235960252374 0.05819218630264933
16 0.6538712389627837 0.07679944574784359
17 0.75716021525389 0.6016542803842
18 0.23174298273484317 0.787541950186611
19 0.38158900595805667 0.07816025835795148
20 0.37058907047050305 0.28891283970742065
21 0.6856350449386334 0.25670582793257457
22 0.8741558650955564 0.7773771444043878
23 0.5380171440736919 0.405458214694032
24 0.3488136227412185 0.5971439830338316
25 0.8322633425003195 0.7967513843214025
26 0.2975801562538395 0.31719690289305136
27 0.17761767767219594 0.04953298864019018
28 0.19521883960907305 0.9624944340734033
29 0.12668929801289108 0.7284283145915618
30 0.11924691784227737 0.779875740979846
31 0.8154708541900811 0.41139575548782403
32 0.5075171868998143 0.8361575321006582
33 0.44361203457225173 0.7342022890107437
34 0.1013550674033441 0.6196785304195649
35 0.029475581686115748 0.9219235992289019
36 0.985419269237878 0.10218391580014197
37 0.06823125251396911 0.8894134168704364
38 0.45233857770347163 0.402297321205636
39 0.20306995661440896 0.052944567742363335
40 0.6561115802429999 0.791386491759163
41 0.32298155494417924 0.20688702470661569
42 0.8663674639748598 0.19615905113296983
43 0.14901543472477063 0.25590947790379226
44 0.2925104684955657 0.7278150442062605
45 0.90472112086014 0.6356901704418478
46 0.4095277297218951 0.48512416084654975
47 0.187077007018688 0.6246816042774725
48 0.40812474797916165 0.7387054291811485
49 0.252991346109689 0.6703115081697125
50 0.08623464602305453 0.8910032341413795
51 0.13179379668566804 0.22971664361275135
52 0.22566747215615546 0.5720563186882484
53 0.2940159412998439 0.7443841992710242
54 0.5994018531407427 0.8843441121493832
55 0.48981374142413636 0.31308319324599787
56 0.24213471620745108 0.09772649842138803
57 0.6447306836551343 0.858628250317228
58 0.025311122848727274 0.3268229208516651
59 0.20836348397119908 0.705259679180903
60 0.9797794305604229 0.05900312856719092
61 0.6081456999590992 0.9116815916307723
62 0.6189036244551172 0.8180319482041424
63 0.7861217992787412 0.3537772671556755
64 0.3380858576772534 0.15201566829768054
65 0.31435320429328584 0.9225543974680017
66 0.3419357482883274 0.07895149685440028
67 0.3317399357554486 0.7376984474781506
68 0.0162501363704316 0.6865794611195158
69 0.9037318565911898 0.18183198825344782
70 0.7206233406469131 0.5017124174408321
71 0.8686987507426863 0.9685551823233234
72 0.5803681601546233 0.2965326532398721
73 0.5662611949986442 0.23997350441282495
74 0.9673554830827336 0.1866523834129885
75 0.9790852931809098 0.04086551676648431
76 0.475607627268425 0.49993498790522595
77 0.9388948085206253 0.41170949716747884
78 0.47243943871434113 0.6643930837099322
79 0.37508372092497144 0.8021222828528667
80 0.21402229117207483 0.3559514750263013
81 0.8491301109466515 0.37158829796233406
82 0.24551740878078765 0.7115033177706046
83 0.10836334369605416 0.798607484950191
84 0.5889958014637696 0.5237471798652429
85 0.931226577757417 0.27625863663168226
86 0.3979594943538567 0.5011093802867186
87 0.01821185650094681 0.049011987770241405
88 0.6820668567269585 0.34180899385740693
89 0.04503374635806923 0.8121521144908115
90 0.962617174790041 0.3807314312728498
91 0.15884395387047257 0.821964183430923
92 0.49306646977611945 0.4978607817553129
93 0.5914790710498362 0.5775150525065755
94 0.977072677725309 0.36513224091927665
95 0.19657459858593607 0.8214420747050638
96 0.806342894602831 0.3350149389491369
97 0.41781535057369246 0.4295461763698146
98 0.7392520776389162 0.0534568357677675
99 0.9680628774078631 0.38901567795703584
100 0.06177819389294914 0.13939224886125978
101 0.574384908775457 0.7537227456531423
102 0.3534884992272572 0.24802030715116763
103 0.92515470558459 0.1265959901788356
104 0.287540014152213 0.5749857228402675
105 0.5106291964935435 0.02585351426692195
106 0.00910910042870594 0.9791897486372646
107 0.8042930050081718 0.26810221206282525
108 0.17494997894197528 0.01994335343022602
109 0.8325928867291632 0.393143886331063
110 0.7272114738046528 0.03569939688459278
111 0.47624952553022304 0.5647816874832329
112 0.984347026699107 0.5381430341423967
113 0.7028169575540774 0.2562090706464746
114 0.41424086404332816 0.6520310094791266
115 0.842599204232884 0.9221180481861051
116 0.7825047105475255 0.3227200595892785
117 0.553602975617993 0.6575420344551717
118 0.03826684746777864 0.9314675694192887
119 0.977201923248429 0.25139380657570787
120 0.2536891259147672 0.28137701910207835
121 0.1937642646710147 0.3922337556370272
122 0.47751332014585146 0.09935503446594662
123 0.4836615940817178 0.979055506206123
124 0.012873165450578483 0.569478938456063
125 0.9959543182133339 0.03057981895193851
126 0.496139742783163 0.12497060058756337
127 0.9681401386097291 0.7667064395839496
128 0.7192167490775622 0.8595837420223816
129 0.01831374062911162 0.701238185424262
130 0.7025250322867789 0.662946555485144
131 0.02399773732933841 0.9446640882189039
132 0.7355692952447207 0.5654493703475149
133 0.32714841762741587 0.8910318117424612
134 0.12753617850317966 0.6102954115013378
135 0.07133519271819222 0.2794780773737423
136 0.05405564308267241 0.5156945045197164
137 0.32740105539842346 0.2788598796019133
138 0.8410003614615925 0.5340486419975919
139 0.5130506012986287 0.22261555581341297
140 0.6477460608208551 0.03016618883356903
141 0.45507852157232864 0.44844760760639035
142 0.9041023941124992 0.8873694959655958
143 0.9107548942441497 0.5237261554766084
144 0.2781896713865537 0.8608160004314664
145 0.22985762144549027 0.7901542024994778
146 0.9169926213152414 0.399680623914599
147 0.8606977360948963 0.25740239469305504
148 0.2632546807339524 0.7092812242950567
149 0.26342509211879417 0.29296436008188387
150 0.7005091614661727 0.42932367240047464
151 0.4819289575650658 0.18182627279109997
152 0.3924207405992822 0.7501982766337263
153 0.2042962673961295 0.45679996317158766
154 0.002263795302830829 0.9225246805695633
155 0.652652501615357 0.9098003879393535
156 0.6751077617241573 0.42411874991843024
157 0.003522542528166528 0.11510539092900107
158 0.7352528396631649 0.9052684740484208
159 0.9341355064981408 0.22005712373776665
160 0.42413248874791143 0.19040835494529185
161 0.003122988125585313 0.36910682262022787
162 0.04266506454873742 0.25572763872653437
163 0.2516533975788344 0.7199337481529958
164 0.9921754693333517 0.8656026238884752
165 0.878533722353217 0.00419964408720197
166 0.7163714481675465 0.529976166637866
167 0.6538116637283595 0.8605340019448777
168 0.2390628246339972 0.9224710683183934
169 0.2842712126933882 0.703336044044473
170 0.34447511576010315 0.1575177595223477
171 0.9743097006795592 0.02183428824722078
172 0.2785229768023353 0.6470632228199391
173 0.6352813026385361 0.11401739098428909
174 0.7489165665743478 0.5658060863014542
175 0.5015346975517398 0.19297249270904304
176 0.8968692970533114 0.6901512501521708
177 0.15084594433037968 0.7553690847796098
178 0.6485282968783657 0.9669183763475929
179 0.42254091717551756 0.09179121274665003
180 0.46676881693935834 0.3202615992298711
181 0.5384310209942172 0.27389219187566316
182 0.603920444315145 0.1748791142967111
183 0.8291505965589242 0.1683120819729238
184 0.9759024640343624 0.5618769459221196
185 0.032575259287156544 0.021862260598202843
186 0.6711897374863844 0.3781712350966643
187 0.596306938804699 0.4158192634111747
188 0.5807281686730676 0.27925994582966673
189 0.9536081564710325 0.5725626114583983
190 0.32068433523400786 0.48737443874467123
191 0.5329427408171991 0.4947734376153825
192 0.9334129022815539 0.5647566679393436
193 0.4103904810520874 0.5076834388160294
194 0.6424386133224603 0.2032391874131264
195 0.7899452385927929 0.3024440419287485
196 0.4810774188114465 0.9622036281151651
197 0.6604280570895599 0.67528867530135
198 0.47373402828161015 0.39715918654349436
199 0.49792441296393686 0.17352955224312516
200 0.8140675282903345 0.3234004368408092
201 0.14226766375000677 0.35087577422925176
DEMAND_SECTION
1 0
2 1
3 1
4 1
5 5
6 6
7 5
8 9
9 9
10 2
11 2
12 4
13 1
14 7
15 4
16 8
17 3
18 5
19 1
20 8
21 6
22 5
23 5
24 8
25 7
26 7
27 3
28 8
29 5
30 6
31 2
32 1
33 7
34 4
35 7
36 3
37 6
38 8
39 5
40 3
41 7
42 5
43 6
44 5
45 4
46 3
47 3
48 8
49 9
50 1
51 1
52 7
53 7
54 3
55 4
56 6
57 8
58 3
59 7
60 7
61 2
62 9
63 7
64 5
65 1
66 9
67 8
68 5
69 9
70 7
71 1
72 6
73 2
74 3
75 8
76 7
77 2
78 6
79 6
80 6
81 3
82 8
83 1
84 3
85 7
86 2
87 2
88 1
89 1
90 4
91 1
92 7
93 9
94 3
95 6
96 5
97 6
98 9
99 3
100 6
101 4
102 4
103 2
104 8
105 9
106 9
107 2
108 8
109 4
110 1
111 2
112 6
113 2
114 3
115 9
116 4
117 2
118 8
119 2
120 9
121 3
122 7
123 4
124 2
125 8
126 8
127 8
128 3
129 8
130 9
131 2
132 4
133 5
134 2
135 7
136 4
137 2
138 5
139 1
140 1
141 2
142 9
143 5
144 7
145 3
146 8
147 3
148 5
149 9
150 6
151 9
152 2
153 2
154 1
155 2
156 3
157 2
158 7
159 4
160 8
161 2
162 8
163 6
164 3
165 5
166 9
167 1
168 3
169 8
170 4
171 1
172 8
173 6
174 3
175 2
176 6
177 6
178 3
179 4
180 8
181 7
182 2
183 6
184 9
185 1
186 1
187 7
188 8
189 4
190 4
191 7
192 8
193 1
194 3
195 8
196 5
197 8
198 4
199 4
200 7
201 6
DEPOT_SECTION
1
-1
EOF
