NAME : gen200_024
COMMENT : uniform customers, demands 1..9, generated by bench/make_tuning_set.py
TYPE : CVRP
DIMENSION : 201
EDGE_WEIGHT_TYPE : EUC_2D
CAPACITY : 70
NODE_COORD_SECTION
1 0.535458001324012 0.12634146212266073
2 0.39311538189133133 0.5789469491881968
3 0.09229211094807355 0.93042067174165
4 0.3319807806659133 0.5304276156020491
5 0.6472593545994718 0.6929517121399742
6 0.5954428123027268 0.3162236267748204
7 0.9921648414230761 0.6062761998476658
8 0.9860132782332326 0.8709698138798516
9 0.558289364803372 0.9203309035505233
10 0.31093447819759445 0.6508883347024387
11 0.18451008578902361 0.27894687314556676
12 0.8598060913437048 0.17156233597652326
13 0.1914658996331543 0.8036282013828421
14 0.6315692648276233 0.6148374125358866
15 0.6001967690458857 0.07295109868396199
16 0.6560221370791838 0.8735252531045702
17 0.3882734835215096 0.13721699949165045
18 0.040033253931982316 0.04327308796069029
19 0.2885714497959583 0.42800772951437993
20 0.20424192330359447 0.25873161768333464
21 0.08707872484491508 0.9165650340172221
22 0.01999567195318297 0.7107452148459199
23 0.6957742870875077 0.9839195889125649
24 0.39999106016032115 0.6578734674086011
25 0.31699777868925605 0.6774242700579278
26 0.5753286516604815 0.773090603657519
27 0.6921506007642175 0.809902956494703
28 0.5476325759507228 0.6435297009325528
29 0.5792284733435181 0.11307620259240048
30 0.15045738530197394 0.4179589798264277
31 0.5597756221129149 0.913301981207489
32 0.8751151510915375 0.2910683106030406
33 0.23375155935059977 0.8721942727802497
34 0.017716530789565366 0.6545524028101378
35 0.8121703355586124 0.5415439343705146
36 0.5935731337930242 0.3524355568790941
37 0.8165257128974696 0.31605928811275574
38 0.9726408683323828 0.8514460200757812
39 0.580101174088379 0.4077738424564996
40 0.4248317756531875 0.19544712348925186
41 0.0779266808860869 0.18018316458578698
42 0.7267263947476199 0.10564335573118866
43 0.2646672789493639 0.8028577880635565
44 0.015056411469855369 0.7829994755482156
45 0.9656282103439782 0.8009979360214385
46 0.22637281492018568 0.3077242926675846
47 0.9015972685046993 0.5910952715171717
48 0.19088758522681537 0.34933729594436236
49 0.8787589281284269 0.11086211874791119
50 0.6851730796820208 0.4851276485538839
51 0.45113339988967005 0.40807573724525925
52 0.4840461069577221 0.9824624117333376
53 0.41397250287671405 0.8720002800127147
54 0.31144191693549794 0.2598800420177977
55 0.7663392154149693 0.779951604217644
56 0.7155498604934117 0.7368874989572268
57 0.9023440779188568 0.7132330571708618
58 0.011438337749069216 0.4621314432269066
59 0.2064656625821767 0.07139377133595182
60 0.27964879482868854 0.02368059108581977
61 0.18250596468422264 0.17377623553199084
62 0.2151540327690794 0.08154399003344948
63 0.7560490223338874 0.12849218310448207
64 0.07154608195128176 0.932080537543248
65 0.6144168111118545 0.30529232621000657
66 0.39593317775340076 0.6577690515650402
67 0.3070587992102567 0.21193752724274328
68 0.6199761378228873 0.22116093097952383
69 0.6299958283350795 0.28993561873909446
70 0.39560602116783916 0.4148572389314392
71 0.5387284968198764 0.9658490321465868
72 0.76754972731333 0.8176721366466485
73 0.6571967783300198 0.3147955637124126
74 0.8202102368121299 0.9376203587950456
75 0.7918930567182054 0.373781783469448
76 0.18648189034060525 0.5215011407094176
77 0.19477158539272676 0.29071245338616636
78 0.5530342176577223 0.20780250489359853
79 0.8405564273786903 0.5410293945580582
80 0.9260489247332163 0.4199327443848323
81 0.2640868019494874 0.4886695214130409
82 0.6536437921588953 0.15892107419515877
83 0.3611047748864369 0.414437415789512
84 0.7121069984802484 0.5169947742038989
85 0.3434534984249832 0.5229619606156405
86 0.19738445198670418 0.7290429373707038
87 0.25437744026137576 0.8086839169513022
88 0.6478491758565332 0.6964532551056101
89 0.7999159519957119 0.3980025586560729
90 0.790788933583855 0.37754933474207564
91 0.5347326974035544 0.3419868896508258
92 0.7875823499841009 0.8920774181838675
93 0.8212591820497194 0.43688777469414863
94 0.5777975256943598 0.9545532496879213
95 0.32352845107172 0.68524119121981
96 0.656914968508934 0.5421125809966986
97 0.16363049420179843 0.13343259679297026
98 0.28687435956929763 0.7193848608831148
99 0.5502059641157486 0.6431832472203334
100 0.4255059742626769 0.8863633320883689
101 0.596817177250192 0.05717484623265523
102 0.08215642988110972 0.7500825290781004
103 0.8736431745909458 0.50435771085088
104 0.6567921988920237 0.32697477444405953
105 0.6709872481369534 0.5530640350390468
106 0.12705159163917945 0.23928720553086047
107 0.23804588002683436 0.1960541141609894
108 0.5517698430570611 0.10452062594601597
109 0.019005782918348757 0.30461728105961905
110 0.5859063475630555 0.7869448113756787
111 0.5140438158286528 0.2260172776577597
112 0.8022950691971987 0.11055023818966492
113 0.9569371283686836 0.2209627301017676
114 0.0685806576258019 0.7230453758591475
115 0.2125087883648058 0.2024678565705912
116 0.11461632335461391 0.9833868436887899
117 0.5095660281358495 0.8308193615510406
118 0.8239256319994681 0.12158751673331714
119 0.621151013847056 0.6789591859607569
120 0.765628618771925 0.8815959020053233
121 0.17611296589537484 0.6812755354119119
122 0.4720297557222648 0.08089021300077481
123 0.2961597596958563 0.42213108911061026
124 0.042620856583077904 0.6195290175044394
125 0.27626466664687077 0.42970958516450175
126 0.33345765963383833 0.9369522156108324
127 0.20950875373279876 0.15172746009722116
128 0.87135172310449 0.3904028853477085
129 0.703190106767053 0.7300492013928437
130 0.1007679829657081 0.42563863273172775
131 0.970497890015734 0.3885370847792914
132 0.11702710126060523 0.07155958935404438
133 0.27125266486251587 0.6269827839972527
134 0.1892429006020515 0.17884917793551036
135 0.028940259842137883 0.6928988360263981
136 0.255301101721794 0.8486000218008288
137 0.5072955357344726 0.38996309048009725
138 0.47650062761989487 0.48919811009052294
139 0.10578340606080305 0.52960475670185
140 0.9382035654386103 0.2223024676850326
141 0.8520827505901838 0.45608324698896197
142 0.6543124863454706 0.3701858158576742
143 0.17545466293038636 0.034461283856929814
144 0.42708543071192995 0.33732587029695604
145 0.02293182938821714 0.7563774719424712
146 0.46979206883381486 0.8870367120777085
147 0.5449445897272015 0.810703707569129
148 0.8372432372328532 0.4785084857816555
149 0.9068687692626867 0.3022924528481592
150 0.5423231656063534 0.46190882140660783
151 0.3544775376951139 0.3101679868116388
152 0.1270858669569349 0.10844646303520822
153 0.6357920620333424 0.4466206541435743
154 0.6917100229241562 0.7252275193608457
155 0.7357151623005399 0.8577147511425607
156 0.27020081588457445 0.6038887519789773
157 0.10314004692643342 0.7711877586991303
158 0.6406232145215845 0.052363540390194196
159 0.290618211152729 0.5348383386421327
160 0.06261784241511137 0.9146111878491976
161 0.3877707836738924 0.10710287289179687
162 0.645375643223233 0.5717142101047449
163 0.4868358600277939 0.44243219920825205
164 0.0901681175048682 0.9701155437782012
165 0.29389695536420923 0.1552404206503596
166 0.7259860269215208 0.9009512532620438
167 0.5550694895361271 0.42029472205210683
168 0.8277297362886958 0.9741863483961734
169 0.4555558710819805 0.27215969848055066
170 0.8225961405051723 0.03185227749212571
171 0.7250877689993456 0.38764101617291735
172 0.7686321956935043 0.40169279250063716
173 0.12016104757026769 0.21646581033750167
174 0.47123625552632653 0.7944289382337271
175 0.97622443792857 0.6040022066013662
176 0.7056031362446147 0.09817983663971441
177 0.26527594360841555 0.938514436148808
178 0.5639742148565442 0.4793877431918715
179 0.44787409200364137 0.7288183840857889
180 0.046926074133853524 0.3212450058719858
181 0.8033262186668483 0.13245360654319205
182 0.48170495651532563 0.4031900269954557
183 0.3678071222848507 0.4412341720992061
184 0.8564009282729627 0.7682345471216262
185 0.1622738614997533 0.5711552690827875
186 0.33740690443048904 0.6854156904130845
187 0.1627326736302429 0.7993242736099437
188 0.3742914414561771 0.864058321893628
189 0.8206580940355098 0.6829023503109449
190 0.3380007972656799 0.7039431086528807
191 0.36367357504072717 0.5271015206871525
192 0.19841246939654011 0.5602388656039566
193 0.4152732294585837 0.40557071237619835
194 0.3699849401497044 0.22020385132558773
195 0.9547295174672609 0.510556845670884
196 0.2481271533238818 0.8285632121433634
197 0.5706960180453107 0.723459724207604
198 0.9867237563929117 0.18295674779822724
199 0.0336493283403374 0.3872218059238529
200 0.6215467882346851 0.7747203148025574
201 0.9307263776599721 0.35792886785144296
DEMAND_SECTION
1 0
2 9
3 9
4 1
5 5
6 3
7 6
8 2
9 6
10 8
11 7
12 5
13 8
14 3
15 5
16 8
17 2
18 5
19 5
20 1
21 3
22 6
23 1
24 2
25 9
26 8
27 1
28 4
29 7
30 1
31 4
32 9
33 9
34 5
35 2
36 5
37 5
38 4
39 2
40 1
41 5
42 5
43 2
44 1
45 2
46 9
47 9
48 5
49 5
50 2
51 3
52 4
53 4
54 1
55 9
56 9
57 9
58 1
59 5
60 6
61 5
62 5
63 5
64 9
65 9
66 4
67 3
68 3
69 5
70 1
71 8
72 3
73 9
74 4
75 7
76 6
77 9
78 4
79 8
80 5
81 9
82 1
83 1
84 7
85 9
86 5
87 6
88 2
89 3
90 8
91 7
92 6
93 8
94 3
95 7
96 8
97 9
98 5
99 7
100 5
101 6
102 6
103 8
104 1
105 5
106 6
107 9
108 1
109 1
110 9
111 5
112 6
113 7
114 3
115 4
116 6
117 7
118 8
119 5
120 2
121 1
122 8
123 6
124 3
125 2
126 2
127 8
128 4
129 2
130 7
131 1
132 8
133 1
134 3
135 6
136 7
137 9
138 7
139 2
140 1
141 5
142 8
143 2
144 8
145 8
146 7
147 6
148 4
149 5
150 6
151 8
152 8
153 1
154 4
155 8
156 9
157 6
158 4
159 2
160 9
161 1
162 2
163 3
164 3
165 2
166 2
167 1
168 8
169 6
170 9
171 7
172 3
173 2
174 6
175 4
176 4
177 6
178 7
179 4
180 8
181 9
182 1
183 3
184 1
185 6
186 6
187 7
188 9
189 4
190 8
191 5
192 3
193 5
194 9
195 6
196 7
197 1
198 8
199 2
200 3
201 5
DEPOT_SECTION
1
-1
EOF
