NAME : gen200_007
COMMENT : uniform customers, demands 1..9, generated by bench/make_tuning_set.py
TYPE : CVRP
DIMENSION : 201
EDGE_WEIGHT_TYPE : EUC_2D
CAPACITY : 70
NODE_COORD_SECTION
1 0.2697638222409342 0.4932228058454736
2 0.9857160944176772 0.2630886813313138
3 0.23807078216663558 0.34094083149615495
4 0.7366925326738639 0.48815702214975687
5 0.15567489318476013 0.7066019234707456
6 0.6123755331887872 0.32889882551312577
7 0.06712314527700869 0.848482602160047
8 0.02241390285080902 0.4721108976065135
9 0.6680786186582147 0.19110087722295954
10 0.4006253338293241 0.8332542632503277
11 0.6675890227156648 0.6667198321542024
12 0.879474520940815 0.6808042316525426
13 0.25769682966951546 0.508238291325918
14 0.4064567236060218 0.5959195945774002
15 0.47573540707469053 0.7122682333983801
16 0.7942228170062272 0.8392367264760126
17 0.32203707188779096 0.3222686916935559
18 0.8131256587770954 0.11673490344720017
19 0.3593241129543703 0.6578877160219025
20 0.02035818245789278 0.1353774178124123
21 0.32887540654765934 0.9048504408558748
22 0.8995447840670666 0.9892410227247415
23 0.9957568132946812 0.3047161162691878
24 0.10681948940889618 0.06245272509711908
25 0.406862173706131 0.3671828782532134
26 0.2964274307205035 0.3575715893798751
27 0.3542973847711064 0.324025572813913
28 0.19479275276316554 0.4301679633970442
29 0.2823513582863443 0.1527429076923622
30 0.187067940171306 0.4094719627533171
31 0.47392241847603767 0.3925206793810333
32 0.7803669854642511 0.9581137331925563
33 0.23819171367009462 0.39649282646127226
34 0.7745480924076674 0.32745263306370276
35 0.3622933560979652 0.10386042375550553
36 0.8511543750281105 0.5252684166304921
37 0.4766676249228945 0.7809214981207289
38 0.9237784929500217 0.7980372260798382
39 0.5720418398842468 0.6009781709636594
40 0.5242686244195309 0.013270270633052528
41 0.09674891691674148 0.09596023149846988
42 0.17586231706995104 0.3160441795582274
43 0.5661502363518672 0.22901775318749418
44 0.9571806376836484 0.07105198592903528
45 0.9721311027950629 0.4584534869769108
46 0.6097260695434686 0.5999118001117606
47 0.591190617257826 0.46730885846319437
48 0.35613530723324105 0.774470419986168
49 0.52342323708783 0.5885838443910583
50 0.9865393377168201 0.6387291048805436
51 0.5922728235717697 0.2884456168362086
52 0.4885352238625843 0.30758667930606043
53 0.9367683598478386 0.5356237640374477
54 0.41523782277477905 0.8150814174204789
55 0.2350234396827423 0.48464467648831555
56 0.25218274302137833 0.2202463777799083
57 0.08600348753928 0.6224292052111957
58 0.9079833807348014 0.9917986091836596
59 0.7393146546354539 0.029771874397044096
60 0.111014794598575 0.7111060296460862
61 0.7131931852234383 0.06690512069673171
62 0.6061103707151541 0.5859050547811325
63 0.709225450486633 0.6984097595807107
64 0.5967093917934888 0.3223681919609567
65 0.815079076421627 0.8502271853113037
66 0.23294608742701017 0.24389825860786163
67 0.9731192131938277 0.4968807465587499
68 0.8553486468209118 0.39475292263967
69 0.6223477698576256 0.12332401728863218
70 0.41256435756778553 0.445033064316241
71 0.3600996454522212 0.9443914074794933
72 0.8644475572472462 0.29268007231723425
73 0.8404461454840343 0.7442896006862453
74 0.6371822701594972 0.706930019556627
75 0.003244617719961429 0.9653550003519469
76 0.034075794791868064 0.8813934541018273
77 0.12786611160421568 0.2957138629346995
78 0.3268342642097969 0.8001643053373136
79 0.02021423868815564 0.8764757067392412
80 0.13496007218922224 0.14622373305585468
81 0.5123051978338724 0.5990142477536948
82 0.42401612302685154 0.740345825046971
83 0.9392019120624469 0.026928229640863943
84 0.28717745171688214 0.8990941322444678
85 0.4868316549359427 0.04066641349804545
86 0.9081607025063054 0.9590246434461743
87 0.6089112467094935 0.5268887879008161
88 0.2721252569969915 0.7991555860892955
89 0.10146542593146302 0.8282239453959611
90 0.664935393792424 0.9169301794402896
91 0.7363850333409437 0.16239475362209188
92 0.5589469585306979 0.5673971927308854
93 0.7257762924567615 0.8590114991922226
94 0.757267570026585 0.35061416227315334
95 0.3940422584130473 0.7279924730185872
96 0.030480501601963583 0.7942229266520657
97 0.7604002695591566 0.3958516843776919
98 0.37064213915919564 0.1939493886168815
99 0.24524127970240495 0.697338704520269
100 0.39104557860531497 0.14543512426419314
101 0.7131057766459928 0.10444471017818613
102 0.32479184318668597 0.05003333535180643
103 0.16703785180740638 0.5008701522113759
104 0.27862581995928437 0.2513000340273389
105 0.8176915269831294 0.41783093361188683
106 0.7021613051248761 0.30127293888161333
107 0.8897895628381643 0.3357884782239451
108 0.12198358096863848 0.6194855380078278
109 0.7808741404752556 0.41021084910871186
110 0.6257292345474063 0.7572894759839487
111 0.6309775790190841 0.9376681367076789
112 0.8248255979151238 0.22119411797477861
113 0.02712617049623367 0.9506851415335262
114 0.4984340358430813 0.29090525284835544
115 0.7242893209909246 0.4390686400671324
116 0.0633907278693705 0.19390463038867278
117 0.7943308301937951 0.34772841348815364
118 0.8835777910022028 0.8505309180533319
119 0.729112108198266 0.38035376529842735
120 0.2039869223750692 0.2446082650808573
121 0.8582382616170644 0.6970279582715234
122 0.494758805612472 0.9073515114160429
123 0.004534553681696862 0.9179804645639835
124 0.306933791253985 0.5645117077677901
125 0.19185725961785016 0.8186558137772163
126 0.2906890164169389 0.16071352242130543
127 0.9228562332495808 0.08728771952160075
128 0.7869984636927747 0.20875726451289256
129 0.13641834367855277 0.7544908358339505
130 0.855166388793382 0.4582709025499252
131 0.43065546613459305 0.018018646353562096
132 0.2135398215881823 0.8307356303083583
133 0.41433985542131424 0.551846185803684
134 0.9512544524127825 0.4612895979688477
135 0.949412015662078 0.37087066862548523
136 0.39684929846402883 0.28372162393565425
137 0.5989940620517437 0.4872768715026464
138 0.829012270624582 0.6443642790030036
139 0.27838242588426854 0.5099119447956062
140 0.8157074060661367 0.8808340142800665
141 0.8304269098580602 0.5375618065983016
142 0.9872009077256116 0.7878060063204539
143 0.3959678448139786 0.7382459273658346
144 0.15744320582046 0.992489360500666
145 0.4102521918589822 0.8838296483172334
146 0.056146930313168975 0.9001725660797382
147 0.13635694252210084 0.3235489333686258
148 0.1402933542082614 0.43278642016735536
149 0.7448141587365434 0.6124048472186803
150 0.7094374594696079 0.5974436733516331
151 0.447251459558353 0.4438991558431252
152 0.6016089590033067 0.8223562823806694
153 0.04907992591341914 0.7960510925064024
154 0.6056367665036146 0.6675060478232461
155 0.6287632361266365 0.317386546280525
156 0.21089037230418106 0.24449777349491086
157 0.6261915623620872 0.12295177087505982
158 0.9073876283375822 0.2355630952662069
159 0.5539399594479967 0.27963775416146985
160 0.09767353548906699 0.051166808473200986
161 0.8350915342651863 0.8735037225323083
162 0.8303109179004171 0.005852777198936954
163 0.5175427212882243 0.7639396002258928
164 0.04626136551151294 0.47221866728286976
165 0.5854834495101731 0.6065234705198369
166 0.3492321240642422 0.012070506465728492
167 0.9650083121012749 0.5089099876680848
168 0.610784189309054 0.19733873093637821
169 0.5743498719055404 0.27198648346672305
170 0.380096111032171 0.3485220336691178
171 0.6856267894752273 0.8824543302439785
172 0.26190756384948044 0.8988860396462128
173 0.9389839250330277 0.723666845022189
174 0.033319510857315326 0.4848106688218684
175 0.0232937933947025 0.2496343625602081
176 0.09185378992618443 0.5471572734637362
177 0.7359348366929478 0.700657922450123
178 0.5957526084260426 0.3150268640383952
179 0.7570377034589582 0.20344432816586688
180 0.8915180629973128 0.8075774110851928
181 0.2635511432422484 0.870170454589929
182 0.2251786191986489 0.3981645129345561
183 0.8639707222419173 0.7103772439491063
184 0.5271859731651173 0.03798001315502553
185 0.2510758493714512 0.4662768148710007
186 0.4080598471618274 0.776572605877204
187 0.9227691848724804 0.7669296700858947
188 0.9253150857947421 0.2910181868924532
189 0.9388633154131453 0.07380727643210672
190 0.6971300683364348 0.03383733436210423
191 0.21657031287154027 0.499459237139926
192 0.298204230845166 0.8197116745928723
193 0.5508597749188517 0.6362429891180873
194 0.2873964524351854 0.3563486680022089
195 0.8513319826953508 0.8057194288074048
196 0.03401118527327229 0.6542435460360706
197 0.23241694391379353 0.7543776645695748
198 0.3775486191329168 0.5165275994669498
199 0.4053325606859288 0.7591390278110499
200 0.2538027346075379 0.7612633266606338
201 0.9929857992844919 0.7883250987977408
DEMAND_SECTION
1 0
2 6
3 4
4 7
5 7
6 3
7 6
8 6
9 9
10 9
11 9
12 9
13 9
14 4
15 4
16 4
17 1
18 8
19 7
20 9
21 2
22 9
23 2
24 1
25 7
26 9
27 7
28 8
29 3
30 5
31 4
32 3
33 6
34 5
35 9
36 6
37 8
38 8
39 9
40 2
41 2
42 6
43 8
44 9
45 6
46 6
47 3
48 5
49 6
50 7
51 4
52 3
53 6
54 8
55 9
56 1
57 8
58 3
59 5
60 9
61 1
62 5
63 2
64 8
65 7
66 9
67 2
68 6
69 3
70 6
71 1
72 5
73 3
74 4
75 8
76 3
77 3
78 6
79 2
80 7
81 5
82 9
83 7
84 3
85 5
86 5
87 3
88 7
89 5
90 7
91 4
92 7
93 4
94 1
95 3
96 2
97 1
98 6
99 3
100 7
101 7
102 8
103 6
104 2
105 1
106 6
107 3
108 4
109 7
110 2
111 4
112 8
113 8
114 9
115 7
116 4
117 6
118 8
119 9
120 2
121 2
122 2
123 2
124 6
125 8
126 2
127 2
128 6
129 9
130 6
131 9
132 4
133 5
134 7
135 2
136 8
137 2
138 4
139 6
140 7
141 1
142 2
143 1
144 7
145 6
146 6
147 8
148 1
149 7
150 3
151 2
152 9
153 5
154 9
155 1
156 6
157 1
158 2
159 4
160 6
161 4
162 7
163 8
164 4
165 7
166 4
167 1
168 8
169 8
170 3
171 4
172 5
173 6
174 9
175 3
176 4
177 7
178 1
179 7
180 5
181 1
182 8
183 5
184 3
185 2
186 2
187 1
188 9
189 6
190 7
191 7
192 1
193 8
194 7
195 4
196 4
197 4
198 1
199 6
200 6
201 7
DEPOT_SECTION
1
-1
EOF
