NAME : gen200_020
COMMENT : uniform customers, demands 1..9, generated by bench/make_tuning_set.py
TYPE : CVRP
DIMENSION : 201
EDGE_WEIGHT_TYPE : EUC_2D
CAPACITY : 70
NODE_COORD_SECTION
1 0.23373716963500524 0.6734190492813223
2 0.17792129553531122 0.8065477216462498
3 0.9502831632078281 0.5302741900169629
4 0.3039631251121785 0.06048394486665487
5 0.8173822692176702 0.16557906067333217
6 0.5766126494895094 0.8852887086549378
7 0.3001259078395404 0.17588799444316683
8 0.31960149180081243 0.9618547162896511
9 0.9936646364950639 0.7609304679338186
10 0.7660401918106248 0.8414918251995577
11 0.5261539250006766 0.326254483890114
12 0.6680548608335706 0.436068829186668
13 0.7497740379399902 0.9888620299454643
14 0.05055045015881454 0.5860304764738391
15 0.08556716539983089 0.801479008272676
16 0.08294071993230534 0.26754203477662686
17 0.13247632185065816 0.7483209196859628
18 0.9733773064435304 0.0339141878021455
19 0.0707170589613898 0.8994552702377091
20 0.7917333220188972 0.7145689443635769
21 0.09313197496310499 0.7648476379708479
22 0.6070764606920614 0.5028318727778044
23 0.4173469145991834 0.4783720367624539
24 0.20471482293126841 0.09627725730499725
25 0.013144504284931857 0.32894015508468544
26 0.35832718493791416 0.9590222610591361
27 0.27633636092977354 0.002710419324530311
28 0.17072976664975714 0.4785348848599047
29 0.44426767163168046 0.2476808351011328
30 0.025610197234140486 0.593705317561203
31 0.4416617687291541 0.8460001162440127
32 0.5776370743523125 0.7286081351882806
33 0.05830824952215252 0.6493808000020523
34 0.43708960529347607 0.376916581956366
35 0.026040837786606597 0.23156788686253493
36 0.5478434826269735 0.5130559807269529
37 0.8612126278510226 0.576991669795963
38 0.9865956251575697 0.5465471174164243
39 0.2607500050906204 0.9865764955083264
40 0.8634592099748458 0.0006892434204583964
41 0.4535585782967524 0.6788117339729473
42 0.839742727688216 0.1254007800880046
43 0.04899617391107369 0.6626954317549539
44 0.5393039419868146 0.5479267803500992
45 0.619742292089063 0.7024209886635813
46 0.9240147746541886 0.12192141757980202
47 0.717740635532095 0.5475618592378239
48 0.07486561237566403 0.672867970838066
49 0.24849245335879477 0.24941517391492707
50 0.2919611030247453 0.1564603387500212
51 0.7942975388583139 0.29773916979499104
52 0.3775179358983195 0.39572984283501467
53 0.4103489533223835 0.8823823374383841
54 0.1881292701411068 0.6468225656976223
55 0.529348620702011 0.9591103682752286
56 0.44841497408694087 0.6180316770756576
57 0.2959993275242251 0.3988367921295999
58 0.286760306503962 0.6704917650834975
59 0.15437526219959352 0.8190714977790049
60 0.9944447698209222 0.9280629478047037
61 0.3796292003409233 0.6478273146134556
62 0.6370054304294799 0.13461898614340728
63 0.17372543980313992 0.002200752005685369
64 0.06569886682867987 0.20690579989402424
65 0.43813948693459315 0.10604040522566838
66 0.8962190253836384 0.4368681615279635
67 0.5038473423698674 0.22577921830089476
68 0.6898768378967798 0.29103455752106955
69 0.8505590292125842 0.4256967619822839
70 0.5777183771228555 0.24317080347592568
71 0.12023233947981549 0.35992060355586397
72 0.7317845413074475 0.3052345180021807
73 0.6202494546213209 0.17320189261152064
74 0.43455693808700224 0.7454803925732872
75 0.570483974062696 0.8857729470805901
76 0.38083988638462174 0.42042264916013106
77 0.030170777165077767 0.043950171696684914
78 0.9679584794683677 0.6633549983742694
79 0.769723078926668 0.3394173135981442
80 0.7929786352005903 0.43935966531949877
81 0.8852535212894721 0.2768010897683989
82 0.4118301501949866 0.9005183412924227
83 0.5442460702840285 0.9745614989590186
84 0.5218146799340636 0.3317599828524508
85 0.6916441369855986 0.2907932334576694
86 0.6257988545797305 0.02021128597159816
87 0.5418055717582319 0.6580643142088128
88 0.6586544921293351 0.611447477642075
89 0.87506981588718 0.9639529461274983
90 0.0109133279473409 0.4669917780324707
91 0.07277571810352801 0.7244171274755312
92 0.13164696525787511 0.032907073749812055
93 0.765936606858594 0.1657563170076315
94 0.05988390334503901 0.8199243252655369
95 0.5250745625836333 0.09073139400556618
96 0.6189899350770217 0.5755656547098947
97 0.655046930153694 0.6803956443786969
98 0.868409218038316 0.3711071428398526
99 0.5748092952908155 0.47784856697154887
100 0.37669473055839353 0.3440383667933672
101 0.08628033220230202 0.7679020693792594
102 0.5005884825098311 0.3917317875985099
103 0.15254917103032006 0.1371560123510469
104 0.36618561862012333 0.4793570216185412
105 0.0005822478583332735 0.9963354399157208
106 0.1812819869760971 0.3083208964610906
107 0.10821070848348002 0.9493440424122526
108 0.6291082746098935 0.2181084220898326
109 0.5746277087905693 0.1233928223115568
110 0.6180509543076631 0.9277632584561589
111 0.43946392312647364 0.08198786048223339
112 0.009920882255006092 0.5143218711738878
113 0.054144893737695265 0.1981241906818546
114 0.41050735985795916 0.813418651894341
115 0.5177730525549249 0.7202572907150535
116 0.4187642125611113 0.4663165341621982
117 0.35243794813033524 0.19712872502619083
118 0.22272460727100452 0.23226742196882078
119 0.6791133332698992 0.5271969402115584
120 0.033105970841789234 0.3460981957734741
121 0.36333570247455904 0.34409702516240426
122 0.8184560804648214 0.9305742807683631
123 0.2804717858081365 0.7242832445834274
124 0.09228775717404192 0.8356674034968564
125 0.7797567239090564 0.5910508214836542
126 0.9685246128491567 0.9105025554314078
127 0.3807768470335696 0.07259838908182781
128 0.42926897898917826 0.24557101942991555
129 0.32392529478092624 0.8783467092830419
130 0.7787646346128984 0.8351706461421221
131 0.969986066469524 0.24394493372931558
132 0.49081145205137067 0.3429299382605089
133 0.7699379589780264 0.08192215991203855
134 0.05672994897583583 0.32637969594143923
135 0.3389992017133815 0.9398505817585522
136 0.7690644469340306 0.7707322954312378
137 0.4218329209231536 0.7024320394729273
138 0.5788920487763434 0.542530811581843
139 0.9295177506622742 0.1806165207776136
140 0.5959105429195002 0.8447992501989648
141 0.5553929566568528 0.19472541271835708
142 0.11646307385045596 0.9819889900355295
143 0.7500026191202314 0.3574044434574455
144 0.40284648416109237 0.050620898272848436
145 0.8593415399210702 0.374601388209034
146 0.9246850440575457 0.04585254625830071
147 0.5124376554540299 0.22289839937277334
148 0.9661096606056554 0.7696442773281543
149 0.902485346050075 0.24685044707949577
150 0.9390702812571107 0.7226586541908347
151 0.6785200382248138 0.12294922136208175
152 0.020954441370534926 0.7341077907808289
153 0.45032365895552284 0.29022746571068225
154 0.005937704126740662 0.5396229070529066
155 0.9159358467838963 0.7035224789366716
156 0.16626605020632812 0.01776606777817691
157 0.07975739112110958 0.6357677254820387
158 0.7876117215717501 0.619158454394156
159 0.7573785904794719 0.2300885985696206
160 0.6422296541692464 0.39270272502053827
161 0.8145234822419929 0.27680218113674404
162 0.9150156334838245 0.05488344646253829
163 0.945001102025302 0.9138366967932027
164 0.42653452241054246 0.8857231322080732
165 0.5713316318594511 0.6255972823648787
166 0.2978939665165373 0.224033985295511
167 0.3159328235211185 0.42619906989376843
168 0.8059418722129716 0.9335299657908844
169 0.42814742991999755 0.513481909142066
170 0.6356264916096136 0.8356160571398095
171 0.9814883352401221 0.6309585629833081
172 0.906088629083938 0.1827828989977469
173 0.7411084047847443 0.11148696137042358
174 0.5715891552131548 0.4994085742765224
175 0.978580232281262 0.00040519931415050614
176 0.43653405362024034 0.08446868992911327
177 0.24310680707919252 0.9396470973963014
178 0.4773229713362145 0.9852753252335232
179 0.8397945273436996 0.17649747689804018
180 0.20885348311832685 0.7813988460098069
181 0.5643818381929493 0.2664367495229478
182 0.181280718843435 0.056193907048621705
183 0.8894623994367514 0.10643381688782716
184 0.6259975577922691 0.09890955815962432
185 0.03208836110676361 0.40787760190158084
186 0.25726582586502333 0.45844594322439647
187 0.6930303837601247 0.5790746920024865
188 0.6920043481199415 0.635135943393876
189 0.17525430114656038 0.7172001437410451
190 0.056612126117210226 0.2922576768053955
191 0.6276470101536911 0.31808798201122024
192 0.5807695713056031 0.1727225590698418
193 0.13248931232688688 0.8338680725255917
194 0.22321406051163661 0.06914281326357508
195 0.92090717387386 0.5836020595544605
196 0.0736034585039077 0.2726427668275042
197 0.3576816923319188 0.10738795507975918
198 0.4229178257591881 0.18062514051598222
199 0.253998335242257 0.2397372670179303
200 0.43652478944737816 0.20724963898790716
201 0.641350312916955 0.6062252498992197
DEMAND_SECTION
1 0
2 1
3 2
4 8
5 1
6 2
7 6
8 1
9 5
10 4
11 9
12 3
13 6
14 4
15 6
16 7
17 3
18 1
19 4
20 6
21 8
22 8
23 9
24 6
25 1
26 8
27 4
28 4
29 4
30 8
31 1
32 4
33 7
34 8
35 4
36 8
37 5
38 8
39 4
40 4
41 6
42 5
43 9
44 3
45 7
46 9
47 6
48 5
49 7
50 6
51 8
52 2
53 3
54 9
55 6
56 6
57 6
58 1
59 2
60 7
61 1
62 4
63 8
64 4
65 5
66 3
67 9
68 2
69 5
70 4
71 3
72 8
73 8
74 6
75 7
76 7
77 3
78 5
79 6
80 4
81 1
82 7
83 8
84 8
85 7
86 5
87 2
88 6
89 4
90 1
91 7
92 9
93 8
94 6
95 1
96 4
97 7
98 9
99 5
100 7
101 7
102 3
103 9
104 8
105 6
106 9
107 2
108 2
109 4
110 4
111 8
112 3
113 4
114 8
115 2
116 8
117 2
118 8
119 1
120 5
121 2
122 6
123 5
124 7
125 9
126 7
127 9
128 2
129 2
130 4
131 9
132 5
133 2
134 8
135 2
136 5
137 8
138 8
139 4
140 9
141 8
142 1
143 5
144 1
145 4
146 5
147 2
148 6
149 2
150 5
151 9
152 7
153 6
154 5
155 8
156 8
157 5
158 3
159 9
160 3
161 9
162 7
163 4
164 9
165 7
166 4
167 7
168 8
169 8
170 5
171 7
172 4
173 3
174 3
175 8
176 3
177 6
178 5
179 8
180 8
181 4
182 2
183 1
184 4
185 6
186 4
187 3
188 5
189 9
190 5
191 6
192 6
193 9
194 9
195 6
196 5
197 6
198 7
199 4
200 6
201 7
DEPOT_SECTION
1
-1
EOF
