NAME : gen200_018
COMMENT : uniform customers, demands 1..9, generated by bench/make_tuning_set.py
TYPE : CVRP
DIMENSION : 201
EDGE_WEIGHT_TYPE : EUC_2D
CAPACITY : 70
NODE_COORD_SECTION
1 0.6949109076416157 0.42085830578245564
2 0.8687962920046474 0.023981980166872474
3 0.11441904837543826 0.8065850878085352
4 0.5699968937487162 0.5395875314498862
5 0.6799784230119952 0.4414565266096928
6 0.5177109516142593 0.8903433710986427
7 0.7859798314425323 0.6482516604370008
8 0.6405955223964304 0.4310645963265213
9 0.521637324079763 0.3971053092812874
10 0.012083908809392585 0.47796579694406605
11 0.9174749907435751 0.7571856835276168
12 0.7202757284493292 0.6082697559361864
13 0.7732151754155545 0.8716281468260757
14 0.8519639655515232 0.7338089374054088
15 0.3131009488816461 0.3536387370676388
16 0.13550849396332643 0.8670684011582935
17 0.5123843445030257 0.35483995203967567
18 0.6962963888206722 0.5031922550581962
19 0.17665442696579237 0.034787422287801295
20 0.09853426513342123 0.5448300439853873
21 0.8811318564617024 0.9027822913144243
22 0.7503285691838104 0.18490995059237025
23 0.15984344617138546 0.8855414434850446
24 0.8809127102989093 0.9457192870415089
25 0.6644782982131194 0.13081879516049022
26 0.5289189959148597 0.02890358634444079
27 0.8647422070003059 0.06698410368082741
28 0.31889826855300063 0.1921277536687357
29 0.02939982940973984 0.9765218764063057
30 0.4685503771244772 0.7295663346024787
31 0.8045208479904328 0.5381226715284505
32 0.6084012596752726 0.8943443093310023
33 0.0017056421043512016 0.678165393164547
34 0.7052184071596216 0.309811372193213
35 0.7264405223281715 0.9723660578936656
36 0.606380580041831 0.13245854964062465
37 0.9550478025812703 0.5324950683470809
38 0.14323020166917932 0.08390145172008101
39 0.5622511445150411 0.4502274074194569
40 0.61010174801315 0.9594097831994252
41 0.4018381663663759 0.1298813115913361
42 0.7357397641790867 0.46559760626958546
43 0.3282653471200686 0.1908566709943007
44 0.6555691924606101 0.7917516538465154
45 0.6645846327409825 0.2890819621896261
46 0.38974915628833406 0.9477881034689615
47 0.26999311454337793 0.6578025790865848
48 0.317360493022824 0.7236507737498018
49 0.7774795893670625 0.5960665947509702
50 0.2381784957507891 0.7565171411224277
51 0.1639376682399879 0.8898384773611719
52 0.6563683154835571 0.243355494535189
53 0.7043622245191898 0.8261963306403127
54 0.580874304759505 0.7816364891058292
55 0.3998992055162739 0.11636682282536481
56 0.4094673232712379 0.4333466043497164
57 0.017030431615615793 0.4850584973716715
58 0.24541747065082964 0.47641840344209185
59 0.3157967859328481 0.521988474664171
60 0.8879085364542805 0.1621870027277318
61 0.49808389491003546 0.7838273537354474
62 0.6231647582461194 0.30690937625233206
63 0.6913536983306923 0.5253032296124228
64 0.9837771498132754 0.738821327659521
65 0.40527294260062463 0.9627485984146636
66 0.6665328959485166 0.8496902790553517
67 0.5621396854793888 0.19028738505441123
68 0.6410968835720975 0.07418810190012648
69 0.8580417758410989 0.4865915132065485
70 0.4647466262570201 0.7454445219458116
71 0.5709948666281539 0.7503350914514417
72 0.8986017393086092 0.08900075022060994
73 0.8374326259063156 0.5698618115487232
74 0.9348333529514091 0.541951224707054
75 0.4934225872011856 0.8091904661002282
76 0.6979873518880478 0.9875378663076119
77 0.36237750880059216 0.4285992296236586
78 0.38990421584168167 0.0538424584287861
79 0.3543085108537679 0.7116506939642031
80 0.6363589168762822 0.4726541780366661
81 0.8406351154170112 0.1620106555599401
82 0.6688562316884594 0.9020550691378995
83 0.7594300683472862 0.34727570615383174
84 0.7526741761585162 0.9839674528909963
85 0.35009648570969343 0.1635383162571915
86 0.8084531529333215 0.9798793070969395
87 0.9043927503925897 0.5609592051580464
88 0.4107611526947317 0.6325854415204002
89 0.30961129279431987 0.19328656511272535
90 0.1079014915703187 0.3387773071343073
91 0.5172938442444912 0.9024477535137911
92 0.15569017463706813 0.06810358560191543
93 0.5415079741215569 0.7125509323199584
94 0.5496603966199874 0.14857362003260566
95 0.4732652618245248 0.13396425367306442
96 0.8230038777372601 0.4274507096246216
97 0.6051355786749111 0.7528259557514578
98 0.3195428966635492 0.6553374722350059
99 0.4998106781883963 0.03186891478946441
100 0.8553424360014409 0.8992497904841049
101 0.2043378302005292 0.9492448017265258
102 0.07401527968730381 0.5538390131674427
103 0.8343704094993186 0.7987283177440466
104 0.8348088532355983 0.9710338344458589
105 0.16486378957280434 0.6803772700990011
106 0.4061477932243085 0.2116482972794228
107 0.483822729754245 0.6101556548658669
108 0.7135565843373363 0.9139647936278001
109 0.5421317073154145 0.17481639508953473
110 0.5325457648953075 0.03163607215400799
111 0.4086629660278309 0.11316495179304498
112 0.09822162476453122 0.702221265914947
113 0.07431812828950257 0.8639694000999567
114 0.6392709486094535 0.6482831460217444
115 0.7771551545352967 0.10819343230094003
116 0.19043166918942556 0.8149570087093
117 0.8617615515790674 0.4648173827189972
118 0.9331209469687789 0.15099998373379464
119 0.5728153496357579 0.12546810093476246
120 0.8220295062219364 0.9114460217185566
121 0.6553918491126038 0.6975803480363456
122 0.26619707274912097 0.6135585809418054
123 0.1820123219590818 0.9126519678118399
124 0.7227514540524184 0.6107841606901087
125 0.7167907877639947 0.27052313046542
126 0.09174295393333154 0.9006367894429432
127 0.060667549930814246 0.07108362999759787
128 0.6101054302919923 0.009285341320355411
129 0.9553925565712518 0.21735822300921404
130 0.7511729630722016 0.04948325716189683
131 0.21294943733420757 0.5274124898252605
132 0.5696858257746219 0.20874356093758173
133 0.5687583818099504 0.4133169571812887
134 0.2567082668448364 0.31706822253101474
135 0.4606065097844737 0.9612850141203225
136 0.4988893105215907 0.9984504722447521
137 0.7212028982148319 0.10733707254089642
138 0.0746860094848032 0.01642088249315321
139 0.012636001666269547 0.30788442161620444
140 0.4221935193380494 0.4581085727360099
141 0.6623132726513775 0.6110627390673766
142 0.5155707520770663 0.21071132579207752
143 0.7229365584505871 0.35798480326865934
144 0.17681248738644473 0.1463352254564808
145 0.7158116684006526 0.008289759323613421
146 0.9666952150538988 0.34318588078800527
147 0.2936656407445003 0.5672955831556507
148 0.8806342653767442 0.4371150514602461
149 0.5740012106699312 0.37128992372377545
150 0.8779660432552806 0.13255213774838093
151 0.5378177912670309 0.11289410500738817
152 0.8511475548769343 0.03918245390885089
153 0.7510209664895218 0.2943045656405291
154 0.5824162568321735 0.018967456981553776
155 0.06369152162228497 0.9866235770465958
156 0.5037436987277186 0.5522427845149888
157 0.5307585165613532 0.8913974843453947
158 0.7431537879972396 0.7559228251866625
159 0.47174572269677373 0.9228223842726814
160 0.10438668347610358 0.06836945171283126
161 0.2009990136781491 0.6433487809479068
162 0.7796616265226174 0.5627939951498323
163 0.09594818612431932 0.10310979344449889
164 0.8215210863763841 0.9421445394213739
165 0.20972760262947665 0.22775141655156061
166 0.2718703500410943 0.8549397071963422
167 0.11620026309651765 0.9618211396495138
168 0.6844605711452865 0.3504464945751439
169 0.2401125549509876 0.4053259408356742
170 0.7225641037732642 0.2221056926063737
171 0.624467756129797 0.7899987845565578
172 0.5890572165927952 0.8405421510515076
173 0.2856045270636115 0.5862425157275565
174 0.2114346101701282 0.8372790042989395
175 0.1750391372918737 0.6745077356961442
176 0.21490911870306717 0.29001291306202426
177 0.4431509171036597 0.28278906895100997
178 0.24224701338411148 0.48260648603027745
179 0.4920220454775629 0.6723840814812115
180 0.6836281329488916 0.5751616544278784
181 0.8450931631197022 0.47294402521719914
182 0.5224885152012597 0.9632510892967419
183 0.2846304758181364 0.8259460252960963
184 0.8239346715777138 0.6613503660488631
185 0.9438032869485105 0.8108860385881016
186 0.6174458172525908 0.12990925692009525
187 0.10069964033130252 0.24793130853185774
188 0.21145821631468154 0.7681950396632653
189 0.9423441941289208 0.2609500598657962
190 0.9428582882526079 0.5948161186887457
191 0.8284992683841257 0.6577214127025012
192 0.8575384403877022 0.5681973338043081
193 0.7260374211745778 0.45054024454391306
194 0.31766220706485604 0.016777484336327864
195 0.4819989577825047 0.47185607512813077
196 0.8973783560096938 0.8977265184978552
197 0.8997824931028905 0.6598023091722449
198 0.9261185769713626 0.1118962032623948
199 0.6289692800120411 0.2870234826386501
200 0.15974999419025604 0.5513555819790696
201 0.8338388741724208 0.25046655228674664
DEMAND_SECTION
1 0
2 8
3 8
4 5
5 4
6 8
7 1
8 9
9 5
10 4
11 2
12 3
13 8
14 5
15 5
16 4
17 7
18 6
19 9
20 6
21 1
22 8
23 9
24 8
25 3
26 2
27 5
28 4
29 7
30 8
31 1
32 7
33 6
34 5
35 5
36 7
37 2
38 8
39 1
40 4
41 4
42 3
43 3
44 9
45 2
46 6
47 8
48 6
49 1
50 9
51 8
52 7
53 2
54 7
55 6
56 4
57 9
58 4
59 2
60 8
61 6
62 4
63 4
64 8
65 6
66 1
67 1
68 1
69 8
70 9
71 1
72 1
73 7
74 6
75 1
76 3
77 4
78 8
79 9
80 9
81 8
82 7
83 5
84 4
85 7
86 4
87 9
88 3
89 9
90 6
91 8
92 8
93 5
94 3
95 7
96 8
97 4
98 1
99 7
100 7
101 5
102 6
103 5
104 1
105 6
106 1
107 1
108 5
109 6
110 8
111 3
112 5
113 6
114 2
115 8
116 5
117 5
118 8
119 3
120 9
121 3
122 4
123 6
124 6
125 3
126 1
127 5
128 4
129 3
130 2
131 6
132 7
133 7
134 4
135 4
136 7
137 1
138 7
139 3
140 6
141 3
142 6
143 2
144 3
145 7
146 6
147 7
148 8
149 4
150 3
151 1
152 3
153 9
154 5
155 4
156 4
157 2
158 7
159 5
160 5
161 7
162 2
163 7
164 2
165 8
166 3
167 4
168 6
169 9
170 1
171 9
172 4
173 4
174 7
175 4
176 6
177 5
178 7
179 6
180 9
181 8
182 4
183 1
184 8
185 9
186 2
187 5
188 1
189 2
190 1
191 1
192 9
193 7
194 9
195 9
196 5
197 7
198 5
199 9
200 8
201 6
DEPOT_SECTION
1
-1
EOF
