NAME : gen200_013
COMMENT : uniform customers, demands 1..9, generated by bench/make_tuning_set.py
TYPE : CVRP
DIMENSION : 201
EDGE_WEIGHT_TYPE : EUC_2D
CAPACITY : 70
NODE_COORD_SECTION
1 0.2568248490751963 0.9665865977070061
2 0.09084723043874665 0.7485752354077112
3 0.2688915180462108 0.044797023925230106
4 0.45496111479858614 0.20018998997836368
5 0.9666196683333461 0.23433516040060676
6 0.3549256112346866 0.6702545980307066
7 0.5860447465931756 0.5759059544124709
8 0.9758389369795462 0.14525100798937685
9 0.2331230744526117 0.06907307776627325
10 0.535531507153489 0.13788985141161292
11 0.7936648554959399 0.36650693493922204
12 0.34642908575847864 0.21256112179331965
13 0.47530421751978735 0.1304484440412561
14 0.0489411261539191 0.47100906720237434
15 0.7387260374095335 0.5992949517133214
16 0.026559517248797793 0.17133845438271744
17 0.7900903185401891 0.9794045295860521
18 0.4206836461382665 0.11049642721214203
19 0.952282358802249 0.823818451648608
20 0.37013096363965037 0.6082606259576689
21 0.22457115446258546 0.4046270573935592
22 0.7485673138833456 0.6450176845565566
23 0.34817633105446877 0.5034835695171489
24 0.7317763916060975 0.9862616738236216
25 0.05284459494923044 0.36947570851643996
26 0.5835812991142063 0.1428825890333143
27 0.8507682813826136 0.028397070713401917
28 0.6488551523618021 0.3380697635891855
29 0.9381074029396406 0.9867934298227308
30 0.5623932834199059 0.37250279931189234
31 0.4557798807868293 0.9509216271807117
32 0.5576683870738767 0.3515314326094974
33 0.46256483566054685 0.4492342784717124
34 0.25417079276140897 0.4111984616739801
35 0.5393566336006312 0.4294178084407021
36 0.7215562447192233 0.39696331915604244
37 0.7361992987238131 0.8244198421853676
38 0.5132580620413373 0.8964063787704125
39 0.41597319713328307 0.44553871548404955
40 0.03126902454472813 0.35627288796936374
41 0.7436584029842134 0.30510366712002646
42 0.09092628884415455 0.9785918066725658
43 0.7607593168541549 0.472202131082336
44 0.2690052282527794 0.5399723499156892
45 0.011016640086757179 0.07277125460225731
46 0.11124181221807794 0.870201248191213
47 0.31253803290029625 0.7673822074124024
48 0.9718812231889743 0.2292384704057413
49 0.48597366733650993 0.8425462744917087
50 0.4328287629644353 0.22238061826558564
51 0.5331193483468197 0.8933889959175432
52 0.669915654377685 0.30220369216876697
53 0.0009530622003178779 0.9581963844278517
54 0.11809062747682664 0.1999713940431357
55 0.1833709211521749 0.0901323850583341
56 0.5996680105271888 0.794375533079625
57 0.3268649922360827 0.42734021298323466
58 0.32482653100585523 0.34866962920855227
59 0.2610703997727012 0.6983819885293966
60 0.5543173433003267 0.9777788907446578
61 0.41552984030095463 0.310763715846329
62 0.013703997467135576 0.6753663773410107
63 0.7307602458991094 0.11434115947191947
64 0.8912848534558832 0.2863727839730602
65 0.5918012344518323 0.25065307816692295
66 0.2346344535626611 0.36589518153497647
67 0.8379519208640918 0.17171083770939088
68 0.2619207691978558 0.8184245845351809
69 0.8292232517390818 0.28161364839640557
70 0.6945966919744846 0.05148086949325015
71 0.0010244140634161347 0.2347326493462446
72 0.31089753911612106 0.435424949546271
73 0.5567093139617064 0.6037175736590006
74 0.5236723703676893 0.8883487813924683
75 0.702553936008689 0.5025749042019804
76 0.8816879418798893 0.5281972309540786
77 0.8319111009390329 0.7758228304161521
78 0.16629832673260658 0.7623242671726351
79 0.15836925754909603 0.023681523225513423
80 0.6633099784945968 0.35990527589728905
81 0.780679094717592 0.28135410139711536
82 0.18678890709396423 0.19130217069866262
83 0.15166307344827024 0.5726801412046169
84 0.9246071383097605 0.8166178305824799
85 0.7960877115906979 0.6007458006724856
86 0.028505516683400844 0.27400101259459775
87 0.40061124617195043 0.872876476260903
88 0.90084981941991 0.9213630652624245
89 0.01882139257630866 0.35663700724658653
90 0.26017994250166543 0.258695797946501
91 0.9850158919701558 0.543114267667777
92 0.41778826734549046 0.8884312794074168
93 0.45885149108545276 0.6473539121999367
94 0.014189782931032902 0.5515706290220145
95 0.07638223145329026 0.5327569200941652
96 0.50078995120431 0.38162313868422115
97 0.6157676557083398 0.977887040570152
98 0.23317528323077719 0.2542018035449133
99 0.5985852758171156 0.5584869534684144
100 0.7530394466387363 0.11683928924005005
101 0.02323135263003573 0.06948089054698925
102 0.45548090222376125 0.27744824936161505
103 0.416873740880641 0.21003382252226
104 0.6513556982281142 0.7349302206117632
105 0.1104741853790554 0.6915819041999786
106 0.02278222290336529 0.6484859424815667
107 0.843598938847771 0.3841351576425124
108 0.1501405689093237 0.8649539915638702
109 0.828483556802145 0.2563229489256603
110 0.9147342805933957 0.5706950051712629
111 0.32169174316002713 0.1502896123479981
112 0.2871230730005151 0.9889676829712324
113 0.875478113489781 0.2513515598708186
114 0.6879597342636468 0.18245808320455725
115 0.6066763496403206 0.12268986769949453
116 0.5907735523579049 0.6176379212593639
117 0.1573496264352452 0.0005176706629245187
118 0.5617905249484787 0.32243272515607435
119 0.4532113793915491 0.10511484373996072
120 0.7823684836365139 0.21961546573670376
121 0.5479221221436807 0.2317689461682234
122 0.6014292327656399 0.5504943650340344
123 0.9250379203595421 0.6573302285368459
124 0.299427257733869 0.2825125312704925
125 0.9652910658739583 0.41459675154309283
126 0.382673403903836 0.5151535294007694
127 0.16844335203705407 0.08183149583200588
128 0.1971790787635478 0.07408946222290624
129 0.22107825254188573 0.2151641528637045
130 0.7589960671283724 0.6816768781526203
131 0.30791608297026807 0.08456810983002294
132 0.45251875173930634 0.399534696128484
133 0.09650294957399719 0.2948304777438332
134 0.12078663749482754 0.6271791843517028
135 0.9152643110532728 0.4687139404808871
136 0.6507038530216812 0.719960503252441
137 0.9403918511884912 0.4514005479156047
138 0.1555325433716369 0.33617329182046796
139 0.2738849579267565 0.0681865038945405
140 0.49984825115056786 0.6716160801160959
141 0.4960440867554944 0.8240933248053495
142 0.7202548879526351 0.7816731632715829
143 0.1451677307167757 0.9858639503453764
144 0.9698958709226956 0.9319702484683784
145 0.41215929821443464 0.38542805821468384
146 0.8730594915213724 0.5251230194088511
147 0.6308565663256847 0.3814495529319135
148 0.43568908177416155 0.9316401842153487
149 0.35276217337373084 0.010232335381125335
150 0.8465609818700783 0.16880946856668777
151 0.3660562738129325 0.651421848395999
152 0.8926097423189994 0.261051227969037
153 0.7011334707132859 0.1301767875896389
154 0.612795121332736 0.03773575701101117
155 0.35327708748520403 0.6019134545196162
156 0.3312482349139849 0.7881009150719424
157 0.1841511239488436 0.8942492927967249
158 0.4978343825514483 0.9746166609112428
159 0.10667858049692969 0.6644822131643245
160 0.8839930454230309 0.11759904587433567
161 0.21110646653951326 0.8332011407523212
162 0.9476281819851269 0.8478997978977497
163 0.8964662236811083 0.8682314993154562
164 0.3840505705113626 0.7778891211968585
165 0.05999425306356665 0.06650631606138413
166 0.28700400624350664 0.6735950705749628
167 0.10818354453710577 0.7864450217632817
168 0.42676329953615044 0.8430853773122724
169 0.2603312279333918 0.5325433282303971
170 0.5237114535333816 0.3921736916358265
171 0.8232531940094007 0.39204677187328796
172 0.7903293884742837 0.630158007150216
173 0.04696204332198106 0.27846398050943044
174 0.51229343495567 0.45395911239318365
175 0.1966366222877205 0.5525180451623312
176 0.3426551525009627 0.40515871106255086
177 0.38755122841910994 0.017050987115433514
178 0.22741827858419383 0.5145472086730554
179 0.7043893530789495 0.8096631793320029
180 0.6673230794959497 0.8316307608102586
181 0.2689619123323608 0.1665648127395314
182 0.9613554790781347 0.6809944804657098
183 0.42432606215367397 0.42511055972291945
184 0.9757918847958845 0.7797185802042013
185 0.04276214432635128 0.9421745319909579
186 0.5159854928035493 0.5218655471142547
187 0.10186758421480246 0.42956963502674894
188 0.6788895442086957 0.851805941887187
189 0.206738241454135 0.20010108928151982
190 0.4289739475481552 0.7377049392090724
191 0.31464777295356827 0.1281468213142779
192 0.6441427800710542 0.18142264731450042
193 0.5969749982443083 0.6816215928741128
194 0.7961907379506357 0.13266835365659124
195 0.8667266244567992 0.46111835144126956
196 0.4305141412115421 0.09833015003870893
197 0.5764718729896908 0.9706122349679236
198 0.3064346191143035 0.3406852556939073
199 0.9826095935295486 0.0407500677863919
200 0.2693197534446785 0.8222512792158629
201 0.42033462038042746 0.15605012359681492
DEMAND_SECTION
1 0
2 9
3 7
4 8
5 5
6 6
7 7
8 8
9 1
10 1
11 4
12 4
13 9
14 4
15 1
16 4
17 2
18 6
19 7
20 7
21 6
22 4
23 6
24 2
25 3
26 2
27 6
28 1
29 3
30 2
31 2
32 5
33 7
34 3
35 3
36 9
37 9
38 4
39 7
40 9
41 7
42 5
43 3
44 1
45 4
46 7
47 3
48 6
49 6
50 2
51 5
52 6
53 5
54 1
55 7
56 8
57 1
58 9
59 3
60 7
61 3
62 1
63 6
64 1
65 7
66 2
67 8
68 8
69 7
70 5
71 4
72 5
73 1
74 8
75 2
76 9
77 9
78 2
79 3
80 4
81 2
82 5
83 6
84 9
85 3
86 5
87 4
88 9
89 1
90 2
91 8
92 5
93 1
94 8
95 8
96 7
97 1
98 3
99 5
100 2
101 9
102 1
103 1
104 7
105 9
106 8
107 7
108 3
109 7
110 5
111 6
112 3
113 4
114 6
115 1
116 6
117 6
118 9
119 3
120 5
121 4
122 4
123 9
124 4
125 8
126 5
127 4
128 7
129 5
130 9
131 5
132 8
133 1
134 6
135 7
136 3
137 2
138 6
139 6
140 1
141 5
142 3
143 3
144 9
145 3
146 5
147 7
148 5
149 4
150 4
151 3
152 4
153 5
154 3
155 3
156 1
157 6
158 9
159 3
160 8
161 3
162 6
163 4
164 9
165 3
166 8
167 5
168 3
169 6
170 8
171 8
172 1
173 1
174 1
175 9
176 4
177 6
178 4
179 9
180 1
181 4
182 5
183 1
184 7
185 4
186 4
187 1
188 6
189 5
190 1
191 2
192 2
193 3
194 9
195 5
196 3
197 6
198 7
199 8
200 1
201 3
DEPOT_SECTION
1
-1
EOF
