NAME : gen200_011
COMMENT : uniform customers, demands 1..9, generated by bench/make_tuning_set.py
TYPE : CVRP
DIMENSION : 201
EDGE_WEIGHT_TYPE : EUC_2D
CAPACITY : 70
NODE_COORD_SECTION
1 0.5134396353319145 0.6600780126566352
2 0.02678677369578275 0.23435261634378246
3 0.7919463008552619 0.523827806441329
4 0.25528864924608596 0.4331519603910179
5 0.9691657478423357 0.5302481145964237
6 0.18176442847540875 0.714503931811021
7 0.3629237974601046 0.3824017958972046
8 0.5402021585359136 0.7059092336352996
9 0.5966307922160308 0.24908249780058944
10 0.24940172096677282 0.6043109161391991
11 0.7682525963918201 0.10737818219611073
12 0.8635745517364856 0.6780280959119985
13 0.33067364652570197 0.8514387878988888
14 0.22341461588504719 0.3455809265190892
15 0.2886475527037493 0.8738075129747555
16 0.8344277376891301 0.023688736639898234
17 0.7265638263460914 0.8236362976367194
18 0.5853302706974921 0.7951674407234631
19 0.05084796983046236 0.5526983746603298
20 0.6856524508589597 0.1718273637468376
21 0.20051702078528966 0.4015071848056747
22 0.4202072975848157 0.17547725001429348
23 0.7628201174785962 0.9041076166504906
24 0.8899573906226435 0.6255240427415096
25 0.6473846088166871 0.7263697725133477
26 0.7168275081280435 0.880956043887471
27 0.0952374642376641 0.16865427591816995
28 0.05068330074628602 0.6743703541089128
29 0.36608494719648654 0.46367767448203134
30 0.7678834250228095 0.2651521110847569
31 0.11165496043898626 0.4997896927174572
32 0.6995509328893937 0.548373565662602
33 0.2066288999731296 0.9767585448117311
34 0.00038847430696542506 0.7651340080077181
35 0.5195409571429185 0.6026872981648841
36 0.4360827424928425 0.6990522065719975
37 0.06187857376411421 0.8245910764393071
38 0.7201589315668274 0.3461199921442608
39 0.9447665363542537 0.00148937577018049
40 0.8765134399146414 0.34235797567852544
41 0.1862798247973939 0.9408757212175554
42 0.19678477414354612 0.5827515186918502
43 0.0511778118585583 0.46501148898480393
44 0.5608469073451748 0.13942570998068005
45 0.0956282435063095 0.7260492403734905
46 0.21353487717283515 0.2226448157166835
47 0.14772427671507438 0.27806704880414423
48 0.903448270015344 0.23938842737752786
49 0.696698305279017 0.15918256288352717
50 0.2492262096197697 0.03795568196391508
51 0.3780814113883071 0.5385988899045884
52 0.17357870312180468 0.924247388664361
53 0.6446546884913473 0.22098201790906669
54 0.372330138378954 0.37408785418360313
55 0.5839146988575307 0.2711373872377152
56 0.8673990514339 0.2727173202755817
57 0.6981631253202097 0.9413637803644087
58 0.2934250708633068 0.8593125973660354
59 0.9644035681960956 0.7801622103705413
60 0.5002215560335022 0.61488011989931
61 0.9498602518385714 0.5190425166741608
62 0.6399169898839153 0.9632427114219798
63 0.522953344398736 0.11989923470036012
64 0.26387793437304186 0.3288564125290193
65 0.6696626920953235 0.24991405048258597
66 0.5602587483461098 0.5690413082113582
67 0.9234395005774569 0.8276625748567084
68 0.7150455921742247 0.5770220828630972
69 0.16564595761915513 0.5797812061582878
70 0.9261863940162396 0.10822617991788275
71 0.48151894041542687 0.07181189834746549
72 0.7160657212920926 0.3033586625145269
73 0.3719309910259565 0.6835241451106926
74 0.1592829886201228 0.5150063891135037
75 0.9614842045089367 0.36152089290882117
76 0.2457461361634562 0.5252797267830809
77 0.4859798346592955 0.03843382895955849
78 0.46259349343602496 0.6579439864721238
79 0.3953821107793465 0.47020722643830193
80 0.6634575086153913 0.9998183574189471
81 0.5071281683886105 0.3001880053887409
82 0.38682547074150797 0.8489172840133111
83 0.9129983591265569 0.127624733873672
84 0.5799927558460978 0.6160033895393776
85 0.24742694644630714 0.14270917656836613
86 0.42134315345878215 0.716689745650717
87 0.3438718914325165 0.0428262475015555
88 0.9133587844330154 0.7044404267962271
89 0.042578089151715015 0.05865772710685402
90 0.27002983642843814 0.8767427827424578
91 0.5417219539628833 0.5805765729369329
92 0.6207147282898814 0.6936399137055949
93 0.7604397021440331 0.8185562139021479
94 0.030761430015890157 0.09630643503196945
95 0.757575722070378 0.7795356160059015
96 0.10262585443671546 0.1611708006156124
97 0.09140852747317718 0.07085693247487357
98 0.23252258794964664 0.42223563115715623
99 0.8915445677937678 0.1081771995070171
100 0.24092515631160338 0.48815746942410143
101 0.5020556188281623 0.6231298096240828
102 0.20058865004167004 0.985225784619146
103 0.16192604641376485 0.3308709545811763
104 0.12076542843349014 0.1989324655913024
105 0.1267418888784715 0.82610641790904
106 0.7939050656180441 0.9930084344729112
107 0.26153497558982786 0.7362981961873657
108 0.35362380304884355 0.30116330165340766
109 0.9701169617728798 0.5217865719397844
110 0.1394393227245314 0.4162797979570696
111 0.9661772298144059 0.3151307830775921
112 0.8373734087874816 0.4658824759844895
113 0.2674385699292334 0.024694042790464166
114 0.7793660046844858 0.7169271542661184
115 0.5946555201337164 0.48478386172446764
116 0.02226818775231343 0.6425664200871288
117 0.19305011494118596 0.33865970723443206
118 0.3994576329169156 0.5613309204419684
119 0.04940383830375139 0.6759437032155937
120 0.602423021347916 0.5416490999746605
121 0.04612631916577459 0.07910652546672348
122 0.7150186697508522 0.4042527579725964
123 0.5965474043125443 0.8121632128373466
124 0.8098289920683952 0.15056297803288143
125 0.0628235943167037 0.43868381253624567
126 0.5524290014757735 0.8266288655843433
127 0.9171258257730421 0.6094827873819086
128 0.9532670025944413 0.09442399506890653
129 0.9785479001067533 0.6878269879229062
130 0.4125247058470095 0.9064883022196294
131 0.589649171357082 0.0071687638063915315
132 0.26723786694985174 0.5454778944785964
133 0.0671132835132987 0.43384700196446613
134 0.31101122243542023 0.587139148630132
135 0.8657444384290689 0.18657750679926988
136 0.23635079050110086 0.6913281736844128
137 0.7801171837846499 0.2264725981989375
138 0.18513405075213474 0.008398035634896273
139 0.7450318313245375 0.3484646578344551
140 0.5761407020000106 0.06111339948072003
141 0.8640107402375277 0.7121845397846734
142 0.305014792368303 0.0046768515500728025
143 0.1944693751121761 0.06268145477250564
144 0.2312206307656175 0.31640322766774687
145 0.840878757561184 0.09140146636410162
146 0.9560670220146715 0.1092122777685971
147 0.70734820482497 0.3273860038581329
148 0.19687857187074986 0.4568064130346925
149 0.767583188933038 0.6469724188703896
150 0.9974396142526002 0.05536337756739329
151 0.8401064830845568 0.5832474543277003
152 0.7104065500609653 0.1845858478859126
153 0.20862053690595683 0.15284322104368386
154 0.07576640051631411 0.22977713653569098
155 0.6247994265289635 0.8286381989286273
156 0.49115145598143306 0.6964088612364365
157 0.5882063905052416 0.49971483933024763
158 0.3788448239097164 0.9027729817217833
159 0.7541176101148146 0.05331186066063742
160 0.07439053490913583 0.3644075325646243
161 0.07977466551140766 0.9992944192903708
162 0.46980774292363114 0.9273696282848882
163 0.638389231342047 0.03732517124384871
164 0.6834564638436753 0.958656391191848
165 0.5848960199414527 0.19747465040877132
166 0.19234262276103853 0.28205185351986184
167 0.8561989328712598 0.02015091670298297
168 0.17435999119627787 0.7116443130379626
169 0.14500811519890444 0.2248375937876027
170 0.1438641070188963 0.3496091794392089
171 0.2005669829493194 0.5638519011145341
172 0.7131027969367587 0.7830477402186211
173 0.5621607258737554 0.33234916424664895
174 0.6381078537266013 0.03322250910760027
175 0.3946314421065342 0.5184206986255708
176 0.7775361204537685 0.625481549831996
177 0.6421060630966815 0.2910712035361772
178 0.8067804278137432 0.7123335035404305
179 0.8661052242592724 0.625322559921399
180 0.25239284455961064 0.714784647775846
181 0.6066308255950071 0.8121891850094036
182 0.40260186225616734 0.30198069249615467
183 0.2170722920385394 0.7202400663153435
184 0.8262945640300314 0.5407224304233935
185 0.7266482602095357 0.751361490109123
186 0.262553064621874 0.6755168650549646
187 0.7167090957964035 0.38440499467611544
188 0.15225826304895462 0.5146471740542958
189 0.8154856697470187 0.6445825529696964
190 0.6402881679045839 0.10034666743517151
191 0.9776726036309071 0.1413272736827591
192 0.3267002166714599 0.7423296990876246
193 0.9376047104397659 0.1728444398941099
194 0.04292712654851005 0.34082618685886457
195 0.48230136262945034 0.5971676679999672
196 0.9266188823231589 0.35832924839443103
197 0.7301352395704543 0.2819843907111299
198 0.3833000642187908 0.9129083401856377
199 0.5288552778193729 0.889045459800096
200 0.4155162238473433 0.8030498191758253
201 0.25150724283629056 0.2854063074974882
DEMAND_SECTION
1 0
2 6
3 1
4 3
5 5
6 7
7 6
8 1
9 6
10 1
11 2
12 2
13 4
14 1
15 4
16 3
17 8
18 6
19 5
20 6
21 4
22 7
23 5
24 2
25 3
26 2
27 6
28 7
29 2
30 9
31 8
32 7
33 5
34 5
35 7
36 1
37 2
38 3
39 8
40 8
41 6
42 4
43 2
44 3
45 9
46 4
47 8
48 1
49 1
50 5
51 5
52 8
53 7
54 2
55 1
56 5
57 5
58 2
59 9
60 2
61 7
62 3
63 3
64 5
65 8
66 4
67 3
68 1
69 4
70 4
71 6
72 3
73 3
74 7
75 7
76 4
77 2
78 5
79 2
80 6
81 2
82 4
83 6
84 3
85 4
86 6
87 2
88 6
89 2
90 1
91 1
92 7
93 1
94 6
95 7
96 4
97 4
98 1
99 7
100 1
101 7
102 5
103 1
104 9
105 3
106 1
107 5
108 4
109 5
110 1
111 2
112 8
113 6
114 4
115 8
116 8
117 7
118 2
119 9
120 4
121 3
122 3
123 5
124 7
125 4
126 6
127 2
128 3
129 4
130 7
131 6
132 4
133 5
134 6
135 9
136 5
137 3
138 1
139 2
140 5
141 5
142 3
143 6
144 8
145 7
146 9
147 4
148 3
149 7
150 8
151 1
152 3
153 1
154 4
155 6
156 8
157 2
158 1
159 4
160 2
161 8
162 7
163 9
164 4
165 1
166 8
167 8
168 8
169 3
170 8
171 1
172 4
173 1
174 4
175 1
176 9
177 9
178 8
179 9
180 9
181 4
182 4
183 9
184 9
185 4
186 4
187 4
188 7
189 9
190 5
191 3
192 7
193 5
194 9
195 3
196 2
197 1
198 2
199 5
200 4
201 3
DEPOT_SECTION
1
-1
EOF
