NAME : gen200_002
COMMENT : uniform customers, demands 1..9, generated by bench/make_tuning_set.py
TYPE : CVRP
DIMENSION : 201
EDGE_WEIGHT_TYPE : EUC_2D
CAPACITY : 70
NODE_COORD_SECTION
1 0.5070360361433819 0.5031858179963328
2 0.30850505298237374 0.035982110717867055
3 0.3173959188450167 0.8768940281265363
4 0.6870532662488046 0.9934248134523076
5 0.822682850048146 0.7747399101474148
6 0.4591195601397703 0.8224389282085078
7 0.22296187785979316 0.08628419134427623
8 0.37554901265908014 0.14924993053897118
9 0.8708187464716434 0.5288517100348352
10 0.1734057453639638 0.16822359706366452
11 0.7298784970723526 0.46017071092073236
12 0.9154954757839663 0.7154968199502194
13 0.12559210634658347 0.03931400961708975
14 0.771859240501621 0.6502876897493459
15 0.3461148727488369 0.39732626503598845
16 0.974001630477193 0.3654680371840119
17 0.3576561118903794 0.540271950714784
18 0.027428438362485985 0.769837689822016
19 0.5062488032909199 0.38453200371265595
20 0.6603471243666039 0.1567503363988202
21 0.6237015240919634 0.675239804378499
22 0.13742233330851994 0.6831220298894948
23 0.5441724631516108 0.518125041089183
24 0.9148053745215003 0.4251800336609157
25 0.5128641951256226 0.8892410657531323
26 0.1511254960275331 0.14375511804384355
27 0.8924478459299882 0.3856713673767208
28 0.898573464437885 0.2225651519405305
29 0.6374428100419837 0.1825295380608094
30 0.010926099155404878 0.46689677925049755
31 0.29615662340714455 0.9766702087189219
32 0.3909563721542948 0.1048047672021939
33 0.4883908169794583 0.39602080702470055
34 0.17980474204126773 0.23569363679219746
35 0.6210329450434935 0.8708965685622296
36 0.7092106351251171 0.007740151991049604
37 0.21576148647858862 0.2984866700806048
38 0.89423102640603 0.12580938367452166
39 0.717257509228746 0.6833807632913383
40 0.5693277655564322 0.10197191319636756
41 0.35636893008764314 0.4229690315264991
42 0.08633312521192271 0.51726944712733
43 0.9683374449593775 0.4418871911254709
44 0.2637745867422213 0.49502344362421424
45 0.8644064066726225 0.8971065352302584
46 0.5863630946719893 0.3773487139309727
47 0.9967920660124671 0.9441199767233113
48 0.0635406665596101 0.4565151571869098
49 0.11222342532807872 0.094966478742885
50 0.5737336653052013 0.7494362829198921
51 0.6353501583151869 0.62301608218508
52 0.4369833192067536 0.8900253121605735
53 0.6635740982018522 0.7334632655515156
54 0.34834372966035254 0.5470100413417482
55 0.29271503201488247 0.09762030169630909
56 0.6537074457127541 0.8838693829837653
57 0.23135789504289395 0.4852104222682758
58 0.2976051195609345 0.23072909368032657
59 0.7236708333580132 0.615332106024698
60 0.7811774391025509 0.17826678065582935
61 0.8384881247983279 0.8137487938401357
62 0.5680363235485384 0.16473176976816162
63 0.7009126779624567 0.2230855413101811
64 0.11668610031330229 0.31097768347653354
65 0.09156901505989057 0.8180865348195463
66 0.4006627560014099 0.49786455966688403
67 0.3157132498303199 0.5111181115617469
68 0.4909452391623983 0.8029738722778818
69 0.2187869753859445 0.713216766911581
70 0.28492382663481863 0.3761058602245645
71 0.9604914102182506 0.05893060713977183
72 0.6630460655122095 0.03762307122527464
73 0.7809975753640633 0.1361154747550285
74 0.09513960888508355 0.02307959628469869
75 0.946828162091765 0.28520266269235517
76 0.9424868205423601 0.8183614472576688
77 0.15709161981656405 0.5940811729012684
78 0.7719091745940337 0.9780957356258304
79 0.8488401307405151 0.7989549331726685
80 0.46329961494412897 0.17294739607204856
81 0.44797368558566875 0.8274385330084462
82 0.3611480909217559 0.5838075173869567
83 0.5101398084189712 0.3232493009542391
84 0.1007200797712623 0.07070992695846379
85 0.16995619306162946 0.8336797992278877
86 0.13279606942132338 0.7507775941058321
87 0.65209283713656 0.5791906081036736
88 0.03102514385843813 0.4977125858533319
89 0.4690659435757065 0.37267758931837836
90 0.39555035220084334 0.28675876745277984
91 0.711116815010412 0.7845339476914036
92 0.2239094734477235 0.0893924612341368
93 0.8201644308813014 0.3555864821031862
94 0.36954120709318783 0.684915465062708
95 0.21537557889760217 0.4295327928661059
96 0.04490106985058662 0.5866424840537229
97 0.8808946720675748 0.615147338463175
98 0.09208468425580629 0.3504574904348038
99 0.9328987961934054 0.30573685636933756
100 0.696219134126728 0.5159296020473735
101 0.6356930138771695 0.9628995494508913
102 0.21869506143404704 0.3407955805626022
103 0.3577792547894646 0.6474781028231298
104 0.7186543225276586 0.712526651891636
105 0.49983096568455065 0.018078065101603924
106 0.02565321998727743 0.4965817226958269
107 0.06295157822047392 0.5680035040887744
108 0.14529890829480818 0.6230230996016192
109 0.3760004930116838 0.32992915515813015
110 0.6781935348572987 0.5402323430389244
111 0.7830005007473416 0.8684770120391689
112 0.8884536360703322 0.3142905817238395
113 0.3082128944282452 0.4229344467912163
114 0.7420072808814733 0.5333098849512817
115 0.7810525067995304 0.47441376642339883
116 0.9865254803187031 0.33444087004775125
117 0.6670476819029071 0.1464977509341303
118 0.9129848138646739 0.8256897685007812
119 0.34796798036144383 0.4427109266711752
120 0.5606215404270984 0.43194527753328604
121 0.8785517006057698 0.7545316993556344
122 0.9643589116177365 0.005181282215376171
123 0.3293635673505808 0.7613524747768381
124 0.22676225651987658 0.3650273857903732
125 0.102477145918496 0.7879417157694307
126 0.9872743291897205 0.08382809387495893
127 0.8286551960745967 0.6687504953055705
128 0.24988856561091666 0.8801460432709757
129 0.6845178074117624 0.18605986154837184
130 0.7103800263085666 0.4858685272521688
131 0.9039532027097187 0.6911793759188898
132 0.08677659431329776 0.9935552848995186
133 0.7431791156573173 0.6467052815739489
134 0.016084564386674494 0.43319810597104513
135 0.35253470100968454 0.3565697521880057
136 0.2894753419003907 0.18805673659035516
137 0.044370110411458996 0.31765913636682297
138 0.1788588102090941 0.5690112956764126
139 0.6755673342838482 0.8405029121089127
140 0.045241099633910875 0.4487204199122209
141 0.40048041381927935 0.8036001081098706
142 0.08747138828385814 0.17393109421172037
143 0.18816285687472423 0.4368787189111044
144 0.29953101564711315 0.9170147824506412
145 0.43492466045283484 0.6731682928325678
146 0.7333707692406611 0.790431165145352
147 0.3610214889714395 0.023939111273543423
148 0.5099947839288933 0.46878361305399363
149 0.30668351692562723 0.6551343753762476
150 0.9812327147132672 0.22520307291054786
151 0.7639434935576066 0.20130393222007115
152 0.5491407598530104 0.5543851546690843
153 0.21099987800040798 0.33526342704402257
154 0.27991761168589013 0.38030853141249754
155 0.8689570604288644 0.6216024566559732
156 0.11100083769122271 0.13787576191543427
157 0.5792887720594609 0.07054320752164467
158 0.30887826136867735 0.05331592506619798
159 0.8852725563710949 0.8513174388680415
160 0.44116913000914015 0.49731185633528285
161 0.8293771602421495 0.5219295875083015
162 0.8562622111984078 0.20613276479846987
163 0.25132030192498955 0.1882958073105243
164 0.4743815115203708 0.7379204454905319
165 0.5579114661520934 0.9953789401691518
166 0.9177116863650926 0.5464541581659986
167 0.40644185551916345 0.46859643498313774
168 0.3312657070703542 0.9568570664939889
169 0.5420922215463618 0.7655630877171931
170 0.8065578454439785 0.33078272734695546
171 0.4243589191935645 0.6263479040073249
172 0.17033682440285702 0.6675097390458411
173 0.1669331507050531 0.14990850163046776
174 0.00021506736755971811 0.95979542951302
175 0.6053465911710977 0.13121423982534997
176 0.8776166037061938 0.3988269996360464
177 0.7913385886658099 0.5061639579704048
178 0.035960334791359516 0.9889538552942913
179 0.37878692105680767 0.728167913316995
180 0.8674387920906119 0.21810303349516547
181 0.3366900373637307 0.808068592262673
182 0.22934019442650055 0.06296796760123169
183 0.8527364404647111 0.8357417536132891
184 0.09872909052517231 0.16601467308058826
185 0.5558636729500704 0.4409022442679963
186 0.11952541482021539 0.6270295242967752
187 0.16852511550356675 0.586229757793591
188 0.09154618802812897 0.8893194083257667
189 0.10280861926116325 0.7113878871162378
190 0.13783581755125995 0.2950448542235562
191 0.7020132785715127 0.6176261379503736
192 0.49504021281484245 0.08935256648980627
193 0.3845121365615577 0.7847235341512979
194 0.436657443875031 0.6087234164343229
195 0.060857400204060386 0.2298972548363324
196 0.20147146004632743 0.7078386922238692
197 0.7422925942958858 0.14223655702583193
198 0.4142972581640355 0.6125148735937419
199 0.31420746810200006 0.6642020361814622
200 0.9483202584260053 0.027489153356077378
201 0.3086043737237335 0.024062921087467548
DEMAND_SECTION
1 0
2 4
3 6
4 3
5 7
6 4
7 7
8 1
9 3
10 4
11 9
12 9
13 2
14 7
15 1
16 5
17 1
18 4
19 7
20 5
21 4
22 5
23 7
24 6
25 5
26 9
27 6
28 9
29 9
30 9
31 4
32 5
33 4
34 9
35 7
36 1
37 6
38 6
39 2
40 2
41 6
42 3
43 1
44 3
45 2
46 4
47 1
48 1
49 1
50 6
51 3
52 9
53 5
54 7
55 5
56 6
57 1
58 7
59 4
60 5
61 2
62 3
63 9
64 8
65 8
66 2
67 2
68 5
69 3
70 2
71 2
72 4
73 7
74 7
75 6
76 3
77 2
78 4
79 8
80 7
81 7
82 8
83 1
84 9
85 3
86 5
87 6
88 9
89 4
90 1
91 6
92 3
93 2
94 1
95 3
96 3
97 7
98 2
99 8
100 3
101 7
102 9
103 8
104 2
105 3
106 6
107 2
108 6
109 6
110 8
111 2
112 2
113 7
114 9
115 6
116 6
117 5
118 5
119 7
120 8
121 7
122 6
123 3
124 1
125 5
126 3
127 5
128 7
129 7
130 1
131 8
132 6
133 9
134 8
135 8
136 6
137 7
138 7
139 2
140 5
141 4
142 7
143 7
144 3
145 6
146 3
147 3
148 6
149 3
150 5
151 9
152 8
153 9
154 4
155 9
156 1
157 7
158 7
159 3
160 5
161 1
162 8
163 1
164 2
165 3
166 5
167 9
168 8
169 9
170 4
171 7
172 1
173 4
174 7
175 7
176 3
177 6
178 4
179 3
180 4
181 4
182 8
183 4
184 1
185 4
186 1
187 7
188 6
189 5
190 1
191 9
192 8
193 4
194 2
195 1
196 6
197 4
198 5
199 8
200 4
201 9
DEPOT_SECTION
1
-1
EOF
