NAME : gen200_004
COMMENT : uniform customers, demands 1..9, generated by bench/make_tuning_set.py
TYPE : CVRP
DIMENSION : 201
EDGE_WEIGHT_TYPE : EUC_2D
CAPACITY : 70
NODE_COORD_SECTION
1 0.3727825068138465 0.2597246635335819
2 0.887736870798409 0.156601126316531
3 0.7571498049134824 0.8242373850627063
4 0.1500034398200093 0.29386189198455903
5 0.10298303453326252 0.4799785920473546
6 0.28599080707770386 0.631678942291893
7 0.6389736428120296 0.6257283284590202
8 0.09235096170007018 0.18239514543948754
9 0.22870129352873114 0.10896903183180706
10 0.25890996258792975 0.7873818650259078
11 0.978126876713267 0.12631197155609808
12 0.6220854957381244 0.48980233881191626
13 0.1930853843471103 0.3842800942776152
14 0.48564840151135535 0.6019865512925889
15 0.347849663321834 0.005232516902023088
16 0.7571908728657973 0.18399400827731816
17 0.07029407824741452 0.6847983363221353
18 0.6241328318824748 0.2340789748782215
19 0.05723376493159593 0.5724170562336057
20 0.5661704565280995 0.5162698072495396
21 0.025955764402445958 0.5947476264005916
22 0.604452309385267 0.39924027920077443
23 0.2793761389513686 0.059735107125853726
24 0.910290079299204 0.20538090604464165
25 0.6342613951197691 0.3517571307456179
26 0.23037875071588554 0.43274410414980236
27 0.5546847925512863 0.8555115472422605
28 0.8758789561594236 0.04206365018045766
29 0.1312777643063202 0.961680908751907
30 0.20955457245228382 0.07282099214654403
31 0.6982191403350022 0.900002848392688
32 0.31810225072226817 0.4092268816564867
33 0.3034705509327008 0.9853109154316313
34 0.007671679970133516 0.8447605673911027
35 0.5676778575522103 0.372300777251495
36 0.5394841351555782 0.8246449079878317
37 0.5965357648469378 0.4454978902600505
38 0.3078815047041935 0.3679865608639237
39 0.9110806014364984 0.5691885988926929
40 0.7428509679117637 0.28768154089138986
41 0.5156669164948137 0.8577188738331618
42 0.7342681117517044 0.5135819742734038
43 0.660071544053931 0.7788019705259134
44 0.7605542028182414 0.917638061192322
45 0.9997156049522166 0.6805147700802374
46 0.2834956778169594 0.1521073368041892
47 0.8447794322229252 0.21356364602585065
48 0.7313587880924625 0.5761194967590901
49 0.12030410284722348 0.09867880232938098
50 0.5010797114468509 0.0557934042416538
51 0.14012504555235095 0.1473561811501819
52 0.6311480467646426 0.08313144514080462
53 0.4800456770693452 0.6293529978895619
54 0.44131760133951914 0.5923776394355691
55 0.9782514048033321 0.10356143297039289
56 0.5335149274142004 0.46907895448758974
57 0.670174160561036 0.5513298694825581
58 0.9800911127056257 0.6497949595548747
59 0.03589888983847567 0.9608703142163525
60 0.830858846389023 0.11557838604283976
61 0.9130296414036454 0.6128272980631708
62 0.20032291559150273 0.9873661563697722
63 0.6536255080269817 0.918298669846344
64 0.13138305626237456 0.8338602407252661
65 0.8969953791859284 0.8258026419560841
66 0.4261416702145042 0.6104230108369927
67 0.7433466420028411 0.6778091548618833
68 0.9425108922688068 0.15025586404442193
69 0.7792141179264491 0.28872073138231513
70 0.06384818402443804 0.42136204192460824
71 0.5461053247880312 0.45035419989259906
72 0.955740470972173 0.4975608247190102
73 0.4293169950460408 0.9923451316565486
74 0.9379533859533722 0.828357861767292
75 0.9405463209278015 0.8738413303993549
76 0.2891979181998473 0.9460774083289987
77 0.5160281924553205 0.514765397401554
78 0.12434177107071287 0.5682757301930946
79 0.3562682776197681 0.46687609827203536
80 0.2610948163766118 0.7002109026834442
81 0.3020163630280711 0.4407622966728406
82 0.9300766223493105 0.39102411283884597
83 0.18895226407433552 0.4428141133606265
84 0.9911608873890128 0.3318616913129995
85 0.8673381795892294 0.18618400574966
86 0.3484231522158112 0.6984175677948175
87 0.9450694188854367 0.37944815047778635
88 0.3832219358315959 0.25190183156653567
89 0.2243390959682383 0.23168564431321725
90 0.7835279689099454 0.9134728797013425
91 0.6954709798496669 0.8752350820346686
92 0.08748343570709427 0.9813366215627304
93 0.8473349970666081 0.9917454936586219
94 0.014384801914294698 0.9472212839544044
95 0.016571093809851445 0.8292775812670935
96 0.26904103057504136 0.9047552013051721
97 0.6147574247030655 0.5859325601317609
98 0.8712047504750656 0.5882547976458776
99 0.09027233775987598 0.35400965080060876
100 0.6738216673066589 0.09424122754645325
101 0.6034680514054939 0.12791119661565364
102 0.9942388638657698 0.4034859147186015
103 0.0830405121993294 0.2745575346847199
104 0.36542197033660595 0.7830255574073477
105 0.9733596060606947 0.17089547418601936
106 0.35716853641148094 0.9821558353199218
107 0.4054549781169198 0.17280887915365384
108 0.6077601446420081 0.2037528963857288
109 0.6391756266531985 0.4492541903426621
110 0.8305938397222625 0.1549814467330296
111 0.456178700183306 0.5379126908301473
112 0.8923604719060912 0.9041991592857678
113 0.5005747989247757 0.7048898125209254
114 0.8423279470247752 0.5684393319653108
115 0.9038667656073301 0.9429646655946284
116 0.8662918429521016 0.6134532192169873
117 0.6217992513739997 0.5983467154761662
118 0.8647718684753027 0.1817460568081305
119 0.8729415719530714 0.4262736884629956
120 0.6049828338781195 0.3862491919877873
121 0.6391494409669994 0.7571210489138315
122 0.295788383574229 0.8974273637606209
123 0.6000072965702474 0.7242260287249501
124 0.5969436131230512 0.8880243026252834
125 0.7079306631621157 0.24126338538448566
126 0.07316997409272308 0.9884816339716695
127 0.24937289364993587 0.965402394993857
128 0.43789090749876347 0.37079821600940344
129 0.4696317727364999 0.327279462657459
130 0.8649252506996311 0.34172211395479535
131 0.672339065602931 0.5212785615158436
132 0.3868606942441679 0.8724838949802296
133 0.5329382311883287 0.019480936040817798
134 0.6342724638067908 0.44492502868584527
135 0.20038148804152767 0.13103960895570843
136 0.2345582790076285 0.46158695694489693
137 0.6730268236468498 0.8573234228364524
138 0.670939929845141 0.8135720224954482
139 0.5461958299935217 0.12754158673325133
140 0.8037677895577136 0.7586897900131624
141 0.395685872068289 0.8473990254928636
142 0.09917393324378743 0.2953466409403813
143 0.3418412762774262 0.48933500153299436
144 0.9289618256680455 0.941169011574922
145 0.1996620061313764 0.7289971336661161
146 0.31139432117537036 0.8784350522681761
147 0.15570337088325714 0.5566444023219326
148 0.5614192677141329 0.5456336167047747
149 0.836210681170029 0.9827283373646464
150 0.9582460462552221 0.18382495890923045
151 0.8966500383838383 0.2922987593041799
152 0.8572417962215806 0.6513433709906534
153 0.6409777590185335 0.1742749211772583
154 0.3781570155523195 0.7650116535770095
155 0.6712810105444093 0.2002815924036767
156 0.1474948295353562 0.6593533426881858
157 0.8873240042746573 0.7846322338484062
158 0.8471047055937593 0.19877264701454544
159 0.5201299821402089 0.07839655620944574
160 0.21988089717860337 0.965675378369003
161 0.5865409905669898 0.8658899046933949
162 0.42818724874929015 0.9282425000613476
163 0.7931522208783888 0.5659052494015473
164 0.1657824613366179 0.5710388459579817
165 0.7849566118967881 0.4981830294485524
166 0.3488301950703888 0.9789775228069061
167 0.9428588913351096 0.8114872585937299
168 0.8837030400578934 0.2933447876951638
169 0.5520958925257059 0.693444092149645
170 0.48271428258593374 0.9245820592329458
171 0.8384439254815674 0.38928676089966685
172 0.7167766076393483 0.4081908011005623
173 0.09282063530698326 0.1313015996761291
174 0.8340716244015104 0.3842791492205322
175 0.15148149821349854 0.5485164268848435
176 0.5835843390537735 0.27188098492286983
177 0.46607451896215946 0.35713110400481907
178 0.15446770217624728 0.6102686406933144
179 0.3516555024948377 0.05091729864392225
180 0.812417566496828 0.9932675360403236
181 0.06338791533291821 0.9686824422972583
182 0.07304696943128919 0.9123573950774042
183 0.010217563445735878 0.1045018514348337
184 0.05544670654203121 0.061547619310078905
185 0.6070474325641221 0.9901820029827568
186 0.9202782364381266 0.4889248019567969
187 0.31976806705701855 0.1489163220964448
188 0.5836077930647805 0.9330001995859502
189 0.4554970782250569 0.8788551830383412
190 0.3580195059679331 0.9323462791567313
191 0.2883207957955577 0.16132586443269303
192 0.7235781836228973 0.26614044457065755
193 0.8788243626593489 0.8836667987062521
194 0.39487054274767286 0.9060056042776292
195 0.3784015809470562 0.5965455697280886
196 0.9028229755994924 0.5689543204178
197 0.20432748755763774 0.3048972058443433
198 0.8158499258213272 0.822691016534053
199 0.02243103246096434 0.4410297051955402
200 0.30296607879056836 0.5108419917025688
201 0.3877612378999835 0.4557573116782905
DEMAND_SECTION
1 0
2 9
3 5
4 4
5 6
6 8
7 6
8 4
9 8
10 2
11 3
12 5
13 3
14 1
15 7
16 9
17 1
18 4
19 6
20 9
21 2
22 5
23 5
24 6
25 1
26 8
27 9
28 8
29 6
30 8
31 6
32 2
33 7
34 4
35 8
36 7
37 8
38 1
39 1
40 4
41 1
42 2
43 3
44 2
45 5
46 9
47 5
48 4
49 2
50 5
51 8
52 6
53 2
54 9
55 9
56 1
57 9
58 2
59 1
60 4
61 1
62 5
63 3
64 1
65 2
66 8
67 4
68 2
69 5
70 4
71 4
72 3
73 8
74 8
75 9
76 6
77 9
78 8
79 4
80 1
81 9
82 6
83 7
84 4
85 6
86 8
87 1
88 3
89 1
90 1
91 9
92 4
93 4
94 2
95 8
96 1
97 7
98 7
99 3
100 9
101 4
102 6
103 7
104 1
105 3
106 2
107 7
108 1
109 4
110 6
111 8
112 3
113 3
114 8
115 9
116 8
117 2
118 2
119 4
120 1
121 5
122 3
123 3
124 1
125 4
126 7
127 2
128 9
129 8
130 5
131 5
132 6
133 9
134 6
135 6
136 8
137 9
138 9
139 9
140 5
141 4
142 8
143 8
144 2
145 4
146 6
147 1
148 8
149 8
150 6
151 4
152 7
153 5
154 6
155 1
156 3
157 7
158 9
159 8
160 6
161 8
162 5
163 8
164 3
165 1
166 4
167 3
168 7
169 8
170 7
171 5
172 9
173 1
174 3
175 9
176 6
177 1
178 7
179 8
180 5
181 3
182 2
183 2
184 2
185 3
186 2
187 6
188 7
189 7
190 2
191 6
192 4
193 4
194 2
195 2
196 3
197 3
198 9
199 4
200 1
201 4
DEPOT_SECTION
1
-1
EOF
