NAME : gen200_009
COMMENT : uniform customers, demands 1..9, generated by bench/make_tuning_set.py
TYPE : CVRP
DIMENSION : 201
EDGE_WEIGHT_TYPE : EUC_2D
CAPACITY : 70
NODE_COORD_SECTION
1 0.0204307521018543 0.9934238343179582
2 0.8721295146721152 0.953448608218401
3 0.09778990667952514 0.11412021442487386
4 0.3453678512038918 0.7915462033385052
5 0.5787319142325776 0.35692391693623504
6 0.3864755960522963 0.2842176420652913
7 0.2883740088507729 0.5740674177738275
8 0.6276070926378458 0.19223985071444805
9 0.848409356585259 0.881043884864147
10 0.20512917788670615 0.7298448250472663
11 0.36405116823918904 0.5650395597494292
12 0.27785130109378053 0.43903243627525856
13 0.21113989628937158 0.38920485471385236
14 0.9471438937617235 0.30102523710748774
15 0.8739608275342948 0.9458161333191077
16 0.33614749980411884 0.5211598501580661
17 0.4895570653323498 0.6585341356539243
18 0.6492319143015957 0.019247972610585085
19 0.6682038954544282 0.16390615904249606
20 0.4912724624110799 0.5129941977527069
21 0.7048140068956235 0.8628437681104822
22 0.2626398462093379 0.5643100801196296
23 0.42215270739136057 0.21352459597485762
24 0.17359329397419898 0.23341467154469908
25 0.42636392784819566 0.005713789230475497
26 0.030058686013900382 0.872914596772194
27 0.692616646007511 0.2831806768048105
28 0.4225393852299356 0.6328248201761828
29 0.7676197768008728 0.08564262982308013
30 0.9451431048422505 0.5320018258974977
31 0.9158294148582086 0.6658333151310871
32 0.7631251952162913 0.5772055383653656
33 0.09437188722867862 0.7903044241792144
34 0.6905372826124411 0.1626808481500286
35 0.4698622543738413 0.4234429135251012
36 0.9220155006778306 0.03200108090681242
37 0.7561509996439253 0.06538548837928415
38 0.9397352462903563 0.7701281749253392
39 0.09328461085156603 0.6744638209254009
40 0.5806892405993618 0.9946536791846871
41 0.9979156963927542 0.7960735232307127
42 0.2746280674643088 0.9554180471090657
43 0.45260004036772516 0.6606091251652585
44 0.2551253232918034 0.9029436979660761
45 0.4827357933662815 0.45695254011133346
46 0.2090090230939211 0.6468024692111168
47 0.28675779414836877 0.5321313673971428
48 0.7160724144722004 0.6749624719542981
49 0.11366019442492592 0.7447737403703013
50 0.5702615914782462 0.5215429819966018
51 0.40959647077676875 0.7975641142995715
52 0.08160473364088916 0.6358502819237413
53 0.24373571257610382 0.29687572229535875
54 0.37802206278800154 0.0970443092518749
55 0.12933483458560768 0.9200985811163346
56 0.6564278024992333 0.43923939974294246
57 0.12379933972109902 0.43955384524524055
58 0.6190834111376375 0.8114835255712428
59 0.14242096946339056 0.1706883512635473
60 0.7193278134817469 0.5239226817146322
61 0.8171455562468075 0.16140937058793392
62 0.31051066672274696 0.14212066993840888
63 0.5662959975402502 0.09946468759642468
64 0.3642877975828631 0.2151340848149067
65 0.8095174438573368 0.24606641642010985
66 0.009383646914470911 0.021075142471451702
67 0.56033748189214 0.1251089555508953
68 0.8550357506403321 0.7121837269914605
69 0.006039747770626547 0.7994007825489359
70 0.20307607158650576 0.049377079233947074
71 0.21742616184686236 0.15134343100686454
72 0.05080227405847115 0.6245595318191711
73 0.7170150895571106 0.21900620468907173
74 0.5356611887872713 0.7734523510487595
75 0.15830801567369168 0.09062368526213871
76 0.7345506518880008 0.5381087338840169
77 0.19985606983017534 0.04436602838187276
78 0.21203169721258497 0.8166748490794891
79 0.5209780573087913 0.678917112667473
80 0.5566300271934385 0.6176488329884904
81 0.1756510342561235 0.6291411228552795
82 0.5173906489781018 0.25683520319738073
83 0.7375854128269359 0.06637262495714213
84 0.6056508124330088 0.5136552868956088
85 0.22762016504833693 0.7133836157374087
86 0.08154408300982885 0.11524198549466724
87 0.2447019816008248 0.9744467857712761
88 0.2170926262185262 0.31655934199597524
89 0.1804741423211037 0.41889963020647936
90 0.8357507311132981 0.1799155674035564
91 0.22757734988713996 0.907011526206293
92 0.0038424978211791805 0.006881860917148264
93 0.03515824420607727 0.4214334931542857
94 0.5024801552560184 0.934677529135765
95 0.4969507310191108 0.28472581766863747
96 0.3643816005286915 0.7735256795827294
97 0.5789510460574369 0.5181905667053616
98 0.10330689090829315 0.4331188808583223
99 0.14241934115454968 0.44860353399500885
100 0.035984537982248765 0.8689833802803162
101 0.18437978546451284 0.8587711881740544
102 0.8255452737722561 0.33174895501881085
103 0.964366009015903 0.8567734063102794
104 0.14855030550349735 0.5047179296926402
105 0.5056051028026483 0.9411176982895779
106 0.5461260017799269 0.0866804635083197
107 0.7099157510473537 0.05948950693394772
108 0.97370945915019 0.39944098731669087
109 0.2917570425765853 0.9380161753538256
110 0.09245521276292401 0.7277341405587288
111 0.7161767676750909 0.3386449016490939
112 0.09829961798982545 0.29992843444677564
113 0.34792577729343577 0.2490674344122371
114 0.6877248624345021 0.23482580748090642
115 0.27472456676702095 0.7585389781257988
116 0.7434673017150585 0.09105467383533672
117 0.7294122324240592 0.7257139449973192
118 0.6850338309512932 0.4523783444517252
119 0.4192600719231301 0.29198756850435426
120 0.4932590957979037 0.6484292654013194
121 0.03809241954817688 0.8864984029480022
122 0.3303276851460156 0.8572290097235972
123 0.22842699774642128 0.12923408796039593
124 0.5834356424977405 0.8205758949894665
125 0.30267639388650935 0.48126913513076375
126 0.07774514664105392 0.5346250503353787
127 0.45012115234800854 0.7095836676273014
128 0.0962062803515189 0.08156721110383491
129 0.3387031834833871 0.9549521471598491
130 0.25164312421411017 0.4937402849433187
131 0.4589589792207932 0.47404213377521165
132 0.2619785261294315 0.10077030009915722
133 0.9774282791873484 0.7974489419709929
134 0.27436958324730054 0.03103118868747834
135 0.10021885816805653 0.6873153151721639
136 0.11699747495084323 0.6348424626413619
137 0.08022858402577004 0.03204594637931524
138 0.3219366079210574 0.8526093146402267
139 0.4424621233459789 0.24809836139465302
140 0.6953461521566668 0.31479304224992155
141 0.006516496874358957 0.3272598018406718
142 0.8513582594499051 0.9898099556708747
143 0.26463632922824776 0.1317779815560638
144 0.6657027247013854 0.6798442019385454
145 0.039081990293179714 0.7261841992858445
146 0.5675539284585662 0.632770547447587
147 0.3256398450004706 0.152091645740697
148 0.31904597490210207 0.09874599474204937
149 0.3183279386517477 0.5580665291666786
150 0.04975553876387673 0.414545098519305
151 0.7669112645162778 0.7237337744177671
152 0.29877378940262267 0.6814382502426402
153 0.9695257521425483 0.658438186400672
154 0.08397387639363008 0.08281010174959236
155 0.04478905991657012 0.2644633744351186
156 0.03497063196703709 0.1825091533051123
157 0.21608268146872533 0.027171720230214857
158 0.9546488243055682 0.08645709045506744
159 0.1520334395387123 0.3902865980544624
160 0.030595070706236793 0.30550299150602067
161 0.11420510945471596 0.9002029986941446
162 0.9476880919308267 0.041430894594427836
163 0.2411658861012036 0.36542239375576224
164 0.9820613498072457 0.9762762471793044
165 0.8905384434901916 0.1508416876856068
166 0.3170397993816745 0.5602942033948314
167 0.8564308493082464 0.12919840369250712
168 0.6094934301830113 0.6661424184456466
169 0.5784648055718603 0.7345844052006933
170 0.003418694007016887 0.827631108177754
171 0.8963173062093446 0.11375792705730459
172 0.5956099983828941 0.06254045590078006
173 0.4576065127792269 0.3913465689232304
174 0.2874518480161524 0.5269697520705473
175 0.5912216683884273 0.6300612101098272
176 0.10462806755724707 0.3770681838190605
177 0.247901192320648 0.5474704991401604
178 0.3362379761247263 0.7503987382575226
179 0.7242287791844815 0.9922653580548033
180 0.27364455658668285 0.9279226617226126
181 0.5940576332183992 0.8881169111449176
182 0.3777776565594543 0.20083269843395346
183 0.9299386869036704 0.768047917930591
184 0.5962635590358426 0.5207243810217786
185 0.2051386794269785 0.34325739408621025
186 0.800289190032373 0.3695188056647124
187 0.6045621093387897 0.14548842129188433
188 0.5652095585016796 0.5535618709908249
189 0.7485394123944338 0.7559483574570438
190 0.9479692650442649 0.10398836575962589
191 0.6326452871493764 0.47661160849629536
192 0.6992485952884523 0.6102686887718313
193 0.37453315932012887 0.8003798456350456
194 0.6191892741615688 0.3432312352078192
195 0.9970205273141454 0.5399241379186427
196 0.870039478410845 0.1042127131219005
197 0.9191972222491532 0.7263053540326039
198 0.2080094041660534 0.08322813493950021
199 0.2559682052477975 0.3237063425581269
200 0.84502135712065 0.6811799779546126
201 0.16599482228053686 0.2721475107337794
DEMAND_SECTION
1 0
2 7
3 6
4 5
5 6
6 3
7 5
8 6
9 1
10 7
11 1
12 8
13 3
14 3
15 4
16 4
17 2
18 4
19 5
20 7
21 7
22 4
23 6
24 9
25 6
26 2
27 7
28 5
29 6
30 8
31 4
32 8
33 4
34 2
35 2
36 8
37 9
38 2
39 5
40 9
41 6
42 3
43 1
44 7
45 8
46 5
47 6
48 3
49 7
50 6
51 3
52 6
53 6
54 1
55 4
56 9
57 6
58 3
59 6
60 4
61 1
62 2
63 7
64 2
65 6
66 9
67 6
68 2
69 5
70 1
71 9
72 1
73 3
74 7
75 8
76 1
77 7
78 2
79 1
80 5
81 2
82 8
83 3
84 7
85 4
86 6
87 7
88 8
89 5
90 7
91 4
92 6
93 2
94 1
95 8
96 5
97 9
98 8
99 4
100 8
101 5
102 7
103 8
104 9
105 7
106 1
107 3
108 1
109 6
110 6
111 3
112 7
113 5
114 2
115 6
116 7
117 4
118 8
119 8
120 8
121 4
122 3
123 2
124 2
125 6
126 2
127 8
128 7
129 5
130 1
131 5
132 4
133 5
134 6
135 7
136 8
137 5
138 2
139 7
140 1
141 9
142 4
143 7
144 7
145 5
146 9
147 7
148 8
149 2
150 5
151 6
152 2
153 1
154 6
155 4
156 7
157 6
158 9
159 5
160 3
161 6
162 8
163 6
164 9
165 5
166 9
167 3
168 2
169 5
170 1
171 4
172 3
173 4
174 1
175 6
176 6
177 9
178 9
179 5
180 3
181 9
182 3
183 6
184 8
185 3
186 1
187 4
188 6
189 9
190 4
191 2
192 8
193 2
194 2
195 3
196 3
197 9
198 7
199 4
200 1
201 2
DEPOT_SECTION
1
-1
EOF
