NAME : gen200_001
COMMENT : uniform customers, demands 1..9, generated by bench/make_tuning_set.py
TYPE : CVRP
DIMENSION : 201
EDGE_WEIGHT_TYPE : EUC_2D
CAPACITY : 70
NODE_COORD_SECTION
1 0.2752731941877429 0.8820767103874735
2 0.5889655994063536 0.6089434125100732
3 0.0827972069852776 0.4986010345658385
4 0.23087803263383777 0.43067779560419917
5 0.2946945273564213 0.45597098244518397
6 0.8097906195683091 0.6368000179879124
7 0.5735921449220499 0.05620723359597557
8 0.6371404855832133 0.5418050912128127
9 0.5334557831226707 0.6685065654656036
10 0.9685134631128348 0.5285742800950296
11 0.5968935910555366 0.6627237786570931
12 0.37695271579994494 0.7363597436065427
13 0.8641247232522925 0.2545243721361101
14 0.8120261181074994 0.6217891085878477
15 0.07913823019853883 0.6500076183888351
16 0.7047931762218649 0.3149722571359883
17 0.19904213710547836 0.09363943714873701
18 0.19689569658663109 0.672225137297957
19 0.8064726383938944 0.3623422270059229
20 0.38957440484840555 0.9650096554057251
21 0.46441869736543895 0.8933021035947707
22 0.24071612883236249 0.4361521078525977
23 0.32322650328599545 0.9456258277888758
24 0.4852830600267285 0.47683225237438953
25 0.850498214924786 0.17179240568133802
26 0.12050541170368667 0.8225992168383149
27 0.3549130791124523 0.07068811331187808
28 0.6767815532136555 0.3828071718089364
29 0.2772565303214065 0.0540732799695296
30 0.9974116175868346 0.6817312545241536
31 0.09365845898226699 0.5726177720329477
32 0.29412256655386815 0.4503303514784237
33 0.5914505924343141 0.8773935159156768
34 0.6115715607933101 0.8598951978372685
35 0.2935117473288593 0.7261302172603344
36 0.09257469309516164 0.3729169842982425
37 0.14086793131701925 0.05076473020095951
38 0.9385561643334175 0.9685171055124265
39 0.06519216431767094 0.26050461722963947
40 0.41053378848422595 0.22142602919984145
41 0.3708925293601917 0.4350965738426378
42 0.5198155432096632 0.724923500642164
43 0.7452806175512116 0.880541591170161
44 0.7010869670166591 0.9860187811130303
45 0.0956846986841694 0.5458891834660774
46 0.2024666614517261 0.3536310162522205
47 0.08979578487142414 0.44380992905336336
48 0.10064487243759912 0.9510273711941231
49 0.9724634275874239 0.1310594335577383
50 0.4660861829419035 0.03121684081385412
51 0.9279614994346694 0.08207255805111435
52 0.6245746676654378 0.6824395336876531
53 0.44021832831349017 0.5135398152098968
54 0.8287795225346671 0.31701041401017405
55 0.5082025671359823 0.19037462232244262
56 0.6929794166772469 0.2538002194805582
57 0.09930901346610799 0.547116342739005
58 0.6085439535560017 0.5237426072835011
59 0.1230970168218185 0.2475834025262832
60 0.6777443098762393 0.41807472057230866
61 0.28326985344265276 0.5772266098993811
62 0.08038058783895752 0.13229754886050837
63 0.8965273737944287 0.9761360812602562
64 0.33531450517931816 0.9913888547516054
65 0.26647640911890613 0.5408055801645042
66 0.4629930140515732 0.3465777344279015
67 0.2070297029821323 0.1077862560025925
68 0.11082118253929285 0.8114405569733951
69 0.5922038308529858 0.9577508907319111
70 0.07600552381154368 0.06638244346765532
71 0.3591974511326632 0.46552666344374294
72 0.5755983418577469 0.5704999843429286
73 0.9823357012025832 0.1694766598597237
74 0.168052262843003 0.23548464271558123
75 0.7374875519364563 0.02591207858665001
76 0.5828356490929217 0.38935158279495785
77 0.9130593051667931 0.6031456888087515
78 0.7038632379813302 0.9973958095437224
79 0.5143131198187986 0.5105735869031863
80 0.5719558559616387 0.5044875378048953
81 0.9616097319490222 0.5992431105224952
82 0.0603039428491593 0.46375755277284236
83 0.5783867184993551 0.7354813897927595
84 0.7977467671591219 0.007905256724475507
85 0.0021975188054693673 0.2064229260340652
86 0.3179846049145405 0.37664445302916294
87 0.01407001800225438 0.553092122608232
88 0.19584879455077464 0.3108046194165187
89 0.953858122433491 0.7508714763480591
90 0.4082521096360362 0.11273206306597805
91 0.4576522403624499 0.6675104557682037
92 0.32071547171654513 0.2830044526543418
93 0.19252211642244066 0.48971284149229233
94 0.3468637941861148 0.8444263381106868
95 0.8202238193769743 0.7697814350428966
96 0.3525425626382389 0.19253037445970755
97 0.06617637926136744 0.2949577072526145
98 0.7548271266807562 0.9911820887353472
99 0.18827816356606109 0.7610376771297029
100 0.2447023512248483 0.06316909444093821
101 0.9427559633515973 0.7950028847578726
102 0.06598346301328895 0.48458725449103746
103 0.9545975472293846 0.9540141054360999
104 0.7579869523215869 0.44379698615022767
105 0.3487510044983019 0.8364602038550364
106 0.7786051948175342 0.9774338955998024
107 0.6960360177560705 0.833921024709045
108 0.8011241308637002 0.4517671082306496
109 0.668739452947724 0.727296747941061
110 0.2890050335106127 0.5090455255904984
111 0.33860828809668275 0.18514944129995425
112 0.17178567135369216 0.8674785780468575
113 0.016835095501398056 0.21196111793165695
114 0.42044716040393293 0.8109465326592522
115 0.37408328232393795 0.13693571732784104
116 0.28127405428585495 0.2303191493545026
117 0.17287235720854677 0.1541986914480461
118 0.860143775792872 0.19470990754573603
119 0.8792126456712525 0.9464486629380954
120 0.2175372992469673 0.14263633804957632
121 0.15186341538956694 0.05034943773232725
122 0.9429334300141653 0.06834532223493495
123 0.8799412000692178 0.5790724910836436
124 0.9217372415176901 0.2222616781415957
125 0.35933388425606283 0.21997755618353199
126 0.6814757404455354 0.7044368147723842
127 0.8345784435895933 0.5241739191571467
128 0.5546064392201988 0.033793096812528955
129 0.2385837022519357 0.8932166458996843
130 0.25018645966104724 0.36718191595786764
131 0.05337547308358437 0.49330186727773273
132 0.8576428046848654 0.04492341872269345
133 0.6146065042967002 0.08912438720400928
134 0.11061287007646226 0.3921684555816741
135 0.46499741922425464 0.7463859482567204
136 0.7592298565022256 0.7418744104204992
137 0.7046046406951395 0.8753187044284645
138 0.25559986231806864 0.8585580207174266
139 0.7667902509547315 0.5098709538731713
140 0.20448724372920257 0.39503642128011063
141 0.31712780233361815 0.2951654646728047
142 0.6067943841557198 0.45998629694495263
143 0.7278123362778179 0.7673872497983951
144 0.348578627261121 0.6759605618161076
145 0.15709327692011255 0.9942563564678856
146 0.17774962968713637 0.5703377498173365
147 0.3302599215398758 0.8898556957077473
148 0.36943398601152533 0.5004522565496026
149 0.5677892561326893 0.8976003583627946
150 0.6458678377214204 0.24902906996231466
151 0.5569767598674301 0.9747916317693958
152 0.2439436060947393 0.698932665457473
153 0.36134248719956163 0.6010296990909451
154 0.24391948071179426 0.20028346569555844
155 0.17453938177525552 0.6175142222751392
156 0.6392715264532131 0.10765151344693324
157 0.23217779068725863 0.9514615238587071
158 0.8502425841569332 0.8800460344734163
159 0.7724869302478699 0.8229586935621704
160 0.5892607835631775 0.6324707904579295
161 0.4050988252233654 0.45578597802581666
162 0.6885500143854429 0.30788538665339593
163 0.9409556781804004 0.31735866234217314
164 0.42324989384258294 0.14760935268767983
165 0.3665820077288252 0.07056269520002001
166 0.030903462635077816 0.6652766139591084
167 0.8934829853473243 0.5126634213913158
168 0.8068784714035532 0.09229951616752285
169 0.24225930955509256 0.47721501442845293
170 0.27958937371484005 0.47894021220133154
171 0.19373613409943347 0.6806085474678639
172 0.6216409419176654 0.9991789695383559
173 0.8946144501950074 0.2846864127503814
174 0.6863740848754694 0.9084246800114284
175 0.3951542425108673 0.590971184558634
176 0.8386878434187528 0.0902386503489716
177 0.5173610952617562 0.13457376050646697
178 0.10917178855018328 0.7299565787769061
179 0.4139754879165344 0.6197409197095805
180 0.38044247364842676 0.4582727898831379
181 0.11475600730292201 0.7835752479295301
182 0.20676905237013454 0.8399542558786357
183 0.058417697791837364 0.30656158782124887
184 0.894607819192255 0.9483572893941626
185 0.47358528418489576 0.8491507003298411
186 0.9082481556395151 0.7440066634263908
187 0.07064071474157352 0.596880652706125
188 0.052177568696876286 0.630755290025404
189 0.5307185002903998 0.5476986941358413
190 0.041659848218724926 0.0349281222092267
191 0.8166968854417588 0.03119163826462823
192 0.1938200034760984 0.09088595293673563
193 0.3285317839754013 0.19858721851995043
194 0.9361754917352687 0.7361730188128197
195 0.26737337879073586 0.7597899492993954
196 0.8453679930913165 0.31512424115249094
197 0.8213208555148744 0.9660575368553526
198 0.5447340551998393 0.46289358991054985
199 0.42522343633180404 0.35303038964992006
200 0.6591866720127976 0.9531338206038906
201 0.14855788237611467 0.09914024849878189
DEMAND_SECTION
1 0
2 5
3 9
4 5
5 1
6 1
7 3
8 3
9 5
10 1
11 6
12 4
13 9
14 8
15 5
16 2
17 2
18 6
19 1
20 2
21 5
22 1
23 8
24 6
25 2
26 7
27 7
28 3
29 8
30 3
31 6
32 7
33 4
34 9
35 3
36 9
37 9
38 4
39 2
40 6
41 2
42 8
43 2
44 2
45 7
46 1
47 5
48 1
49 8
50 4
51 5
52 4
53 2
54 2
55 8
56 1
57 9
58 6
59 7
60 3
61 4
62 3
63 5
64 7
65 1
66 5
67 6
68 3
69 8
70 6
71 7
72 7
73 4
74 8
75 2
76 2
77 9
78 1
79 7
80 8
81 3
82 2
83 6
84 5
85 8
86 9
87 9
88 4
89 5
90 6
91 5
92 6
93 2
94 6
95 3
96 1
97 5
98 8
99 3
100 5
101 9
102 9
103 2
104 6
105 9
106 7
107 4
108 9
109 9
110 6
111 8
112 2
113 9
114 8
115 9
116 3
117 2
118 2
119 4
120 6
121 8
122 4
123 4
124 6
125 5
126 2
127 4
128 8
129 7
130 1
131 9
132 8
133 7
134 1
135 7
136 5
137 6
138 2
139 6
140 1
141 6
142 4
143 1
144 4
145 1
146 5
147 7
148 5
149 5
150 1
151 6
152 6
153 3
154 1
155 5
156 2
157 5
158 1
159 3
160 2
161 2
162 6
163 9
164 2
165 3
166 6
167 8
168 5
169 4
170 8
171 9
172 4
173 3
174 7
175 3
176 1
177 4
178 4
179 8
180 8
181 2
182 1
183 7
184 7
185 9
186 3
187 6
188 9
189 4
190 2
191 1
192 5
193 8
194 7
195 6
196 5
197 1
198 2
199 3
200 3
201 8
DEPOT_SECTION
1
-1
EOF
