NAME : gen200_017
COMMENT : uniform customers, demands 1..9, generated by bench/make_tuning_set.py
TYPE : CVRP
DIMENSION : 201
EDGE_WEIGHT_TYPE : EUC_2D
CAPACITY : 70
NODE_COORD_SECTION
1 0.04302375088297983 0.35171353282157436
2 0.009784655815457177 0.451738725680607
3 0.548389863027314 0.2780457716737801
4 0.7329828367783008 0.014544897157912628
5 0.9104850966217533 0.16553524849176737
6 0.8067737788334385 0.4222803283883071
7 0.02149582655044091 0.7914215232795885
8 0.08984212168660177 0.1353020084455664
9 0.9737373653984118 0.03616450622225542
10 0.2105419229082004 0.7883499873729205
11 0.319323631550382 0.5285345304128233
12 0.2787430232725152 0.008219644063795717
13 0.011838765151710229 0.6097775928412722
14 0.5084383560887348 0.35447000347078195
15 0.6123178311058896 0.7599345925768183
16 0.9730127031744595 0.7448928229092722
17 0.8436413900128523 0.9410656963696573
18 0.9471582777761113 0.0851710245949906
19 0.6781008914469007 0.8094926429652939
20 0.269822705874735 0.7713372246940019
21 0.028077478625052166 0.39839422584208584
22 0.9655358271430386 0.4832005038643782
23 0.035506183398260505 0.6447597449135718
24 0.5505508064738477 0.3838399861922268
25 0.80776851630086 0.13640784177955045
26 0.9439134010022769 0.04722634106186607
27 0.13890682826200318 0.7863661401470432
28 0.0018970658177938082 0.06575523375640713
29 0.11223307890613976 0.8986637278617432
30 0.36096071227746895 0.818507718099114
31 0.87001042999836 0.8327150832563529
32 0.9273986337094594 0.313676241792867
33 0.6114172306515071 0.22699701141343587
34 0.6055544907761573 0.25979789988712054
35 0.9820963572668217 0.6088943807549544
36 0.7549752836175108 0.060808751929311344
37 0.29649205571842774 0.3801947344236172
38 0.7579847820673955 0.10893002122769635
39 0.5471041967626249 0.8606840199807572
40 0.7673884331891977 0.7244646710934254
41 0.10049022950752728 0.47500236550107855
42 0.5595704228839555 0.015343660299805384
43 0.8874276707268675 0.6080572586387787
44 0.8750594637809671 0.5770281945855461
45 0.6189699328597621 0.8118048401710891
46 0.7953265791599021 0.48232425907052656
47 0.24022155946004686 0.032673881362631274
48 0.6686451867338217 0.643142930867844
49 0.37352000168726585 0.7425042121162525
50 0.9928204679118015 0.3527300766985574
51 0.837138287382576 0.8749582550007327
52 0.6089940942588399 0.13544505445762112
53 0.937871432129337 0.46011354070197774
54 0.3357686920314089 0.29799725196248283
55 0.14734501762124863 0.2056052850874891
56 0.4852344150594523 0.33996899454731144
57 0.3058488470710209 0.43417208129730067
58 0.2391306433395246 0.9931763718345614
59 0.09092358591863459 0.32917012127982026
60 0.4548180400111965 0.0673482903887922
61 0.2254121162392385 0.03571308888892177
62 0.4994291955405189 0.9436523275164674
63 0.6341853797840664 0.8686238618235498
64 0.6836566976341865 0.6557382884576175
65 0.12811812056999683 0.24652813261750306
66 0.8712083423796213 0.05852689493786589
67 0.8578223280956001 0.6347041831817883
68 0.5563710832932692 0.19154248501181848
69 0.8633395503726804 0.3669786184457776
70 0.4666630186623877 0.2621726078647071
71 0.7115359622689182 0.6988945386049987
72 0.36729782986363735 0.6219603596084812
73 0.9883271752082468 0.5055314438039133
74 0.8034913945798489 0.6054811479917516
75 0.8663977734493974 0.756084311763361
76 0.47824499736951165 0.4623672452866482
77 0.771254770016294 0.7295932260862975
78 0.022785890634553052 0.3879865219685563
79 0.07727016432809541 0.18042317434391275
80 0.6746459314514952 0.6322845153449491
81 0.6455930325214216 0.06933979858717632
82 0.8439360543596601 0.9714583233179755
83 0.25250481227414445 0.226136244325001
84 0.9253532195187378 0.8036805020573193
85 0.8491681677122047 0.9256093788612471
86 0.20040331001572942 0.5547419582762885
87 0.8277413069681155 0.053776475658339096
88 0.14810836276717987 0.3643367315158763
89 0.7090836986300525 0.8629003967562594
90 0.6863942928346839 0.23699208661291027
91 0.014160976262256542 0.5991952790828278
92 0.45919878977232376 0.5370123088007831
93 0.08219181294369882 0.19460168897175567
94 0.4437281835773421 0.2551036832230702
95 0.009470416473874033 0.8906341733840408
96 0.34137562608577365 0.3043503230093656
97 0.3517107374889109 0.038123014947923584
98 0.9239273375951454 0.9908603467435646
99 0.22238698978457472 0.44839740188168653
100 0.7429034229841682 0.6951000417086274
101 0.8761366446887371 0.7803527836815387
102 0.013675266753944038 0.9795463995651655
103 0.25017583216913253 0.2565070347216356
104 0.961915055975643 0.32203371702713723
105 0.7818084180589302 0.1438064514356313
106 0.16541197508331018 0.14606192965719378
107 0.9972949582385655 0.35637252934185715
108 0.42098238546893174 0.4073690013904939
109 0.7181506082020039 0.7769241670290102
110 0.8332391059583734 0.1744960940011483
111 0.4746607854024155 0.24919178247430807
112 0.08062950310532613 0.26542535201055895
113 0.0986541289467936 0.10946392705211272
114 0.34194326493581173 0.45489606272734817
115 0.9631116966736395 0.0965281703839106
116 0.07684785394808635 0.14488558763252657
117 0.7663062392235468 0.5988240399896881
118 0.7019810685770261 0.03199551492836461
119 0.2652156576465019 0.1322709503609677
120 0.46451768399236615 0.41596410964977903
121 0.46757964347678305 0.36132349736676117
122 0.1339662435406913 0.24265722523797095
123 0.4010454299155054 0.7391697085406166
124 0.24334787510156164 0.9264686783852366
125 0.9829704634564483 0.943365881966048
126 0.4278533133594229 0.11019295416724528
127 0.7068235586415637 0.6931328426285801
128 0.3562380423673439 0.09159109961812106
129 0.5051500402751297 0.5871697914408974
130 0.3750604004184377 0.49481066988444367
131 0.446401442373316 0.20665112988268663
132 0.8722824892163763 0.9296836095640258
133 0.1964275944533347 0.9836465259579923
134 0.16547360372365094 0.05501354721094909
135 0.8508826297469674 0.02291341851444706
136 0.005892397175082942 0.7142829444731665
137 0.2945894231405264 0.7703433905669824
138 0.6671192636838459 0.5277367790163202
139 0.7730599736475223 0.8681370084291318
140 0.8721869102577482 0.25595789008233505
141 0.15182286006424417 0.6336821784611937
142 0.3963302987185514 0.20857048753964658
143 0.9386480425043017 0.9180630401893884
144 0.22225521980305063 0.07252272821716266
145 0.2590134170537277 0.8797170983961917
146 0.8119215022404553 0.8568495874654485
147 0.38620225110779616 0.243580430122607
148 0.4517422899924439 0.07686332778512583
149 0.6712567682403143 0.5039917580087034
150 0.4689347850045723 0.41983416506188354
151 0.39786179005017586 0.3756536837151524
152 0.008877292382611257 0.7699751304622355
153 0.7644218814939748 0.05555017653656158
154 0.8188236137472026 0.6193210809210721
155 0.6406059464484933 0.305587636671544
156 0.9835243763827625 0.2205597238428737
157 0.9174303551514145 0.4685534037985357
158 0.8408997139653235 0.2961567950579457
159 0.2942973832676856 0.4960695077316566
160 0.8999907613889683 0.8345181341664484
161 0.3921379631051459 0.5872950814311184
162 0.3769806032732973 0.6183968866983832
163 0.03038081722383934 0.7701927603344123
164 0.8140964119475219 0.7337057850736687
165 0.34751179606872673 0.6607925614157689
166 0.24677119025091743 0.055730898154794595
167 0.629373384068476 0.35290832153850826
168 0.8271046912998754 0.30521322761696745
169 0.01045004893882584 0.13023288627325025
170 0.592282016771544 0.31254967297309233
171 0.8818479952633874 0.6600653134703139
172 0.11133050766957575 0.14198103195007028
173 0.7090073566401681 0.5084940004953763
174 0.9496075158986409 0.5798096469610796
175 0.682574926094692 0.2603348027756489
176 0.9294019153257691 0.7374873849443814
177 0.48557009168315 0.4950879805165197
178 0.2479893599450147 0.666942399350041
179 0.4086513569597364 0.8144253837609544
180 0.48447320904456914 0.12836723830468577
181 0.08567786718386627 0.5919313797343196
182 0.609697468621214 0.4929783097300954
183 0.2870378228590177 0.1786957098111347
184 0.9462352521916192 0.9646340335096414
185 0.44747344817370427 0.7662117475826954
186 0.7209331146767431 0.6013075787444614
187 0.6903984569640764 0.2217485519533391
188 0.364040648872334 0.9555210890199636
189 0.41381732607278543 0.5314771401557903
190 0.803151771566544 0.6260638931323409
191 0.5637173399114266 0.7811751977114022
192 0.881041219911574 0.40870209959468806
193 0.2192235768445474 0.02536684387567978
194 0.07149257304377354 0.10733584360885096
195 0.7325750597471858 0.5212253104636092
196 0.23567953875727266 0.14400917975999117
197 0.721745114476506 0.9706122352984762
198 0.08442739959992807 0.10985246248031266
199 0.48054050253293523 0.21719042490750384
200 0.3744401588618933 0.7047061697854708
201 0.5017869780495676 0.8647120320208956
DEMAND_SECTION
1 0
2 7
3 8
4 3
5 2
6 3
7 5
8 3
9 7
10 1
11 3
12 8
13 3
14 9
15 9
16 6
17 4
18 1
19 9
20 6
21 7
22 9
23 2
24 3
25 2
26 2
27 6
28 8
29 4
30 1
31 6
32 2
33 9
34 6
35 2
36 2
37 5
38 1
39 2
40 8
41 7
42 5
43 7
44 6
45 5
46 8
47 3
48 7
49 2
50 5
51 2
52 1
53 2
54 1
55 3
56 1
57 3
58 1
59 7
60 3
61 4
62 2
63 5
64 2
65 6
66 3
67 4
68 4
69 3
70 7
71 7
72 4
73 3
74 5
75 2
76 7
77 4
78 3
79 4
80 8
81 3
82 3
83 2
84 7
85 7
86 9
87 2
88 5
89 2
90 3
91 5
92 5
93 3
94 1
95 9
96 4
97 5
98 5
99 9
100 2
101 2
102 3
103 8
104 3
105 5
106 7
107 6
108 8
109 3
110 2
111 1
112 7
113 9
114 2
115 5
116 7
117 4
118 2
119 5
120 8
121 2
122 2
123 9
124 1
125 8
126 9
127 2
128 9
129 1
130 9
131 1
132 7
133 6
134 9
135 9
136 6
137 8
138 2
139 3
140 5
141 4
142 8
143 7
144 4
145 5
146 2
147 8
148 8
149 4
150 5
151 5
152 1
153 3
154 1
155 1
156 3
157 5
158 8
159 8
160 1
161 9
162 4
163 2
164 4
165 1
166 5
167 1
168 6
169 8
170 2
171 8
172 7
173 4
174 5
175 6
176 7
177 9
178 1
179 6
180 9
181 2
182 8
183 7
184 1
185 5
186 6
187 7
188 5
189 6
190 6
191 6
192 9
193 2
194 3
195 7
196 1
197 5
198 9
199 1
200 7
201 9
DEPOT_SECTION
1
-1
EOF
