NAME : gen100_028
COMMENT : uniform customers, demands 1..9, generated by bench/make_tuning_set.py
TYPE : CVRP
DIMENSION : 101
EDGE_WEIGHT_TYPE : EUC_2D
CAPACITY : 50
NODE_COORD_SECTION
1 0.2765069328400769 0.5879150730793596
2 0.9673036898957754 0.6979360236944462
3 0.8114401810341837 0.04564870890700268
4 0.17300262574229508 0.3637481827477437
5 0.563559155326489 0.7669341081736495
6 0.531444962295727 0.3613349265483119
7 0.7269719349407314 0.8952304166794732
8 0.14871590397868562 0.040614325256773
9 0.4727599782728614 0.039485208877022226
10 0.4640884396381686 0.5887612002173629
11 0.3687907658158307 0.26238077246043523
12 0.8998380630423678 0.6819553109701832
13 0.9347092331947482 0.8713403557500229
14 0.2517696081407883 0.06553602174822037
15 0.655991115303407 0.23606179154812057
16 0.8174868706298825 0.49487742674676716
17 0.47831239466677566 0.4472180837760237
18 0.4261885399203442 0.7276981661677433
19 0.1797812508870691 0.21037299901688056
20 0.7783108996505728 0.6157203578782177
21 0.7250246750306959 0.6734320453865749
22 0.5840157179953276 0.09485469479019326
23 0.3043995930644582 0.3652489671633464
24 0.12148486314604257 0.020731352579871465
25 0.0458321347257884 0.47065380536902124
26 0.2542471957320993 0.7089267382518124
27 0.7221993254500592 0.4178395953670969
28 0.3919388748944175 0.6111474471474205
29 0.9313873329090482 0.39900188405664805
30 0.41648227239226754 0.5116304023242477
31 0.6779614743412549 0.21344768223649846
32 0.956974871672183 0.7570606392116529
33 0.8413938316973599 0.9471291313653787
34 0.9409531935546227 0.5365590290440653
35 0.6283588190502774 0.8169587513552782
36 0.49847058885972817 0.26316557926749096
37 0.8816665356506506 0.8441257070711236
38 0.9768940727852518 0.15798043262464911
39 0.46909543477578775 0.9438740967622257
40 0.4969469037408065 0.2640007172175183
41 0.01843901725756103 0.1418875960202175
42 0.734657599741853 0.8696947270071981
43 0.7587170190305723 0.02362987070639677
44 0.17592700850267884 0.29531788715316365
45 0.4918767759382372 0.8797954165807974
46 0.976075698664779 0.6586981977576503
47 0.07288584994727587 0.41396761637715873
48 0.5394148418876377 0.22407082585321925
49 0.7146297695674848 0.13013645217482483
50 0.13722916787246242 0.7206817554435345
51 0.13373760397291456 0.2774483408734435
52 0.007847750482519289 0.5029482123213108
53 0.5922012141328311 0.7607348609906748
54 0.22655453209995235 0.02612920529247742
55 0.8130910306052012 0.2776212272713129
56 0.5669051803648443 0.40549258712593894
57 0.19770741356403332 0.8968155072829955
58 0.793909838957275 0.968603909906216
59 0.9624283124170487 0.11656810263138673
60 0.2710048807010309 0.3483922811284501
61 0.7969480732135652 0.4865081257666304
62 0.7431536479634034 0.2649809574034294
63 0.3899258448438806 0.974284268135629
64 0.7066467848662236 0.46612863996159626
65 0.4164402681665188 0.10608604027475443
66 0.7794544505211558 0.10041338572332725
67 0.09190611449052788 0.5047208875762053
68 0.4647096521999404 0.023532541060272805
69 0.6094050338510748 0.8832803150219344
70 0.6188580646435748 0.597062241971308
71 0.02485743417718378 0.9900976081867893
72 0.2737841792875976 0.7081635460908039
73 0.7654980030978547 0.4655116404267763
74 0.5190260549692066 0.3429489923344745
75 0.6801557299034587 0.8844804393412903
76 0.8350779535518851 0.37464743481840956
77 0.6759457914712654 0.3102065464234075
78 0.15559644904133474 0.5647694719663122
79 0.792232480541699 0.5872627037530664
80 0.051495241555643 0.2752578366313333
81 0.22985997814904913 0.6626833322313946
82 0.39225228383205857 0.6768578480864458
83 0.31768408478888854 0.6045690298907829
84 0.7874953993854107 0.948578099986377
85 0.8369267352679426 0.9300720253986051
86 0.4667715166953278 0.338842276445776
87 0.8031023887398975 0.6026411280308631
88 0.7103047097309357 0.5367939198069888
89 0.23588826553819164 0.2912886521920526
90 0.49621855300954976 0.2667546310127995
91 0.7620726831383972 0.2637841783706546
92 0.20004325701403425 0.37726551825482424
93 0.39725997928297796 0.1923309969455812
94 0.08107622295852546 0.34726780486011066
95 0.4542187815499267 0.009750362524486356
96 0.9986655414389859 0.8846674910657538
97 0.35880504371529576 0.20999408146402443
98 0.7483405134551389 0.49556689104767904
99 0.7924766044613029 0.13231287941314185
100 0.7072381261122684 0.8924406640901277
101 0.5150252138719225 0.4135986978529994
DEMAND_SECTION
1 0
2 3
3 5
4 3
5 3
6 2
7 6
8 9
9 2
10 6
11 7
12 1
13 6
14 4
15 6
16 6
17 6
18 4
19 7
20 5
21 5
22 7
23 9
24 3
25 6
26 6
27 4
28 4
29 3
30 1
31 7
32 3
33 1
34 4
35 9
36 7
37 7
38 9
39 7
40 7
41 1
42 2
43 9
44 7
45 5
46 4
47 1
48 9
49 6
50 8
51 1
52 8
53 3
54 2
55 2
56 1
57 8
58 2
59 6
60 8
61 4
62 6
63 1
64 9
65 8
66 7
67 8
68 3
69 4
70 5
71 3
72 7
73 8
74 5
75 5
76 2
77 5
78 3
79 9
80 6
81 6
82 7
83 3
84 5
85 7
86 3
87 6
88 2
89 9
90 8
91 5
92 5
93 2
94 7
95 4
96 2
97 6
98 4
99 2
100 3
101 9
DEPOT_SECTION
1
-1
EOF
