NAME : gen100_030
COMMENT : uniform customers, demands 1..9, generated by bench/make_tuning_set.py
TYPE : CVRP
DIMENSION : 101
EDGE_WEIGHT_TYPE : EUC_2D
CAPACITY : 50
NODE_COORD_SECTION
1 0.3172046677141772 0.5800817911498735
2 0.7648142324022381 0.5076538770275907
3 0.6789525213182291 0.5479690768743132
4 0.24134123920004236 0.9708140845955895
5 0.14097401960230516 0.12434508277045142
6 0.6167665131603659 0.803922331557043
7 0.8119572045490747 0.9224790694140113
8 0.6579176991916008 0.6602132192246651
9 0.1259977661084698 0.12521778675699013
10 0.07258772450545425 0.9315886846175164
11 0.5882453800318198 0.9052287181668289
12 0.1422930393054621 0.6996065044025246
13 0.7987420169231046 0.26551603755718356
14 0.6940621158386485 0.49931225859527106
15 0.26776297136997795 0.6991094697473575
16 0.18498992544023707 0.6670397330077309
17 0.7848457015906899 0.48732686469645936
18 0.2476413157250268 0.0785245475343066
19 0.033332743574669865 0.42804397859375964
20 0.9920747121717183 0.14687787602943136
21 0.1589024360953476 0.13913725492699613
22 0.702319473157551 0.4563914991772743
23 0.057909205200584624 0.3654279009184511
24 0.24696344928423186 0.5186550048531652
25 0.42180024000164307 0.9397581071068839
26 0.9928577742893147 0.7214401122993146
27 0.7817869832791385 0.1651947983320705
28 0.795499289897226 0.9784989539295376
29 0.37178300478999793 0.2766651517671702
30 0.006489566637070565 0.745341838942127
31 0.03576414487976576 0.889240981601857
32 0.9391019891031913 0.5231080999621497
33 0.7778832270382185 0.201550062768019
34 0.029575207707800866 0.5399088566503161
35 0.9759319406786304 0.2914267788851199
36 0.9827132381068292 0.015916981262556584
37 0.35041926375471033 0.002400201918202116
38 0.3881756390124237 0.8870300286640478
39 0.5710537190108756 0.24254407080878893
40 0.2296975343425618 0.9456717991194646
41 0.48738593660257634 0.04812170959786577
42 0.7701679904618567 0.1476934776324218
43 0.14130828564995546 0.002123664903055378
44 0.07788547066217144 0.9274869316060343
45 0.29083815212575914 0.4365600695432035
46 0.4188351336225635 0.6132443894138759
47 0.269158285836237 0.2850909058885226
48 0.20695673900174283 0.5229600935129021
49 0.4845572598384664 0.46081814380577657
50 0.21968378589765247 0.9001737181805921
51 0.49981116839929307 0.4614280223877648
52 0.6245833459813039 0.47883144434811953
53 0.6392352888438163 0.6254050123785347
54 0.4577590142543345 0.35744408735259736
55 0.4085174356790363 0.33937164995492464
56 0.43560797552293584 0.8556353416980771
57 0.11554789810547517 0.6594886169325082
58 0.770117504448959 0.21483037046213616
59 0.905321968577981 0.7451036996995924
60 0.5133795852231701 0.6310699031392064
61 0.8477173351769334 0.5513682948564523
62 0.42498814905705085 0.930174650066234
63 0.4463462008594631 0.23967366288634895
64 0.37733437232003786 0.6888445864669895
65 0.3832579280680857 0.8521903229656005
66 0.2554423502418057 0.7498121200439938
67 0.13307477797278433 0.9148010716360157
68 0.706839411540782 0.23152283686284936
69 0.5542649539980712 0.8102395258386933
70 0.9650520193120232 0.48496518963417345
71 0.3649645981373233 0.4678324717230258
72 0.436224188392223 0.9471477257702539
73 0.0673003541655317 0.42312115343447454
74 0.3131214202182423 0.5509660496486796
75 0.6139703524714584 0.0906995128683441
76 0.6897172976742592 0.3807829771908038
77 0.16148300762906564 0.1343231828713708
78 0.6929319424724432 0.8779050229368531
79 0.5460422776350885 0.7143162204587274
80 0.4881269352567006 0.428872670445807
81 0.7451368325965608 0.20938356899501742
82 0.059923301158186004 0.8245739498027498
83 0.44504439467681733 0.5590234960263916
84 0.13492249663197575 0.238756229034513
85 0.08187921267020537 0.7496641592987663
86 0.2088943104294555 0.7784500895594646
87 0.9790703313952076 0.8002194650522336
88 0.4118394051951775 0.07006839787317776
89 0.9211690237750456 0.7010653346029361
90 0.6234303525411987 0.48313080815627707
91 0.5963216441116467 0.8470311504782699
92 0.5731632977824909 0.7466094074486436
93 0.2460043188394777 0.3288161743818171
94 0.39274487141266534 0.6832356092800058
95 0.5179075318809573 0.11247791292137865
96 0.3729236541227088 0.7658387498888403
97 0.5186616355080934 0.08665564484275601
98 0.037084394357928874 0.9819622899913825
99 0.6641163006879075 0.019175181008961983
100 0.5741634077190866 0.09203921231776124
101 0.7204354691307453 0.8242656100309067
DEMAND_SECTION
1 0
2 6
3 1
4 4
5 8
6 6
7 8
8 1
9 2
10 7
11 6
12 3
13 1
14 4
15 9
16 5
17 2
18 1
19 6
20 4
21 7
22 5
23 5
24 6
25 6
26 7
27 7
28 9
29 3
30 1
31 6
32 8
33 8
34 5
35 9
36 8
37 1
38 9
39 1
40 4
41 2
42 8
43 5
44 4
45 7
46 5
47 2
48 4
49 3
50 5
51 4
52 2
53 6
54 4
55 5
56 5
57 5
58 8
59 7
60 4
61 6
62 2
63 9
64 2
65 8
66 6
67 8
68 8
69 1
70 7
71 4
72 8
73 4
74 6
75 7
76 3
77 3
78 1
79 1
80 7
81 3
82 9
83 6
84 6
85 7
86 8
87 9
88 7
89 4
90 3
91 6
92 4
93 3
94 2
95 6
96 1
97 9
98 1
99 5
100 5
101 3
DEPOT_SECTION
1
-1
EOF
