NAME : gen100_005
COMMENT : uniform customers, demands 1..9, generated by bench/make_tuning_set.py
TYPE : CVRP
DIMENSION : 101
EDGE_WEIGHT_TYPE : EUC_2D
CAPACITY : 50
NODE_COORD_SECTION
1 0.2729138072743905 0.7848383542173819
2 0.5435650485967375 0.9050346247028546
3 0.19572996170633805 0.7614853629614027
4 0.12062890928084913 0.6522200222692025
5 0.669748887888195 0.792250400854459
6 0.47208406914779477 0.42791813326675443
7 0.4735429837293278 0.9396353048438748
8 0.2552161835782387 0.5135082639268203
9 0.16437758559984017 0.5613358566965128
10 0.9013345584049793 0.626307816982108
11 0.5377346130940375 0.24457248957073274
12 0.1401567812143295 0.36524536319436274
13 0.317893728472198 0.84946841459415
14 0.023492287698615222 0.12083340038137214
15 0.17340185075696635 0.8732267694978036
16 0.6618077289283596 0.6635017027104286
17 0.7666256849155593 0.44518467763645275
18 0.08541266816963489 0.10881991545646297
19 0.765470846229939 0.798523475301704
20 0.8100032161006349 0.15084398958292988
21 0.8378589735754928 0.8822067549069605
22 0.7002079375724214 0.45189701133326576
23 0.833951329943201 0.9689334867265178
24 0.614496283817758 0.011809806489689989
25 0.867202124904214 0.8461895748775056
26 0.6945877920408646 0.22560509960459652
27 0.025370825813889386 0.11398094759612609
28 0.9167997001993399 0.11193824968854293
29 0.034319489343757725 0.6425234328432126
30 0.13227141746044635 0.19791788380216113
31 0.8270363491806028 0.7417279785777904
32 0.06353742255892392 0.8966946703142196
33 0.5207931326174594 0.30134686779420294
34 0.040867498942228075 0.7730174263644642
35 0.6176272427580736 0.7278948713413738
36 0.21377172857607663 0.3117561051395368
37 0.7861658517572232 0.2290064972265552
38 0.5320599293989261 0.013616743236399942
39 0.04267197588823246 0.7311545053049419
40 0.8082752428479556 0.5259700312839967
41 0.7647726759820465 0.9630748661308671
42 0.022876890782451698 0.7500944733269541
43 0.06650667748059025 0.057497388582111286
44 0.6148584517382129 0.9931893982415674
45 0.8547346755943751 0.42030701993856834
46 0.896413728576168 0.40715251683850995
47 0.9950115357863449 0.9997381057170578
48 0.9817219441110578 0.6048993929021553
49 0.70159048271801 0.39070867917440444
50 0.3453075029135457 0.9225109280746007
51 0.46170941137652444 0.9963860914550352
52 0.1077046350555333 0.05760559355383277
53 0.06824882208249483 0.9693432406400226
54 0.1570789545382738 0.49329062084452735
55 0.9053943379214658 0.17160655271937575
56 0.9542870611297133 0.6572853452251849
57 0.4393446946331412 0.466224708590422
58 0.025233703849417255 0.8950405884802434
59 0.7540010665983093 0.37755326060318906
60 0.6946526841816413 0.3636048744062629
61 0.7657734328208167 0.1254619620009524
62 0.1643663866029652 0.4188546138703353
63 0.5572406376113969 0.8830070239397299
64 0.7931595087736738 0.4558163592164739
65 0.9431200350707215 0.9473802368339512
66 0.6453748703623777 0.7024088069516933
67 0.05491186593027986 0.7830938895536809
68 0.871926487693398 0.4226618194854681
69 0.949234746991691 0.43741752220303076
70 0.07915934539111369 0.1858370402515067
71 0.5490641142144459 0.5033851943402162
72 0.9063805979106656 0.874964083229985
73 0.7113788537214175 0.508716130412305
74 0.7272601461650228 0.2042113197294151
75 0.7512122202443638 0.44671459263604685
76 0.36918860914744045 0.4157318409897611
77 0.46435881120817335 0.3552428158319323
78 0.4057727133156672 0.8763545781203329
79 0.16225807531559433 0.4003857031671143
80 0.9278997311746695 0.20138680531347353
81 0.5701859785119129 0.11786101982979846
82 0.39452558571946994 0.8137634847374384
83 0.5664255600753764 0.71437132351023
84 0.32936611501252167 0.6602860967897302
85 0.029213472059155476 0.09690950333494008
86 0.4974361025653963 0.3606109973078512
87 0.35104500664533533 0.5465520483114752
88 0.645795562067451 0.9228608042309787
89 0.8770371742434901 0.1630518201472262
90 0.8954274874593016 0.5257174649641723
91 0.5372484598879604 0.014334858793778937
92 0.4150790593598003 0.028690120106315664
93 0.6724380658718699 0.9691887842515999
94 0.10888752219177056 0.06396457503940223
95 0.0367823004754424 0.07300473368672855
96 0.27367723439108305 0.1947464258310181
97 0.2716963267508714 0.7077028309091317
98 0.45960785901292833 0.781508384192435
99 0.47931527203822677 0.429678180393408
100 0.0022242857639218627 0.3537814999516673
101 0.568922460397652 0.8690607197004617
DEMAND_SECTION
1 0
2 1
3 4
4 3
5 3
6 1
7 4
8 8
9 5
10 7
11 4
12 5
13 5
14 6
15 5
16 7
17 6
18 1
19 6
20 7
21 6
22 4
23 2
24 9
25 5
26 1
27 4
28 6
29 2
30 9
31 3
32 7
33 4
34 9
35 6
36 2
37 1
38 3
39 7
40 9
41 7
42 3
43 4
44 8
45 7
46 1
47 1
48 5
49 1
50 3
51 4
52 6
53 8
54 9
55 7
56 2
57 8
58 2
59 7
60 3
61 3
62 4
63 7
64 4
65 8
66 4
67 1
68 4
69 4
70 8
71 1
72 2
73 4
74 4
75 4
76 8
77 7
78 5
79 4
80 8
81 6
82 3
83 1
84 7
85 2
86 6
87 2
88 5
89 8
90 6
91 4
92 2
93 8
94 5
95 6
96 1
97 1
98 7
99 4
100 3
101 4
DEPOT_SECTION
1
-1
EOF
