NAME : gen100_023
COMMENT : uniform customers, demands 1..9, generated by bench/make_tuning_set.py
TYPE : CVRP
DIMENSION : 101
EDGE_WEIGHT_TYPE : EUC_2D
CAPACITY : 50
NODE_COORD_SECTION
1 0.5599994088215237 0.6436380428826913
2 0.7054043079842558 0.8817604010492679
3 0.9066578885486625 0.9864400285468581
4 0.762961591092296 0.7927018047646872
5 0.8869744486831539 0.7685906461098942
6 0.48944779509787095 0.07743623673648936
7 0.8540868252094447 0.6275449696640448
8 0.7601595066800604 0.42537997720437704
9 0.871086156583453 0.7047024992159325
10 0.9326026346172336 0.19940065505696825
11 0.19964756637605874 0.592942014386834
12 0.2591513620576208 0.11093047685900526
13 0.45822076010565627 0.8595464682680398
14 0.8943841540309324 0.0569919390973288
15 0.8628587921832586 0.6181927646939682
16 0.804378948211181 0.9781833013103182
17 0.7376006126058438 0.3543908930062586
18 0.7981450304306771 0.571749382245752
19 0.9239201056956551 0.8888579417652069
20 0.5836637300140146 0.6248658794952202
21 0.2275832254486324 0.2852131603388821
22 0.44820733233753995 0.73115378473216
23 0.6465546463266062 0.8101702582472186
24 0.2552311121269337 0.7973101397183833
25 0.0933999723987714 0.4751034237740973
26 0.022062797693624403 0.6762720947230617
27 0.38910411957197677 0.13261735053489654
28 0.5172376504275137 0.1494852677270615
29 0.33181687282971495 0.07034464996432388
30 0.8545474597144738 0.9486176934082114
31 0.15020145390448403 0.518313799952395
32 0.9710302022151641 0.07250885949633357
33 0.4907301388760452 0.24865130231997534
34 0.7363706673387155 0.4250197602119653
35 0.8744328437141378 0.4233351791824512
36 0.8014023392484659 0.515049976514459
37 0.3461767897898941 0.9388776806590927
38 0.46529546740643757 0.2047770450389318
39 0.15291830665423056 0.4499062488711847
40 0.5418763295148771 0.5459817936432484
41 0.8012165507675351 0.4808724499085111
42 0.7088216318095842 0.13686140995555685
43 0.1960590335146084 0.9597925304839601
44 0.05214794884187346 0.31890496266779544
45 0.7494478534882271 0.3909376246345241
46 0.1612154659937396 0.8853481978229095
47 0.35426605071084216 0.8998828493378211
48 0.808333888259215 0.066593894290361
49 0.6393106785860488 0.30700098195291503
50 0.3625266109317632 0.07516107850428888
51 0.13282017487739906 0.19200925644247924
52 0.8769861114357104 0.7858363653594826
53 0.3759211946410118 0.8955530612637738
54 0.2189524849062613 0.45507154872688593
55 0.5203135741425751 0.18744864493767333
56 0.48266631009257355 0.5565397385586539
57 0.009512200172682728 0.05305333814931357
58 0.9117438527123258 0.2102509325975167
59 0.45044139850987586 0.41237587383323937
60 0.06303452422329048 0.12435064249686911
61 0.40907688327329583 0.7771327392661507
62 0.7162900643745117 0.22561646346635988
63 0.5633661948783424 0.8954265344151804
64 0.9647352865128763 0.2928138102093175
65 0.28771418316729436 0.17683383811585052
66 0.7344235158195799 0.7621887153375076
67 0.9388533443488287 0.6277659278337816
68 0.9167662789188308 0.34955707037973716
69 0.06006421064887546 0.12377822201378252
70 0.4048751145980465 0.06969752191727563
71 0.735223441547096 0.33704783149968176
72 0.7379056572325061 0.7552365871237089
73 0.011720823682316528 0.4837036850727342
74 0.9842790932263625 0.5501309371643379
75 0.28927980317373847 0.2724687470881203
76 0.07946056591437445 0.015248216812599358
77 0.9416575878554657 0.9134127763190844
78 0.7759430479713296 0.02229329634936794
79 0.7628740333622567 0.9078241265629821
80 0.7492537468756604 0.15428330948451152
81 0.5320899051827248 0.17558130378803027
82 0.8171425760718825 0.29761676345267063
83 0.8692036344488285 0.5311052039293401
84 0.8683076550225194 0.28650465574103356
85 0.4997870091633161 0.14054776201001862
86 0.0003886191356120561 0.9545681050095628
87 0.7434902065837379 0.39700029032921424
88 0.20868270973197556 0.19040866416826108
89 0.20130132035053105 0.6921278415524938
90 0.7362149451400162 0.698306020315444
91 0.46351512841491904 0.6024625081707775
92 0.21104704057720114 0.9288737041362682
93 0.5862201712754118 0.18243382778728123
94 0.3931726263235584 0.7694481057648005
95 0.2651419443336217 0.6529510762818046
96 0.6530329164602987 0.29989423765287193
97 0.8962825377668479 0.8809743553590461
98 0.3483523454923506 0.798599853918471
99 0.9013101322538483 0.6563125439814472
100 0.6259954155874958 0.4477743527991571
101 0.5866470258261953 0.7969540117272531
DEMAND_SECTION
1 0
2 1
3 5
4 9
5 9
6 9
7 8
8 4
9 2
10 7
11 6
12 7
13 1
14 6
15 6
16 6
17 4
18 8
19 8
20 5
21 1
22 5
23 4
24 2
25 3
26 1
27 2
28 7
29 6
30 6
31 9
32 8
33 7
34 2
35 3
36 3
37 1
38 8
39 5
40 2
41 7
42 9
43 1
44 6
45 2
46 1
47 5
48 5
49 6
50 6
51 4
52 1
53 4
54 3
55 9
56 4
57 9
58 2
59 7
60 5
61 3
62 7
63 7
64 4
65 7
66 3
67 9
68 4
69 8
70 5
71 9
72 8
73 1
74 7
75 9
76 4
77 4
78 3
79 7
80 5
81 8
82 4
83 7
84 9
85 7
86 2
87 3
88 4
89 9
90 1
91 2
92 1
93 4
94 3
95 5
96 4
97 3
98 6
99 9
100 2
101 8
DEPOT_SECTION
1
-1
EOF
