NAME : gen100_033
COMMENT : uniform customers, demands 1..9, generated by bench/make_tuning_set.py
TYPE : CVRP
DIMENSION : 101
EDGE_WEIGHT_TYPE : EUC_2D
CAPACITY : 50
NODE_COORD_SECTION
1 0.007393963690116689 0.6513732143269373
2 0.48283030550631234 0.24546216583910874
3 0.1415344220156809 0.8257874531167777
4 0.7833092278071556 0.6738842943865673
5 0.4792694445149144 0.9919041493518008
6 0.7267586151277416 0.6041801357707912
7 0.2588329901044749 0.14977439793624425
8 0.08515562829747447 0.2619142417771817
9 0.755302113617481 0.37034761284708195
10 0.6873179025131237 0.2742708055040005
11 0.9254450916399949 0.22823131902648242
12 0.4049135962753303 0.9971021047622369
13 0.033478550591617307 0.9540591507013838
14 0.6262361537598916 0.2516665825369989
15 0.8782133606029928 0.8287705455806116
16 0.32351513895899586 0.058489853406949455
17 0.7683960289937817 0.17928716491175278
18 0.2864038940280432 0.3954731787916821
19 0.3807125091656478 0.8438362888443014
20 0.08039226868128424 0.15715918859971212
21 0.9022594123581265 0.8602501418135334
22 0.20131127155256057 0.23567511970576338
23 0.00023365097286853764 0.7204548188881984
24 0.44172191182734455 0.6655875342572125
25 0.17265697906154565 0.585963718625904
26 0.45644052962161585 0.309087044873232
27 0.8544663409655314 0.6728106411395821
28 0.8125993962348419 0.8891121597619207
29 0.49016782413828563 0.9152907835230247
30 0.5438459244362783 0.4082164019773419
31 0.05026222779104028 0.06427642474043482
32 0.9828707169025558 0.24990176366206507
33 0.1627162711996213 0.27366599751632537
34 0.4321789933623702 0.34618679684236386
35 0.7650497320022832 0.33335332209358637
36 0.8240682113151615 0.6948512535132404
37 0.5649783962132359 0.13651358480458575
38 0.10506269407049196 0.5486528872079118
39 0.6871860038456333 0.9126714392448159
40 0.6730031843420089 0.9054124293521673
41 0.8430125561205853 0.5547712905012104
42 0.936957698003527 0.9082285163752698
43 0.45552064937703807 0.01316336708923238
44 0.2959262495581092 0.7826641186792349
45 0.86161345959775 0.737297574634053
46 0.2519286083029595 0.15825535996663564
47 0.8551160210801831 0.956573426382479
48 0.9728131236573249 0.8544951695819785
49 0.4193177985789339 0.7801300357667648
50 0.2889532947070085 0.3872470006877936
51 0.1427849168644223 0.14821983154037055
52 0.5625144282558104 0.26240023033338755
53 0.8427518439228769 0.6708987089822233
54 0.6449684060255134 0.9178022150099125
55 0.24286248669274746 0.7401698622128988
56 0.33598084445142984 0.46397855841912194
57 0.8743544850157711 0.48334792170376395
58 0.7473269629011906 0.18703348924084473
59 0.1677112280647799 0.4434143114380701
60 0.2587478793085619 0.8300812924507066
61 0.9011735130026198 0.7186536829732322
62 0.1464485203945789 0.03256956204842543
63 0.7106407339766749 0.5912044132818971
64 0.20938130645785424 0.6694442223359299
65 0.26398746562567665 0.9273996658591827
66 0.43097435249768146 0.5352217506979998
67 0.6927062034553122 0.5383320910074787
68 0.13531937091651824 0.815184499723879
69 0.4982194892267131 0.5964157464681716
70 0.27167837168847764 0.2938607898267547
71 0.47651027571896076 0.37246165305409384
72 0.8658974806420511 0.6332094178054066
73 0.20631767974281034 0.2957417976227882
74 0.08427162957992573 0.09031892389249441
75 0.9695715267350902 0.21829211316682462
76 0.9254064871230467 0.8294613431740456
77 0.06208747853968388 0.0733784565845137
78 0.9058218734232751 0.8746130300370154
79 0.5147191365730795 0.49781158979489215
80 0.9679647987442801 0.19393494835454106
81 0.9043252828533939 0.6800216155321653
82 0.9787940480713834 0.006212748567503978
83 0.08865764578602464 0.6948076297298497
84 0.04070582651348986 0.12645750762909902
85 0.2664309191851808 0.4281974056786806
86 0.14789953444013115 0.4846132360866936
87 0.6051362476320801 0.8222617658686068
88 0.12693767331521988 0.13963672802358262
89 0.12454643374078511 0.8957493092458243
90 0.06475590709115642 0.8020079485998797
91 0.014491985925438988 0.4509544631085919
92 0.19350558808662344 0.5691735876380168
93 0.8716233088903654 0.536333717901173
94 0.36614010849734546 0.8387823026959593
95 0.6921785505303261 0.509128993545801
96 0.08089492429785228 0.8359702609970617
97 0.49191280955094474 0.44377018499883125
98 0.2549678064796259 0.1794406919373902
99 0.8471450619698438 0.11284757096874609
100 0.14771381777725556 0.5222224962576077
101 0.596288786652579 0.11681668233375819
DEMAND_SECTION
1 0
2 5
3 3
4 7
5 2
6 1
7 3
8 9
9 3
10 3
11 2
12 1
13 2
14 1
15 7
16 8
17 4
18 7
19 9
20 8
21 3
22 3
23 6
24 3
25 6
26 9
27 9
28 9
29 5
30 8
31 2
32 4
33 5
34 2
35 4
36 6
37 1
38 5
39 6
40 7
41 4
42 9
43 6
44 7
45 3
46 9
47 5
48 1
49 4
50 9
51 7
52 1
53 3
54 8
55 5
56 4
57 6
58 9
59 7
60 8
61 3
62 7
63 6
64 2
65 6
66 5
67 1
68 3
69 6
70 4
71 1
72 6
73 3
74 2
75 5
76 1
77 8
78 6
79 7
80 3
81 5
82 8
83 5
84 7
85 3
86 5
87 8
88 6
89 2
90 7
91 5
92 6
93 6
94 1
95 1
96 4
97 2
98 4
99 1
100 9
101 5
DEPOT_SECTION
1
-1
EOF
