NAME : gen100_037
COMMENT : uniform customers, demands 1..9, generated by bench/make_tuning_set.py
TYPE : CVRP
DIMENSION : 101
EDGE_WEIGHT_TYPE : EUC_2D
CAPACITY : 50
NODE_COORD_SECTION
1 0.18992830787364268 0.8277399260055671
2 0.23854290984437765 0.9483723771548295
3 0.9060076465667873 0.38732618886599757
4 0.5495747422509374 0.6697703790840438
5 0.2691200264208704 0.05530337633248561
6 0.6866123256083586 0.48043532476703166
7 0.5373221359942102 0.9407419642935693
8 0.21039314027413636 0.534315743022068
9 0.6363110650326624 0.5742390011330538
10 0.8621310521827237 0.633007169679046
11 0.9527613522608752 0.7103361740317927
12 0.6318410717261376 0.2940082422318192
13 0.5082139821762729 0.02320679906402434
14 0.2579812180904194 0.9276241422953057
15 0.35215655911971033 0.9455121770368177
16 0.8997631131004958 0.22021004209841133
17 0.2282884192808049 0.26983775284622735
18 0.03069015938298525 0.1283868491796496
19 0.555078036670586 0.1322254225895455
20 0.22755674794998138 0.06634617318165437
21 0.3619959150825083 0.9528556717134101
22 0.902730626348689 0.9810613220479822
23 0.5251815722046316 0.32751007681667665
24 0.6405315983783937 0.9521649152342567
25 0.9020233861310802 0.46891428637674293
26 0.5407269351377945 0.3392355910966075
27 0.5238895783880723 0.6182411030639559
28 0.4391286859875425 0.8196080223397497
29 0.9389011987276334 0.884067424800685
30 0.4692335072769023 0.6524500017608342
31 0.692728921150185 0.828813089590231
32 0.3307805437577326 0.5794222958633933
33 0.05437914903880625 0.4867554828131787
34 0.42035410692307795 0.43794354326699103
35 0.1468226387316347 0.5986188922269641
36 0.022696024647681612 0.1815742870653323
37 0.20578523778978852 0.791811037275781
38 0.27092086927015324 0.2819552833454354
39 0.8868435484655885 0.021705138656823997
40 0.9981718943396616 0.737941405094051
41 0.6612824971816244 0.21622188523721664
42 0.9264558225657481 0.5285668610010344
43 0.8112278341284072 0.8818941996111641
44 0.5867404038067615 0.4378005339608737
45 0.29851349732202104 0.5738673597138181
46 0.16366516215219284 0.015099781281788127
47 0.5516751166366948 0.002088865904418258
48 0.5130556238387144 0.23935587682981796
49 0.32474903727649596 0.05156726104153042
50 0.3577494005894064 0.08626527473893353
51 0.9725675527996299 0.5139830864275676
52 0.9926720843942447 0.0390213904301735
53 0.2484957529923435 0.4593493862787079
54 0.6128259587011264 0.7670408631136637
55 0.4102326732906605 0.1967475073517353
56 0.7371028981187324 0.40854538000924356
57 0.6099988876242453 0.4273118744184249
58 0.43159951644518013 0.6187692565295937
59 0.3375201997741345 0.6431673084684955
60 0.4075942620425348 0.32422051496887616
61 0.4763761459986293 0.0584184928370608
62 0.6371101545097461 0.8042167108881058
63 0.035652562852003356 0.9522969071064317
64 0.6639089676836801 0.3723144402034714
65 0.8028802877192271 0.8745258652798699
66 0.8565910527478213 0.8297547670034637
67 0.8374553661351646 0.9637132773850943
68 0.8833765516138382 0.4872304345688798
69 0.3783479709626949 0.364772725937866
70 0.8175081742216862 0.5566932036601222
71 0.07892077286208743 0.6251390988085986
72 0.6758194288824086 0.18320846377864708
73 0.7931105356824038 0.7032482488517013
74 0.21969357932122247 0.6907853739570127
75 0.48662563235075684 0.32916587869319314
76 0.44011173316748065 0.6893537477413126
77 0.2414623985053519 0.7811944951284288
78 0.32017210791940987 0.4586087453763842
79 0.4941554271742966 0.42723788273584296
80 0.44989499208655226 0.6754811040986028
81 0.6988583554496037 0.7000035123411363
82 0.36225156295690686 0.664890114356305
83 0.39672918612921027 0.7266804237185596
84 0.6013539136723871 0.13660335511966482
85 0.29421639377127395 0.7272036781319011
86 0.19772392234499414 0.19189225228612483
87 0.310770967078587 0.10984704050747907
88 0.6275376249580726 0.882675459103593
89 0.48586836547868606 0.2910546954507379
90 0.7884135959450774 0.8051320958561006
91 0.06206062929210432 0.49200726736679057
92 0.7168148802342243 0.7659077594590801
93 0.6336524485391654 0.38138209921146504
94 0.5698522598382322 0.6825237199402425
95 0.04006175932201972 0.392328692478776
96 0.31745168724510875 0.22274454082569972
97 0.6266693966366904 0.13171175199079643
98 0.16394740165790067 0.13264226434868476
99 0.09109780544737922 0.2398465913525354
100 0.021645852450514647 0.0068046874982958805
101 0.6101774888086033 0.9989888063774678
DEMAND_SECTION
1 0
2 6
3 1
4 5
5 3
6 2
7 8
8 7
9 4
10 6
11 6
12 8
13 5
14 7
15 7
16 5
17 2
18 2
19 9
20 3
21 4
22 9
23 4
24 5
25 1
26 7
27 5
28 3
29 3
30 2
31 9
32 8
33 8
34 3
35 3
36 7
37 1
38 2
39 1
40 5
41 3
42 5
43 9
44 9
45 8
46 8
47 2
48 1
49 6
50 3
51 4
52 1
53 4
54 1
55 4
56 1
57 4
58 9
59 1
60 9
61 7
62 6
63 2
64 8
65 2
66 4
67 1
68 6
69 6
70 9
71 3
72 2
73 7
74 1
75 1
76 4
77 5
78 7
79 2
80 3
81 6
82 6
83 1
84 2
85 8
86 9
87 9
88 2
89 1
90 4
91 9
92 4
93 1
94 4
95 8
96 4
97 3
98 6
99 3
100 1
101 4
DEPOT_SECTION
1
-1
EOF
