NAME : gen100_001
COMMENT : uniform customers, demands 1..9, generated by bench/make_tuning_set.py
TYPE : CVRP
DIMENSION : 101
EDGE_WEIGHT_TYPE : EUC_2D
CAPACITY : 50
NODE_COORD_SECTION
1 0.3733851730667843 0.890245542262829
2 0.063802885665316 0.12473520648667258
3 0.23171630067685578 0.5554170887543021
4 0.43710253335001203 0.06436706045425811
5 0.707804027101752 0.2523687078683817
6 0.6779100283258803 0.538640249769898
7 0.7045669378520766 0.5925502914788836
8 0.10951112122781748 0.7344939666440482
9 0.7485701328632783 0.11610152697165155
10 0.7205129051058058 0.9117072095990949
11 0.9788486920384503 0.7832415127326937
12 0.6158126005420825 0.6237084554212922
13 0.23604421277294385 0.5985554350204346
14 0.2418708102647067 0.665278018165681
15 0.5406024599456744 0.29155424574020294
16 0.7090350303116268 0.349705260109612
17 0.07282136250028648 0.5865465276733428
18 0.6775607245710975 0.9253409174663538
19 0.7328067181444281 0.9906564034874586
20 0.7107047897208492 0.7571130761922412
21 0.3467589622888251 0.4756399978178122
22 0.38730141404033924 0.3858084840784708
23 0.027388918548128638 0.9932566361883551
24 0.25404424718229446 0.9902689957477881
25 0.9571095870417646 0.09469964126562425
26 0.20510136303574855 0.16643596328944565
27 0.17648835134855423 0.38748942470775205
28 0.666079639157204 0.5055703629224116
29 0.272907765974728 0.10313106600654709
30 0.8427075426912717 0.3062540683833793
31 0.9227514676809303 0.7898205377991332
32 0.06586920750135972 0.9127527826017243
33 0.8592212663879271 0.9877377980984771
34 0.5926695690283441 0.4673688159942455
35 0.2567744514094894 0.4749032098449637
36 0.3065429372156847 0.2189075977726196
37 0.5347560994882635 0.4377651913112266
38 0.5220000928502703 0.44740149918607675
39 0.3061837399048224 0.04349739287888821
40 0.94307280785124 0.28456596812794976
41 0.7175470577092751 0.13923773874650114
42 0.262472413238809 0.22666183179454313
43 0.4058208877630257 0.9347353987288807
44 0.7154860400895448 0.5654167411131461
45 0.6477580281805893 0.8183364984363551
46 0.17566354553584917 0.9695666818174791
47 0.2546208295922866 0.6089317598575038
48 0.8276954328266016 0.2976964469301354
49 0.15019829785693406 0.08569320546177184
50 0.6009107226385284 0.8028933754724515
51 0.31116218533828743 0.16139527014872357
52 0.1019495074414195 0.2882808500889996
53 0.9959709322498858 0.15057600613650013
54 0.6874687986636969 0.03010208834875372
55 0.6176935129463652 0.07132684141943935
56 0.8308604040353703 0.5539939308088032
57 0.17259663361791822 0.4597424655133384
58 0.7889554714316092 0.048290523065457114
59 0.9629583728622038 0.33196661226158153
60 0.787971762237409 0.6242928265311465
61 0.3825150714728026 0.5261301176550011
62 0.3328980692598914 0.9184666467085275
63 0.5899779652924273 0.9952640742324571
64 0.49758074016961407 0.6631383639667213
65 0.47673286263198134 0.5281416842828561
66 0.27927848487236484 0.057175752833862115
67 0.6983736487127644 0.18032453547084526
68 0.8457452128740071 0.34077947968589106
69 0.8791158924625924 0.49304843134621035
70 0.051081240021460084 0.4320346685330997
71 0.19485124285211775 0.8077353097920924
72 0.36931856818429387 0.45350446496437513
73 0.9389145748860521 0.38749971905628466
74 0.7764040414082013 0.8728141527321254
75 0.05192456700110826 0.7097871134015825
76 0.8945870734764859 0.9343542459327853
77 0.164186205172001 0.8971960242932784
78 0.22834945353033287 0.19272347175651505
79 0.8860977174311162 0.5277806145483637
80 0.4700951434023717 0.10207233779197011
81 0.5211611102310497 0.6732228797971749
82 0.20880170204545878 0.7724118759742064
83 0.7773017522017723 0.6280576788935761
84 0.6584891278361331 0.4559487773799348
85 0.22366683137355603 0.179054891877669
86 0.1977096795821175 0.08314744105041494
87 0.6040290828089845 0.09821002302571546
88 0.9533719917035582 0.6913053406538354
89 0.681695732333611 0.5773561294699301
90 0.829738091597208 0.7475526223313848
91 0.563606649940612 0.9847722189748422
92 0.6664045918373175 0.4617278712500036
93 0.4926990116933183 0.43191943918481934
94 0.6372928123665031 0.15633028882052524
95 0.8210795492752555 0.03109200534302603
96 0.5656844808059676 0.1867642565070463
97 0.35793652390061703 0.48349454885315135
98 0.7807980935503177 0.7081798654684066
99 0.7458811544486248 0.505994075472846
100 0.2986945788172033 0.7813120096647821
101 0.3010954312422086 0.6356542917012771
DEMAND_SECTION
1 0
2 4
3 7
4 9
5 9
6 7
7 5
8 6
9 6
10 9
11 6
12 1
13 7
14 7
15 1
16 7
17 9
18 8
19 1
20 7
21 8
22 4
23 1
24 4
25 1
26 7
27 3
28 2
29 6
30 3
31 7
32 8
33 9
34 9
35 6
36 3
37 6
38 2
39 6
40 9
41 1
42 8
43 2
44 3
45 7
46 7
47 8
48 2
49 3
50 2
51 8
52 8
53 3
54 2
55 6
56 1
57 8
58 9
59 6
60 2
61 2
62 8
63 2
64 1
65 6
66 3
67 9
68 8
69 5
70 5
71 9
72 8
73 6
74 1
75 1
76 4
77 1
78 9
79 7
80 9
81 2
82 4
83 7
84 1
85 5
86 5
87 1
88 3
89 2
90 4
91 4
92 8
93 9
94 5
95 5
96 1
97 1
98 2
99 2
100 7
101 3
DEPOT_SECTION
1
-1
EOF
