NAME : gen100_021
COMMENT : uniform customers, demands 1..9, generated by bench/make_tuning_set.py
TYPE : CVRP
DIMENSION : 101
EDGE_WEIGHT_TYPE : EUC_2D
CAPACITY : 50
NODE_COORD_SECTION
1 0.4238667745623076 0.012075252026311545
2 0.40465905250517875 0.15560237105038033
3 0.5852632005913287 0.8353430109420755
4 0.8396251012368321 0.44496952120427236
5 0.8544557058093085 0.20109674615355466
6 0.8281764296799261 0.3968727782632372
7 0.8304308587604131 0.8841417540705654
8 0.5476009987375619 0.5769747389699529
9 0.7884284324892777 0.664197387744561
10 0.20827548421298026 0.5349390803633132
11 0.9949675841264817 0.2741864999127682
12 0.10203624415749357 0.5315864478440875
13 0.9297005958890431 0.3142962924978755
14 0.8087819161144887 0.369464132628307
15 0.05344219020558483 0.23282874239211782
16 0.7658039343330376 0.4450128983212185
17 0.145965040899946 0.2842070897583183
18 0.13714842183441633 0.5909134754330136
19 0.6642038374743819 0.4092835410686676
20 0.29638427269656176 0.9061956237484565
21 0.9840675755817753 0.276695293853504
22 0.7195181768093488 0.5174186023584358
23 0.3402859703748632 0.8504772672988145
24 0.570370258959131 0.9869644537273324
25 0.8860152933911628 0.28534917537945936
26 0.6043008473725489 0.9779722265714796
27 0.9864391997239604 0.26014176807549605
28 0.6464792696327473 0.3033528751594873
29 0.8271155210757682 0.7061319703050898
30 0.12175070674051747 0.5918446075848288
31 0.41720679760368895 0.9551792792995664
32 0.522901137205835 0.10880287129513166
33 0.6153501250747214 0.7459253890537265
34 0.511212343406705 0.08145165810232236
35 0.53095524930734 0.8381326871723843
36 0.6454886531206689 0.6538467045481302
37 0.5850153306849873 0.5688723040241648
38 0.5798906001372707 0.6301420203100135
39 0.5985412635506103 0.8361006032747819
40 0.6534860563623519 0.20673885916069568
41 0.7881943183772586 0.6945628998078253
42 0.827366731295548 0.7528338065081405
43 0.48537861976660535 0.898104959802845
44 0.35615061800784287 0.39303280473302693
45 0.34787590819886194 0.07936161007874454
46 0.5979382935856453 0.2247663191379501
47 0.517691526455511 0.2178178297781317
48 0.9636768884622903 0.3401276668961035
49 0.3497523089618474 0.001691170082201654
50 0.8361147354146098 0.5407979037507881
51 0.9440185270187431 0.574559837350911
52 0.5473198508696455 0.8375913677405584
53 0.021775082714545757 0.2626086070550171
54 0.4904427517434262 0.5378438532599634
55 0.04026147567458038 0.9635120282950125
56 0.11849369541108323 0.026087694411328965
57 0.7988043651528473 0.8163003771208394
58 0.3710161896511799 0.4694909637598005
59 0.08398669790147573 0.250919218468158
60 0.48124479938843223 0.9922901852361122
61 0.07373050601756448 0.5668985353079838
62 0.35185382066335213 0.6585630654756865
63 0.15081456004617377 0.6145479001006895
64 0.8697856785430512 0.17104488483090718
65 0.4964634249243932 0.5969740397632743
66 0.20253546652103638 0.17021694313317592
67 0.8572124780527105 0.8192292042871725
68 0.5744192567332316 0.41889216976237553
69 0.19685309728041622 0.8450424794719541
70 0.47177597312648845 0.04515012646559102
71 0.89564434668271 0.6544612618327322
72 0.19454205835459237 0.3535874927009982
73 0.33277858808111027 0.2871650309293179
74 0.7085006980646756 0.7498319624134574
75 0.1289422499274132 0.5813938079469115
76 0.8224938786328789 0.7364506119479299
77 0.20084512336522797 0.02461213636944215
78 0.18844008322878747 0.30934058033995704
79 0.7467400607400436 0.8981338014702144
80 0.6828473316803721 0.8213126082176937
81 0.20240928464449148 0.39785016775452275
82 0.04756606698926291 0.42438190451481117
83 0.7843308105035385 0.382980435658245
84 0.7603243832534154 0.01532575250572843
85 0.3348237634057414 0.36450700604078723
86 0.8175854431829478 0.6523104845562252
87 0.13615259826923876 0.8320314160805943
88 0.7661471020896494 0.5227180383038375
89 0.7583401277680389 0.09840427376745364
90 0.3612299138386402 0.6178693151817484
91 0.8821277711004645 0.34322992208148884
92 0.6908712697620866 0.056173756557976406
93 0.0713591010808513 0.950109966001478
94 0.29631986087870565 0.8511178259105728
95 0.686397891659479 0.8208292016666149
96 0.42262731468753023 0.7871899936023473
97 0.5540196159084554 0.28284751262766006
98 0.451019732614107 0.29217711710681726
99 0.8442221738519331 0.2873748485701355
100 0.6593881570294384 0.0521530547459047
101 0.13255758957506913 0.1719344497193135
DEMAND_SECTION
1 0
2 5
3 4
4 8
5 6
6 7
7 8
8 9
9 2
10 5
11 9
12 9
13 9
14 4
15 9
16 8
17 2
18 7
19 3
20 4
21 5
22 1
23 6
24 1
25 8
26 9
27 5
28 4
29 4
30 7
31 2
32 1
33 6
34 8
35 7
36 5
37 5
38 3
39 7
40 4
41 3
42 7
43 5
44 7
45 1
46 9
47 4
48 4
49 2
50 3
51 1
52 8
53 5
54 4
55 8
56 9
57 7
58 2
59 8
60 1
61 4
62 8
63 4
64 8
65 8
66 5
67 1
68 7
69 7
70 8
71 6
72 6
73 8
74 8
75 9
76 9
77 5
78 7
79 8
80 6
81 5
82 4
83 8
84 6
85 3
86 3
87 4
88 9
89 6
90 7
91 7
92 1
93 3
94 7
95 5
96 1
97 5
98 2
99 1
100 9
101 2
DEPOT_SECTION
1
-1
EOF
