NAME : gen100_022
COMMENT : uniform customers, demands 1..9, generated by bench/make_tuning_set.py
TYPE : CVRP
DIMENSION : 101
EDGE_WEIGHT_TYPE : EUC_2D
CAPACITY : 50
NODE_COORD_SECTION
1 0.7586088103005916 0.370217431705958
2 0.5712041550962331 0.8640194276033509
3 0.01614354961563702 0.5485048972990939
4 0.4289117802668255 0.9707361182511876
5 0.17013448755532712 0.7848361052264425
6 0.31438115554579005 0.08747206254843476
7 0.26080811860159503 0.5373463027941794
8 0.1025078741544524 0.545839528602249
9 0.30899873552848955 0.2638178344512879
10 0.9295012805575956 0.8739342193603304
11 0.8781094242180509 0.982391365266064
12 0.9621337541309524 0.577244467477127
13 0.48938501479901575 0.6056549783142388
14 0.24426257800143292 0.49911300148014914
15 0.09301541053346918 0.7451613745632402
16 0.10326754129372284 0.3353084339478417
17 0.47095274125586317 0.01664633364630219
18 0.6424775841920253 0.6934269070527711
19 0.16251379851824355 0.7422821449511203
20 0.3328389049239301 0.04084651120098981
21 0.1302697341453246 0.11199894241260278
22 0.9411008344770173 0.14865123501151034
23 0.24176851836903612 0.39504407526184304
24 0.700113858354486 0.6388979976117145
25 0.4864036293895049 0.16293566430520756
26 0.9930492687066027 0.7753584387661466
27 0.6057564117706719 0.9767847825099332
28 0.9638009928431586 0.4974797336832635
29 0.9086721770277784 0.12044931247828261
30 0.3489369771269685 0.5455852576052101
31 0.35823936545892177 0.5731574109749307
32 0.13995026963677215 0.2758990221219615
33 0.9721069906854957 0.6399415880202652
34 0.6762380717413017 0.3616193632800119
35 0.6967235979843146 0.20212187606395848
36 0.15556954619619856 0.8160581305085175
37 0.30628718299800417 0.25952420594645087
38 0.04245026315532163 0.9724694909238581
39 0.7652309564719451 0.8073184427831834
40 0.34579149123365405 0.31353987734200095
41 0.22918531162324451 0.13311717053062055
42 0.885125136898269 0.9619075299371073
43 0.7796973244054682 0.16795880206473002
44 0.9326690336212585 0.48914851064988085
45 0.5865392176317953 0.33685078052343465
46 0.7439678338617896 0.736975045965109
47 0.8812442379927853 0.9230139594637392
48 0.7417020101049581 0.7768819310516081
49 0.8307399762478461 0.6480118234332174
50 0.599389789968012 0.11897426503986397
51 0.4001817825719238 0.7508351698304365
52 0.0856550576983447 0.10150574080663233
53 0.317078106445442 0.9801746912849676
54 0.6823245617262067 0.15046508853286633
55 0.1700022088405999 0.5322892394001748
56 0.36261939841748314 0.5887106215355227
57 0.2833262425122919 0.46436156554053587
58 0.5292829728314907 0.9977178468407775
59 0.5294666184830151 0.9644042746059457
60 0.5668914088064968 0.17957898261127725
61 0.6663576965698685 0.4731533922307959
62 0.24158941768315556 0.8176640125849688
63 0.03015454864574285 0.84621716584118
64 0.7756860444267889 0.998768769970834
65 0.31162472322529555 0.8238799447363697
66 0.1151130411235396 0.16061276062303198
67 0.3547637284475875 0.7948056089525749
68 0.04204985431545272 0.3437514032451804
69 0.6094562610262778 0.7409553535630763
70 0.4991925683493651 0.5241432265014316
71 0.04354219082494992 0.5243480475069322
72 0.4143815090461881 0.006131155730464077
73 0.6634863209183588 0.862225511024551
74 0.3147989053448855 0.07039682174258777
75 0.5109225303451669 0.5041034850738649
76 0.9871658528150116 0.33839503129943216
77 0.1992714229096867 0.5483480051589881
78 0.013735177626987838 0.68497026137795
79 0.08705217871582782 0.04571933122010752
80 0.9527712293625867 0.7381322657617653
81 0.16684060035081227 0.15315974193581172
82 0.6409692768391547 0.5965741057347536
83 0.7691185932514385 0.37486150646259586
84 0.6279207842525036 0.8616531855771868
85 0.43503342294412817 0.2559133876151256
86 0.46304641159614357 0.25962007309639534
87 0.8821481452552926 0.11395644781585457
88 0.8532080082599998 0.4639698688628757
89 0.5441317941426216 0.13147492503526326
90 0.913882215143816 0.6102851359983119
91 0.2524695261053709 0.0006247683971243312
92 0.596981781091502 0.1730703298936308
93 0.5779497208420487 0.5143925228164181
94 0.5355328919344344 0.7811539482215794
95 0.22613932695083683 0.48273150971228207
96 0.7848535018433748 0.43676003158899745
97 0.9192156122779488 0.15809794695466117
98 0.016733042073777682 0.7639409459841013
99 0.3273774124641239 0.46580117075107264
100 0.6406698589106953 0.5806500588214866
101 0.6624286327029463 0.3036884787586167
DEMAND_SECTION
1 0
2 3
3 9
4 3
5 6
6 1
7 7
8 4
9 2
10 9
11 8
12 3
13 2
14 8
15 4
16 1
17 4
18 4
19 5
20 1
21 9
22 7
23 9
24 1
25 7
26 8
27 6
28 1
29 3
30 5
31 2
32 4
33 6
34 1
35 6
36 9
37 6
38 4
39 4
40 1
41 3
42 7
43 6
44 8
45 1
46 9
47 9
48 6
49 7
50 2
51 4
52 4
53 3
54 1
55 6
56 4
57 1
58 8
59 3
60 4
61 6
62 1
63 8
64 5
65 7
66 2
67 9
68 2
69 2
70 5
71 9
72 7
73 5
74 1
75 3
76 4
77 4
78 6
79 2
80 9
81 1
82 4
83 2
84 4
85 7
86 3
87 9
88 8
89 7
90 7
91 5
92 9
93 3
94 4
95 7
96 9
97 9
98 4
99 1
100 5
101 5
DEPOT_SECTION
1
-1
EOF
