NAME : gen100_019
COMMENT : uniform customers, demands 1..9, generated by bench/make_tuning_set.py
TYPE : CVRP
DIMENSION : 101
EDGE_WEIGHT_TYPE : EUC_2D
CAPACITY : 50
NODE_COORD_SECTION
1 0.08730357872557781 0.4926997305947619
2 0.7379749860635875 0.8645415601275365
3 0.12567377359260423 0.7044343764478666
4 0.16213211480659218 0.3763383834061014
5 0.6953314217257126 0.6949600447633204
6 0.7006551816507595 0.8237451648906892
7 0.027088716999922435 0.6236264640027298
8 0.15549325053699514 0.1237541116226476
9 0.605060767713125 0.7419794792540652
10 0.288119451709271 0.18397412353750542
11 0.45964637868785163 0.5993232764379797
12 0.4489602804200986 0.6693432199810089
13 0.5049818454055496 0.06563429847972357
14 0.47267918371344175 0.6953770967206877
15 0.924270819663423 0.16995448375633948
16 0.09530366394534684 0.5234604037095372
17 0.68240482719448 0.7770593414473201
18 0.4918869323612721 0.31103135546079264
19 0.8290246464156097 0.6628760631538413
20 0.023514409493545663 0.8530213720828926
21 0.5389388883663859 0.8708483322869837
22 0.039674536214886924 0.8315345859462968
23 0.24275321610122969 0.09151206800905198
24 0.11324393895218532 0.48113216903706746
25 0.6917272301137563 0.9582201970807596
26 0.16216636744076796 0.36012630359423525
27 0.49397984766044145 0.1868113861296823
28 0.3085050542781993 0.8201897948108042
29 0.5560417006193451 0.4946240292624573
30 0.15319082876736134 0.9894184664408179
31 0.0024437096730560715 0.9791065572421298
32 0.7108907640000073 0.245727419143711
33 0.40922499228305653 0.198339926440936
34 0.5965396767457528 0.05623445347807221
35 0.2520344964786113 0.7504876873124066
36 0.35408957365521376 0.013724135888938616
37 0.22430527389689559 0.18162879210520666
38 0.26355810674757363 0.012643680024218229
39 0.7567970060867913 0.2220309186668713
40 0.6475819031176031 0.07677630168441729
41 0.02504908599940403 0.8140796851979846
42 0.04388442636107481 0.834689375089733
43 0.23339123696997366 0.02203590674002176
44 0.4668785895425087 0.9292843986630436
45 0.691363886373092 0.8436674979402249
46 0.008355371745646711 0.4169479773252681
47 0.28185542429566046 0.2324265942829964
48 0.21144245949044693 0.20715203926054904
49 0.35279358571376596 0.43141330508839326
50 0.6806067386171624 0.7970651649988891
51 0.4521655604799877 0.8673171792417569
52 0.04860736990991643 0.8426699591827198
53 0.9950635177581169 0.5572763690697924
54 0.3356024746100944 0.8213705266165042
55 0.563475774561646 0.3065315196873214
56 0.5374053253143336 0.7363064759208607
57 0.22038967515688201 0.22441203648565955
58 0.15181853478565532 0.6530208380328679
59 0.44372862651761313 0.5306492927123143
60 0.0796645106602023 0.2165822015035832
61 0.11148284691076082 0.8890347373706042
62 0.8255534207033665 0.40808056057342357
63 0.9804631770423161 0.2684650995544292
64 0.8506034203392859 0.515894001877281
65 0.5500306674115101 0.9137815414474815
66 0.9008123237706466 0.7263137351826228
67 0.41176245296985403 0.041429838881520076
68 0.4948048222584406 0.6117291493642469
69 0.9546870907592793 0.7672331991625544
70 0.3978189992174812 0.2761391976096603
71 0.8620923248639023 0.5004039894737292
72 0.16566697075759307 0.1743520872229587
73 0.6931074355590415 0.2438989991301288
74 0.28066918940623664 0.1953313737476664
75 0.10514640867956071 0.14317660508827323
76 0.09659107911422515 0.06968267133017114
77 0.794024785630372 0.02623898262361024
78 0.17246347395248285 0.85568981608162
79 0.45106842049652685 0.47745938737551774
80 0.9219666167302433 0.7843582971243095
81 0.5199073427292554 0.4469465724443029
82 0.8399279302365359 0.6558264906341568
83 0.668031333245384 0.1533337267463114
84 0.41585756791418005 0.07489188421176274
85 0.035698192700944764 0.10186865442773718
86 0.7838196746524106 0.9227382943976677
87 0.8165972273265558 0.6214755723901976
88 0.841809803998024 0.4173960238829756
89 0.5353741782959143 0.21418751098957756
90 0.4301902574811348 0.10209108118030041
91 0.5600305483229189 0.24497959685724235
92 0.41511585364503767 0.5369838519272552
93 0.5089546766959826 0.42241926809935115
94 0.9646652144760366 0.36658307175466565
95 0.684515350673083 0.7684258895653449
96 0.7586297117752335 0.08908955070755242
97 0.9964015493100342 0.9235804756189209
98 0.8026077915120414 0.1405730548894083
99 0.19189830498432725 0.38905004640612195
100 0.37941414461598266 0.9689670897130829
101 0.8820084046090664 0.13304319810193987
DEMAND_SECTION
1 0
2 2
3 9
4 7
5 4
6 7
7 8
8 1
9 3
10 2
11 9
12 2
13 3
14 8
15 6
16 8
17 7
18 5
19 7
20 5
21 2
22 7
23 4
24 3
25 4
26 3
27 1
28 5
29 2
30 2
31 5
32 5
33 7
34 5
35 6
36 1
37 8
38 9
39 3
40 4
41 4
42 4
43 6
44 9
45 1
46 6
47 7
48 5
49 7
50 8
51 1
52 3
53 3
54 5
55 3
56 9
57 6
58 9
59 1
60 8
61 1
62 9
63 2
64 2
65 4
66 2
67 4
68 3
69 7
70 9
71 2
72 5
73 7
74 4
75 5
76 2
77 2
78 1
79 3
80 7
81 4
82 2
83 9
84 8
85 9
86 8
87 3
88 2
89 7
90 1
91 2
92 7
93 1
94 3
95 6
96 3
97 3
98 9
99 7
100 1
101 6
DEPOT_SECTION
1
-1
EOF
