NAME : gen100_039
COMMENT : uniform customers, demands 1..9, generated by bench/make_tuning_set.py
TYPE : CVRP
DIMENSION : 101
EDGE_WEIGHT_TYPE : EUC_2D
CAPACITY : 50
NODE_COORD_SECTION
1 0.27242083969783726 0.9882256276079889
2 0.9896566022144591 0.6167925874025059
3 0.8920435212120753 0.6028494552848433
4 0.17796503859923807 0.43129313159675775
5 0.9562589612480361 0.5211779778481204
6 0.6831254978451141 0.37285677893536395
7 0.9667896385615812 0.21961303394095766
8 0.10936093768454935 0.03230938850833065
9 0.32220430939989153 0.5706118244952113
10 0.9592933646190657 0.7773267431364161
11 0.2846812621307777 0.12136100937079353
12 0.08461856218037611 0.6505054694817939
13 0.5853315605109783 0.33791722997993434
14 0.6594486477944012 0.1684019108184428
15 0.3702435590512776 0.8988856408747321
16 0.7331031917112565 0.1375268882552596
17 0.9191551125955221 0.32559221071153877
18 0.8686153449765903 0.4109259878004473
19 0.8886610389094186 0.13411820358755855
20 0.12890207443864676 0.2356788768106748
21 0.5841894116103632 0.5016429275431822
22 0.8803649573668801 0.9904902907618727
23 0.18829625173470899 0.30008575830891604
24 0.4748784760588134 0.10419300905734907
25 0.7104457775675007 0.7685779908470066
26 0.9288271151983919 0.9841895731667989
27 0.639668311360613 0.0539400477652614
28 0.8206375895303082 0.14685404752340814
29 0.23739048977243893 0.629981855500958
30 0.15957053878174654 0.6753190727505777
31 0.8642629691447984 0.36228873674486095
32 0.4472937420489643 0.6675970154423
33 0.7697232800954937 0.052574234392544494
34 0.5191435335806649 0.16245525620432466
35 0.09490632766586926 0.1763013487775894
36 0.3907419777084641 0.5691007598543616
37 0.4315585054552856 0.44891839926358346
38 0.35716887638232686 0.5247149287539428
39 0.179816334840587 0.7626662815647154
40 0.31051103449228745 0.5104641838968672
41 0.29925887375604054 0.21027175848458302
42 0.9997065360571675 0.038030549903007915
43 0.9757852494672047 0.7081039849262953
44 0.8303654039165224 0.23755537622210343
45 0.003978867531624575 0.9734262383837852
46 0.4649412708790843 0.6546577334761065
47 0.9864223322230307 0.37042801865723507
48 0.9080126542278917 0.8350359698124346
49 0.008795046773587778 0.6280903134232728
50 0.3536150854453768 0.8213377039149202
51 0.5532247506888908 0.2289396003910954
52 0.9838403369371838 0.9307406862055801
53 0.09109291088435512 0.9031133002695058
54 0.15217407130320904 0.7431988927980733
55 0.4388089537365426 0.9764125629951366
56 0.45043739683387407 0.21865633486463742
57 0.27873834925926866 0.3051495226455193
58 0.8279220999101394 0.292676334419677
59 0.8319900025028979 0.017782243380402463
60 0.7270739335355205 0.5447542730084347
61 0.5436425230292123 0.8059171804388698
62 0.9826506771069351 0.7266773819087541
63 0.5959062197137331 0.5229763374166301
64 0.592576425867035 0.6627464826577268
65 0.37526220466454874 0.4205194434131697
66 0.82568018578986 0.42689415037459244
67 0.41748648948900413 0.195683862666439
68 0.3122493262671673 0.04628693607217793
69 0.5756520745787197 0.10767596830875736
70 0.33685521222912496 0.341892155703477
71 0.6652481919880748 0.09309803198086986
72 0.05904445823699922 0.15663056480519721
73 0.7838043405264525 0.18105227372737753
74 0.17045821187003884 0.17799706753885658
75 0.43787210578876035 0.7924787946835568
76 0.984291362081544 0.4791724127779189
77 0.5209987626364395 0.5447305856127558
78 0.3539957603373758 0.5770070973732971
79 0.0673918913511401 0.6248429258965869
80 0.47170700399517107 0.6744349372303736
81 0.6442093030639828 0.4291592037050921
82 0.056105130735225384 0.941036748281562
83 0.3463357263148493 0.5948254756403911
84 0.6048423719095888 0.815865662551082
85 0.05567086610440908 0.9203360677985785
86 0.7515466970861455 0.4772781134649846
87 0.28065408399902203 0.9044302086257665
88 0.5824336300681678 0.7131407357634497
89 0.7568602860632934 0.2882806768617793
90 0.16033236457397182 0.8638957528988079
91 0.8968143655926166 0.3959020109510736
92 0.3660605122795958 0.3214507581407192
93 0.6183303456377691 0.5735564180539049
94 0.5699994341751907 0.22226439228508355
95 0.26258216673523604 0.35745630500485326
96 0.37271232829359946 0.2238813429324954
97 0.4356765575990931 0.6184097368394127
98 0.7231796022383039 0.18503883709869096
99 0.8673142803238815 0.7541868202134512
100 0.5321732332486956 0.1345974031885202
101 0.20021097709091396 0.29540932364168315
DEMAND_SECTION
1 0
2 2
3 8
4 1
5 4
6 5
7 1
8 5
9 7
10 1
11 1
12 4
13 7
14 3
15 9
16 8
17 8
18 6
19 6
20 1
21 3
22 4
23 3
24 4
25 4
26 9
27 5
28 9
29 4
30 5
31 2
32 1
33 4
34 2
35 4
36 8
37 2
38 5
39 7
40 5
41 3
42 1
43 8
44 6
45 5
46 5
47 1
48 2
49 2
50 6
51 3
52 7
53 4
54 9
55 1
56 2
57 5
58 5
59 1
60 1
61 4
62 7
63 5
64 9
65 5
66 3
67 6
68 6
69 1
70 8
71 7
72 4
73 8
74 1
75 1
76 2
77 1
78 3
79 4
80 6
81 8
82 9
83 2
84 9
85 3
86 1
87 1
88 9
89 5
90 1
91 7
92 7
93 4
94 3
95 5
96 3
97 7
98 7
99 4
100 8
101 4
DEPOT_SECTION
1
-1
EOF
