NAME : gen100_008
COMMENT : uniform customers, demands 1..9, generated by bench/make_tuning_set.py
TYPE : CVRP
DIMENSION : 101
EDGE_WEIGHT_TYPE : EUC_2D
CAPACITY : 50
NODE_COORD_SECTION
1 0.4246824581032569 0.20253681861450912
2 0.08865302453342616 0.25060714913928317
3 0.16182758505789396 0.03450794087946418
4 0.907795265332317 0.6078821810738083
5 0.8737658776619137 0.94688242095806
6 0.09086455017430217 0.8396707384934129
7 0.8152263898023199 0.06846446410272056
8 0.15330691174700106 0.35973212671287036
9 0.2632751612456249 0.8096960346885799
10 0.2748746135609481 0.7293854118330079
11 0.4394507742115299 0.7876041667892605
12 0.22371087359097752 0.4804626309631964
13 0.49174376902116923 0.17330447638199908
14 0.5498699628611864 0.7271401912730162
15 0.47789183053689754 0.9749156263940479
16 0.7205170480844822 0.04219181874716793
17 0.4873975230680577 0.17325576101822038
18 0.5291729479774443 0.7144100882335962
19 0.8750364921240076 0.45734442577738954
20 0.090378844732662 0.8912850310878221
21 0.18725194767560338 0.9374299984078089
22 0.21082283277190494 0.7637176807691095
23 0.5213069304034708 0.7012983803427557
24 0.6230205179757148 0.3371346016467581
25 0.10091666744010863 0.17557314006631697
26 0.7822760749971673 0.5075996970835022
27 0.7989093015223553 0.7732477563106255
28 0.8757541310729993 0.9052584011117881
29 0.4623817475473392 0.30502512509540225
30 0.3481269380140798 0.10786155189180491
31 0.7016459347633931 0.08427316788477768
32 0.7145959483755822 0.677563552016998
33 0.6444585543317078 0.6172605768227803
34 0.2763416536583778 0.3890556010112196
35 0.3933019840179164 0.6293078640419978
36 0.07051086565476561 0.2854857168793872
37 0.38722576296149547 0.08929004326851153
38 0.28081611877745194 0.7360806697493756
39 0.9042109285403115 0.29994215608259167
40 0.18186647338736184 0.6569615482742233
41 0.8330799348836275 0.6970354121856919
42 0.12454673959388884 0.6328520469632988
43 0.006803419287379153 0.4955278577832922
44 0.2032837064311055 0.6590894440563904
45 0.10061418038682912 0.5696399202511662
46 0.9759627082787959 0.4702403288612583
47 0.7220771952552053 0.04995148624728796
48 0.868263403446372 0.9299952463611327
49 0.7464731123363845 0.8657931869897063
50 0.8948766345870901 0.3871982224967735
51 0.3388435018761635 0.8026844912518268
52 0.8752127209493521 0.08532524776443862
53 0.29256455686635796 0.536208596569436
54 0.06553327274233423 0.17486374385805836
55 0.9370981269956039 0.22149410722049567
56 0.011181102962073974 0.551676952877045
57 0.48998870330203725 0.33039817441259756
58 0.7081536689228776 0.8831086200078803
59 0.13143337188672355 0.04666991239176588
60 0.134541903206696 0.9133816844119145
61 0.7799686767257283 0.21246930227684924
62 0.9601023934784749 0.5776074264032417
63 0.9645511897695996 0.51606052699704
64 0.005338176285795582 0.6682191294749159
65 0.41740984629509115 0.01806795167037245
66 0.0308353290228075 0.1865139123098677
67 0.5118228719640612 0.1475502521910116
68 0.5259078963996704 0.43756525088907794
69 0.01590756376743807 0.6145191452493114
70 0.653294746040213 0.9260301373445473
71 0.19218618877818516 0.4119622339331822
72 0.6645652733370164 0.382863241125729
73 0.9884260050838883 0.49945636657055514
74 0.11913835876528855 0.4379015779569594
75 0.6407697611747073 0.2663169562621086
76 0.9743145425457992 0.7919135386026322
77 0.36067337293777835 0.36462965292444993
78 0.5501020079773493 0.14867982014926084
79 0.3627386295545709 0.5876545331442031
80 0.7395330165620659 2.3327649425142205e-05
81 0.5395129401471371 0.6360351302921571
82 0.9479330302183899 0.3053961103558902
83 0.5617408177989361 0.9804523255205239
84 0.4504497841066596 0.05188972901406208
85 0.28563628804308183 0.0695584212673882
86 0.36942863565583417 0.31943816835476857
87 0.8793325656832514 0.9415191791314359
88 0.46533547747678283 0.9550991942767876
89 0.4812818397604893 0.2224860842251214
90 0.777875239031949 0.6992649029380347
91 0.1357102863404922 0.07010496474788053
92 0.6389661812832224 0.3890034171150919
93 0.3469061191915598 0.1417311807352174
94 0.21757722647372468 0.28474641576867565
95 0.7164871275196587 0.08722675483495246
96 0.7238061873778957 0.35136447270773874
97 0.1512953926833448 0.2624210785159238
98 0.023788108075756487 0.382859818677593
99 0.7603893735473405 0.32403433796430736
100 0.6776152570369199 0.7494480987385722
101 0.9015013507570591 0.6939191326270437
DEMAND_SECTION
1 0
2 3
3 2
4 4
5 4
6 2
7 6
8 4
9 8
10 9
11 6
12 7
13 2
14 7
15 1
16 5
17 7
18 1
19 7
20 1
21 5
22 3
23 2
24 7
25 5
26 6
27 8
28 6
29 1
30 6
31 7
32 4
33 9
34 6
35 4
36 6
37 6
38 4
39 8
40 5
41 8
42 1
43 7
44 6
45 2
46 8
47 1
48 9
49 6
50 3
51 7
52 7
53 1
54 3
55 2
56 8
57 9
58 1
59 4
60 2
61 3
62 4
63 3
64 7
65 3
66 6
67 6
68 3
69 9
70 7
71 5
72 5
73 6
74 6
75 2
76 2
77 5
78 5
79 4
80 9
81 7
82 8
83 5
84 8
85 1
86 6
87 2
88 2
89 2
90 4
91 7
92 2
93 2
94 2
95 1
96 9
97 5
98 2
99 1
100 9
101 6
DEPOT_SECTION
1
-1
EOF
