NAME : gen100_029
COMMENT : uniform customers, demands 1..9, generated by bench/make_tuning_set.py
TYPE : CVRP
DIMENSION : 101
EDGE_WEIGHT_TYPE : EUC_2D
CAPACITY : 50
NODE_COORD_SECTION
1 0.6060875907472464 0.2047925788173507
2 0.5961740714084616 0.29490452562224445
3 0.4178802644176035 0.3185996567562491
4 0.48590300768486794 0.17818198508819105
5 0.9323930453892877 0.25753230270143623
6 0.9350389360150085 0.9988449579146053
7 0.7046914010705391 0.3865866422316889
8 0.2723815181572077 0.33704541348395767
9 0.4840055970054039 0.14704923520534274
10 0.8144928977658369 0.0406183848720143
11 0.8171409675306293 0.742230305851784
12 0.8726308639682598 0.23969646267875122
13 0.02366508849278892 0.06987650103800236
14 0.27010937760902765 0.8295747792193772
15 0.9586277654023961 0.6607574531502299
16 0.25751816867029786 0.9189961293712712
17 0.10263812385449966 0.05709110644445592
18 0.0430718952913729 0.7313390255351874
19 0.2866512724561452 0.8741117164164014
20 0.5934320708927746 0.4946302079590218
21 0.7459329806432942 0.3083142597025793
22 0.653955292051988 0.8244036900280798
23 0.9488010454666846 0.049497754637477964
24 0.8415763888187479 0.3051560652922878
25 0.33968339330153463 0.12325719976721938
26 0.8125619556307383 0.5457136976522273
27 0.5154256708220255 0.8169384827072347
28 0.5443420514924409 0.6329587928937541
29 0.9815579438047595 0.06884389310176942
30 0.6426175492241464 0.8404637765031194
31 0.391863696728476 0.09381280967577688
32 0.9785584380223139 0.5675093688059085
33 0.7218978772400608 0.28012442974289664
34 0.23829986868099373 0.6666888142563048
35 0.26266221223641595 0.3291863987748115
36 0.30232331477655716 0.8024261020800738
37 0.16470220219414788 0.5765227805073527
38 0.2852897896858533 0.8570190366411704
39 0.12850846807961425 0.17143839146401885
40 0.7546122762028483 0.06776071404345141
41 0.009526446181885029 0.743554476002841
42 0.5159056570087344 0.03416577735794557
43 0.7988971877397791 0.1720374416897017
44 0.5217982987007749 0.9211308199234971
45 0.5269703139651234 0.9930543953227616
46 0.432589784298278 0.2757856241358113
47 0.23161908197455583 0.08978213031349747
48 0.636402752410476 0.6481776846219874
49 0.6101618320551899 0.003534949787205477
50 0.9799328293077493 0.9980850614884677
51 0.9365446369235373 0.8591492888856976
52 0.18979675480089164 0.3606966207442216
53 0.16034273546689926 0.47009125201325297
54 0.5838719476383505 0.037782642971553315
55 0.7948493709882885 0.35798000281902953
56 0.8734807548944149 0.9698993547370441
57 0.02070972747381794 0.8394235806545186
58 0.7617210021473397 0.05684568061991291
59 0.438185662259268 0.8521391929728088
60 0.8279535320065575 0.837315345653824
61 0.6401999658532439 0.19750537428323356
62 0.05120247699119551 0.7758536649757796
63 0.5280572335898794 0.4732030719780488
64 0.47293176787830093 0.9153987654376113
65 0.7856876913816971 0.6047767126708359
66 0.4523966314210326 0.34925037649642565
67 0.6454105421515229 0.7130935744109976
68 0.46565053483412444 0.983250794106699
69 0.6874985437557714 0.43605729673943994
70 0.6506841229628173 0.6619892467821782
71 0.4543655755490392 0.7909836599026507
72 0.428841251627584 0.487820462228433
73 0.8951291405444894 0.9932945501749146
74 0.079358812788908 0.4485913949052185
75 0.6529349602906247 0.7839381455216117
76 0.5409961445575472 0.4817835520843008
77 0.7564942697995282 0.1551090692117233
78 0.7467851467688951 0.22236523966340027
79 0.09918210947859019 0.513914128232845
80 0.4340562302107731 0.12543645774768342
81 0.2684901779275636 0.3214200461050709
82 0.7970014090626732 0.8374928525769312
83 0.8765185886667869 0.4420517600177404
84 0.13279112854534147 0.7393672721626062
85 0.7440592501377882 0.7304957401309259
86 0.3604589899626949 0.5332648422108922
87 0.8817943482157099 0.6658085098790641
88 0.46791916632074426 0.6325517657981108
89 0.9560025030619379 0.006475543673639894
90 0.6535792719914885 0.6508921732158166
91 0.11518527302901482 0.9902946730795695
92 0.022302955522202184 0.41332217016937467
93 0.5528667082674235 0.8760530123641069
94 0.6115290838769079 0.6540734701510685
95 0.5601487522247977 0.12827283607048778
96 0.7845577369646993 0.2882254209879418
97 0.6187521485680537 0.7642713918810875
98 0.854492808985642 0.22875902404671433
99 0.8058458080004391 0.683336138164513
100 0.055810766003004275 0.5724819125274918
101 0.4598129266615246 0.691867616919459
DEMAND_SECTION
1 0
2 7
3 6
4 8
5 8
6 2
7 1
8 5
9 8
10 5
11 3
12 9
13 1
14 9
15 5
16 6
17 4
18 8
19 2
20 8
21 3
22 2
23 7
24 2
25 2
26 2
27 2
28 5
29 6
30 2
31 1
32 6
33 4
34 4
35 7
36 1
37 2
38 7
39 6
40 3
41 3
42 8
43 2
44 1
45 9
46 2
47 7
48 1
49 5
50 6
51 4
52 9
53 8
54 8
55 7
56 7
57 6
58 1
59 9
60 7
61 4
62 2
63 1
64 7
65 5
66 5
67 8
68 8
69 3
70 4
71 9
72 2
73 1
74 4
75 2
76 4
77 3
78 7
79 4
80 7
81 7
82 2
83 4
84 8
85 9
86 9
87 5
88 9
89 4
90 2
91 4
92 8
93 9
94 1
95 3
96 5
97 2
98 6
99 1
100 1
101 3
DEPOT_SECTION
1
-1
EOF
