NAME : gen100_009
COMMENT : uniform customers, demands 1..9, generated by bench/make_tuning_set.py
TYPE : CVRP
DIMENSION : 101
EDGE_WEIGHT_TYPE : EUC_2D
CAPACITY : 50
NODE_COORD_SECTION
1 0.5620545083933938 0.1831190363067896
2 0.9482946111962981 0.5154911103118088
3 0.904406736964998 0.01901152623975011
4 0.9522373073402078 0.34603489366356677
5 0.8300876081761785 0.7045411745673775
6 0.29884318604882343 0.11561824443924051
7 0.7652029610977724 0.33312239432120805
8 0.37200633522231685 0.342082665863529
9 0.18127432155472334 0.44478543561215156
10 0.1358249029938281 0.8118629784546055
11 0.41648566550020183 0.850445109550298
12 0.14995380052522478 0.4421112656516448
13 0.9004502104692159 0.2913793238588832
14 0.5172812346715353 0.11902344876055537
15 0.1927216277600713 0.158149543134957
16 0.43238689071609937 0.9971966346246159
17 0.7716956721655422 0.28474457691307486
18 0.77516899325958 0.5764891005484012
19 0.7401776629748124 0.3000021541522794
20 0.838402490750567 0.09913547768457187
21 0.9506563782327815 0.798603674453245
22 0.9762869721078234 0.7969344952842116
23 0.3284721678067114 0.09434585010059937
24 0.1968676995049795 0.2343865845965104
25 0.2369129760217663 0.23722530537631348
26 0.5809329505766656 0.9543066236614953
27 0.3251705762575917 0.5191039490976531
28 0.31274023132244677 0.45020001060308934
29 0.044831948955392886 0.3666176862492563
30 0.3561731412585034 0.03254706619080827
31 0.9632243235219009 0.16356425890517068
32 0.6870383294651183 0.7577565631859002
33 0.7814210606827393 0.6701917213730179
34 0.6217755717329705 0.09760707004222557
35 0.7376932766930091 0.7224698058685325
36 0.6964447529037551 0.7917627487070628
37 0.41697276010568596 0.01794061394549462
38 0.8419918095493054 0.15448235415449174
39 0.8330557084927773 0.7953450436130497
40 0.363342841215088 0.7893991071909805
41 0.351526056510127 0.65362033990921
42 0.19935234607488406 0.17555415889623016
43 0.4873003536577074 0.42224256017205575
44 0.3198428146107418 0.2227495621414166
45 0.022578681229783126 0.5320507536617333
46 0.03390952402323233 0.044186502273993344
47 0.5369613583640166 0.4874028836530119
48 0.5554164710523367 0.6123915990852878
49 0.025320777299927322 0.4472849971096109
50 0.932089201588439 0.8929698764766165
51 0.0350831965737749 0.44595646839254843
52 0.7937330105127952 0.06935926818569438
53 0.26424662912477104 0.33193916783754274
54 0.5641238400805745 0.507582817582227
55 0.9227747133501443 0.618228473751276
56 0.47222354473589656 0.2477553771981874
57 0.4937306108287348 0.21291049798176398
58 0.8968479554678517 0.5751173431621298
59 0.7645971718387539 0.6479020899359769
60 0.38188451538384716 0.36762188945915353
61 0.570314416444802 0.09842045651671438
62 0.7073429692683171 0.8511150641037708
63 0.2137362661731137 0.648054752692913
64 0.7787331743863856 0.6893507145753061
65 0.4049131479789614 0.34933211465452096
66 0.6478405481441045 0.4790924409187246
67 0.11907755046432977 0.6997168907973965
68 0.7613464524507132 0.3173231522343132
69 0.13956303414303084 0.9534006449760107
70 0.5718747902427114 0.5130274545629484
71 0.17938127015021887 0.2624054637429385
72 0.8634185652013525 0.036446619198779895
73 0.7825430601543165 0.5704490132584475
74 0.09412510036791999 0.8922106987494823
75 0.9030402153674666 0.18628796354840882
76 0.4833756617115441 0.9912253822293887
77 0.7330139749993428 0.7836502497193352
78 0.4064450344914168 0.8900740823706281
79 0.865636276182769 0.8796458330234262
80 0.7938834186972792 0.5944737251883349
81 0.026752258820449182 0.23025063745029495
82 0.4578180262625833 0.15248339058043459
83 0.9566626197816711 0.6838650876066704
84 0.1835204935096848 0.327746600567247
85 0.12890313058380898 0.3407384160529401
86 0.041809898159298586 0.05867838656932278
87 0.09498602760459718 0.1234587083542995
88 0.5181129662587912 0.3582187633205346
89 0.7940918493833822 0.5631065628152614
90 0.6349328527153417 0.5797910268470985
91 0.865975534825637 0.3417853201424321
92 0.21119527408801253 0.4955513243227768
93 0.22304368701756028 0.7520033142380671
94 0.7830677396654031 0.7778970077169871
95 0.6442966751052611 0.24413439007756788
96 0.22331469469905496 0.703193676853452
97 0.7994195236560036 0.1331284858047399
98 0.45260564612775334 0.609408983464866
99 0.3324931627189237 0.02088975362160095
100 0.7091568599517818 0.4200572491070277
101 0.07437733305241967 0.4858552653683531
DEMAND_SECTION
1 0
2 3
3 1
4 3
5 7
6 7
7 6
8 8
9 3
10 5
11 4
12 7
13 2
14 3
15 9
16 4
17 4
18 4
19 9
20 8
21 8
22 5
23 5
24 6
25 6
26 2
27 5
28 5
29 3
30 2
31 1
32 3
33 4
34 2
35 7
36 7
37 5
38 9
39 7
40 9
41 2
42 9
43 3
44 4
45 9
46 9
47 1
48 5
49 5
50 3
51 8
52 2
53 5
54 4
55 7
56 7
57 4
58 7
59 2
60 7
61 6
62 4
63 3
64 5
65 8
66 8
67 7
68 3
69 2
70 9
71 8
72 7
73 9
74 5
75 1
76 3
77 9
78 2
79 9
80 1
81 2
82 9
83 7
84 8
85 3
86 8
87 1
88 2
89 3
90 6
91 9
92 6
93 5
94 2
95 7
96 4
97 6
98 3
99 3
100 8
101 2
DEPOT_SECTION
1
-1
EOF
