NAME : gen100_025
COMMENT : uniform customers, demands 1..9, generated by bench/make_tuning_set.py
TYPE : CVRP
DIMENSION : 101
EDGE_WEIGHT_TYPE : EUC_2D
CAPACITY : 50
NODE_COORD_SECTION
1 0.15790305935409543 0.024324016729564746
2 0.7937756209754003 0.20089342395775134
3 0.3696625075568887 0.5281588242229008
4 0.22817633550442828 0.8145798091223446
5 0.5781002513417883 0.2846173777451352
6 0.6292811662504144 0.10904406032032243
7 0.7263347149329556 0.42350884068650485
8 0.859377787323458 0.028769388358712678
9 0.5354923114103644 0.3378513506395896
10 0.9843042335060729 0.5690498391752694
11 0.0028195841021833035 0.1914465114659618
12 0.3518312496037088 0.36053771428096426
13 0.7526562169144683 0.9399130748440712
14 0.5755694835342531 0.10401614513891821
15 0.7768634884851503 0.7277236497487332
16 0.8477952490122974 0.055358227944542704
17 0.7462338065100741 0.10704765250216708
18 0.9786054406358706 0.14797692272281526
19 0.40801576208858337 0.5449316955055398
20 0.4223870797624615 0.1860518175172815
21 0.26345110470338906 0.3577029558629291
22 0.4420788682675959 0.7920553674107718
23 0.8693088019794002 0.07904449182473983
24 0.6982870749844636 0.5570178395603396
25 0.9206894022068104 0.5080819299983632
26 0.6272639338413318 0.7740409469056898
27 0.7463847358288203 0.5056136431368223
28 0.44551652523693963 0.3423061802462769
29 0.05369860830662121 0.7705017366567075
30 0.3344419467757649 0.18797907357502097
31 0.09055526004291148 0.33096067938814167
32 0.16777999161842838 0.18333295289258233
33 0.3128269048511847 0.19085372990448768
34 0.8158691278453427 0.3074135359972834
35 0.653892279981768 0.7865123709634941
36 0.6661753086108066 0.7369856555253212
37 0.23077373764380815 0.004861077682747461
38 0.24926496264988085 0.23069301899978578
39 0.8305612662200195 0.6684516817904416
40 0.24192196745296202 0.16162333702514253
41 0.029042996145233202 0.8106488555731383
42 0.8702973732924133 0.660270964526686
43 0.39422341464815647 0.2145525295660059
44 0.4413674199972254 0.9092174589725813
45 0.5717592225433417 0.373430383309848
46 0.8873209070783161 0.23859342388200688
47 0.08478898511962063 0.1462659416834241
48 0.3606410868578239 0.7632361980927074
49 0.44444199796857664 0.8993715399574338
50 0.5111234334959038 0.7516745506827657
51 0.917027836356778 0.4339950686712669
52 0.10300643103448204 0.6436086455589111
53 0.3268096367476476 0.08000719300230075
54 0.9460964820746776 0.17223161563967604
55 0.3107991895331361 0.9664607418789251
56 0.8503265608042013 0.6615812096374228
57 0.3853483044420004 0.8951708465369619
58 0.26636573487430404 0.7309066729202827
59 0.011244241680825495 0.8256443918009533
60 0.9288824588867577 0.179157700749924
61 0.41475046434694185 0.4793792976435485
62 0.2824547307957487 0.752182162291269
63 0.03966864058926034 0.4260383700919398
64 0.2926250684056567 0.591840224840435
65 0.04995172814943516 0.24001162285571953
66 0.6549321490820759 0.4865902243289435
67 0.3750390071002748 0.6969907716417354
68 0.009767214047219586 0.7447005848329564
69 0.8698596003891406 0.6967126204814197
70 0.36665643832897166 0.4032167144172917
71 0.8984876829005769 0.9442765927914859
72 0.45123830709101354 0.9676695456011555
73 0.7472549575906947 0.9951839682139112
74 0.9441682104597444 0.9267169469246509
75 0.09469938593955607 0.8732948018706035
76 0.4168968665092032 0.2846661243727646
77 0.9209285194937652 0.9731544764227915
78 0.7802014202912652 0.7972026044379804
79 0.48355030907775687 0.192180834379437
80 0.9101366449400338 0.9781245432179922
81 0.45150628959547257 0.6493541827694466
82 0.04984443113095893 0.6311089037843751
83 0.8990109534274017 0.994521320432311
84 0.6062773185887201 0.9989883128706029
85 0.39817562053122946 0.4781144838218142
86 0.11763903361266193 0.022100152359102454
87 0.7831383103470678 0.9059223685398625
88 0.6507114550908003 0.7437614456176662
89 0.1613847220667648 0.26818060908695074
90 0.1426950648462677 0.9440939114368452
91 0.6667118322898884 0.6225568758513448
92 0.92877946178224 0.9454741701482766
93 0.3013419097095379 0.21817491702479197
94 0.6175086233768898 0.9447356912303257
95 0.8576483640236061 0.9903988788537476
96 0.035774121200788156 0.5168859191944604
97 0.9618085788393527 0.6645868401127902
98 0.06153184775884957 0.16980836064234206
99 0.7722146196078704 0.1416031586877824
100 0.1020661914391432 0.0513990247639291
101 0.9394152178767008 0.4696551995107128
DEMAND_SECTION
1 0
2 3
3 9
4 7
5 4
6 1
7 4
8 5
9 3
10 3
11 5
12 1
13 4
14 1
15 9
16 3
17 6
18 5
19 7
20 1
21 2
22 9
23 8
24 3
25 1
26 2
27 2
28 6
29 7
30 7
31 7
32 3
33 6
34 3
35 7
36 9
37 4
38 8
39 1
40 7
41 3
42 1
43 3
44 2
45 3
46 1
47 3
48 2
49 2
50 9
51 8
52 3
53 3
54 7
55 1
56 4
57 1
58 4
59 8
60 6
61 4
62 2
63 7
64 3
65 6
66 5
67 2
68 5
69 4
70 5
71 9
72 8
73 8
74 1
75 4
76 1
77 6
78 4
79 4
80 1
81 5
82 9
83 7
84 5
85 4
86 2
87 8
88 7
89 2
90 4
91 5
92 6
93 7
94 6
95 4
96 7
97 8
98 6
99 6
100 5
101 5
DEPOT_SECTION
1
-1
EOF
