NAME : gen100_015
COMMENT : uniform customers, demands 1..9, generated by bench/make_tuning_set.py
TYPE : CVRP
DIMENSION : 101
EDGE_WEIGHT_TYPE : EUC_2D
CAPACITY : 50
NODE_COORD_SECTION
1 0.8501930891977995 0.3987268589551589
2 0.3350725989594088 0.9939934919015765
3 0.7710828507473884 0.3307346610363914
4 0.9106930200242375 0.7969278187984019
5 0.5968383065099945 0.35751031492663354
6 0.36241057212727734 0.3579190439719093
7 0.6028802298508924 0.5452932865517066
8 0.28319430623475783 0.4550881077525142
9 0.26768767856085895 0.8283230510579592
10 0.7014815807498401 0.5823702437890166
11 0.8167177942916691 0.18228950473656147
12 0.5904375966517871 0.38149232280565604
13 0.25135578802143677 0.2643381379244315
14 0.2725720224194218 0.5903682906100426
15 0.1637740127332773 0.8753340051028581
16 0.41775026397576154 0.4216482221037585
17 0.22813985322460706 0.5571268952058553
18 0.46386384719593055 0.3581706013281234
19 0.07121718353925588 0.7380347669752478
20 0.5133669867382948 0.18731519054190382
21 0.37550671569959404 0.1634280193547205
22 0.28363405491871063 0.7709357776217157
23 0.8376551048345451 0.8286352227091811
24 0.05823219750398578 0.6472140798144779
25 0.9512947916732385 0.6265508332755847
26 0.7948469642784434 0.32464441947370937
27 0.8035499406314365 0.9584931591723225
28 0.028005493640028245 0.5343695706859897
29 0.9862358858920665 0.2690229045728664
30 0.1859314762340638 0.14585029561897844
31 0.20157176635309104 0.2496486652969545
32 0.7812578884463975 0.7360070841951831
33 0.876728719690153 0.5114323463262741
34 0.937934879639451 0.8305528057673506
35 0.021115132649945023 0.4059979777936553
36 0.6206078526424293 0.6768162029722771
37 0.8857182244289794 0.9886896708701345
38 0.6606085567572785 0.5447155755682125
39 0.392082652047707 0.9891525815290866
40 0.40794487810982005 0.17027710142054941
41 0.5377472145865799 0.618562560749683
42 0.10943498119622408 0.9936944122089038
43 0.6750020384767713 0.011934557809477941
44 0.7327697624536436 0.658054987261968
45 0.3085336276349163 0.06018321868793597
46 0.07301798379494728 0.2572929424334889
47 0.9704910282739111 0.6304058740255285
48 0.6140489977882934 0.5023284027068885
49 0.18735453463821938 0.17155487495296373
50 0.04977243445860846 0.7898252195961384
51 0.41053408128463487 0.843177095182034
52 0.14325166862864425 0.7922201481762651
53 0.3683234886675777 0.045920923905858446
54 0.7371396262266264 0.8943350927965774
55 0.7344262104326604 0.8700829440295551
56 0.03626229585171159 0.7239561605746955
57 0.7514486410790685 0.9941801728205107
58 0.600311259451309 0.011063503583993217
59 0.6176561734278201 0.6301635502903281
60 0.7873487527473986 0.8216473000280684
61 0.5310772528116638 0.2297167712173238
62 0.40322745205226107 0.8510562766584366
63 0.9045210902826682 0.8168141296303381
64 0.378493405799297 0.7282184694048663
65 0.605103181363763 0.7979190724848695
66 0.9553116187503357 0.9734621754639047
67 0.6787235145031749 0.1918741727753528
68 0.61861913544308 0.9784363300742935
69 0.6485196018807066 0.9389707486778979
70 0.08949809073301707 0.3460202154099431
71 0.7792839221804799 0.8218758926916462
72 0.559015594626713 0.9809292474085173
73 0.4245823339331436 0.13854704865641132
74 0.47150341061094525 0.5180428208017684
75 0.5573283828952221 0.7652899835487752
76 0.023307034767417134 0.11113192376296466
77 0.16559069182195008 0.9444081735405951
78 0.019302733924599913 0.09253964435914741
79 0.1242088377717262 0.0818466075628046
80 0.07157481568598956 0.11881402208010927
81 0.9355182310781955 0.2812615501989627
82 0.8233436416042833 0.7496521967919989
83 0.6234211478266121 0.9042057459955187
84 0.6191941411803158 0.33517386823864626
85 0.13934531899892377 0.15181559400007882
86 0.0566617600367092 0.5169217686149447
87 0.6345304627460552 0.9502931653935933
88 0.2842551582691425 0.7942832900169201
89 0.6243797293247294 0.48343279255394844
90 0.6376150982668418 0.40766367982148466
91 0.8330392581925206 0.8816979167942445
92 0.6225228928599754 0.8293127525598738
93 0.7087988953742581 0.8388394075145338
94 0.668787766155331 0.03972716739964488
95 0.16025365979100026 0.5611504293667906
96 0.06273638708655727 0.44620934789407884
97 0.39067571450985183 0.35488268773337217
98 0.764176224216661 0.7357643571759858
99 0.20796249571527492 0.35083934079774737
100 0.31543821448106546 0.12823770921294653
101 0.3540075477994279 0.42914659522920573
DEMAND_SECTION
1 0
2 7
3 1
4 5
5 4
6 4
7 2
8 3
9 4
10 1
11 5
12 5
13 5
14 4
15 3
16 1
17 6
18 6
19 6
20 9
21 8
22 6
23 5
24 2
25 6
26 3
27 2
28 2
29 2
30 6
31 2
32 8
33 1
34 6
35 6
36 8
37 1
38 6
39 8
40 9
41 8
42 1
43 6
44 5
45 9
46 5
47 7
48 9
49 2
50 9
51 7
52 1
53 4
54 7
55 4
56 4
57 4
58 3
59 8
60 6
61 2
62 6
63 3
64 8
65 7
66 2
67 8
68 9
69 2
70 7
71 1
72 7
73 7
74 1
75 6
76 9
77 1
78 8
79 6
80 5
81 1
82 2
83 9
84 8
85 7
86 8
87 5
88 6
89 4
90 2
91 4
92 9
93 9
94 3
95 4
96 1
97 4
98 9
99 3
100 1
101 2
DEPOT_SECTION
1
-1
EOF
