NAME : gen100_032
COMMENT : uniform customers, demands 1..9, generated by bench/make_tuning_set.py
TYPE : CVRP
DIMENSION : 101
EDGE_WEIGHT_TYPE : EUC_2D
CAPACITY : 50
NODE_COORD_SECTION
1 0.06892418735530748 0.48111324367680464
2 0.9733142909498221 0.47546028634431614
3 0.2090363281628712 0.9162544773125332
4 0.06376167702308999 0.3608218646529332
5 0.7305022879726496 0.9730032782880939
6 0.19439085529360678 0.414568439822951
7 0.9293266438241832 0.34394201436161786
8 0.20564979509842252 0.6084224812163804
9 0.5572582864750356 0.49618141982797925
10 0.37962136411881886 0.9213805380251778
11 0.19986616824293002 0.8838812552663295
12 0.24316910488433274 0.46184104484455557
13 0.9482672167419345 0.06465912762921378
14 0.5047162285690013 0.7379953776646843
15 0.8719559845074972 0.3284097669856455
16 0.5014860179960876 0.18903770020390365
17 0.7944603668812165 0.8341645746080649
18 0.39446000049902874 0.5866378181762771
19 0.4917414417608371 0.1274044239344555
20 0.5803975655554272 0.0783342589808832
21 0.22243348164107168 0.7544028305651583
22 0.7653528096458859 0.8372771850310465
23 0.38919648312741806 0.5829108428067911
24 0.6790289272955398 0.47940509153436683
25 0.4863082516011963 0.2490837481996383
26 0.9294214027996975 0.09114798378143885
27 0.3309936722352429 0.8572037297561758
28 0.9190229560855602 0.23291722537681303
29 0.9796769714830514 0.8864580684178442
30 0.41815153727251597 0.7879318313887933
31 0.7564919893448341 0.7733025457682684
32 0.2410888902688192 0.449073069085805
33 0.004211316991197478 0.0633470068784423
34 0.33050864944138814 0.009992793067718275
35 0.22161619166750723 0.24173830143641706
36 0.5213247408079793 0.06964352058477175
37 0.5950034940984812 0.9378301758936651
38 0.6662668673187956 0.5160425201921461
39 0.743653813199154 0.3239338755041641
40 0.7811465569740279 0.733050057523806
41 0.667836403901164 0.005740987165647082
42 0.9971137136295319 0.2632698322336767
43 0.2645018909622002 0.5178798170324377
44 0.24215512598669797 0.667774339304257
45 0.6850517840346294 0.6910238552820073
46 0.9155066088449686 0.5914987065595149
47 0.11452411779327021 0.6674437777555943
48 0.9713733704265226 0.615729836580176
49 0.9215841315218871 0.14427419703771927
50 0.40463447335106417 0.7771084914597803
51 0.4710785375529155 0.5533156125127887
52 0.6305452843834731 0.925171585923797
53 0.6207962914065642 0.5209267561144418
54 0.2573783202331815 0.407256241920372
55 0.6965535573986922 0.019761343809745924
56 0.8974097824542658 0.9289080253511014
57 0.9863690785830475 0.6528743991458456
58 0.2644109865509905 0.33526952996160075
59 0.9651179433751585 0.18033285333532434
60 0.46406958906003903 0.9720089184419388
61 0.9386077325968883 0.6871899497613674
62 0.24491737344451547 0.5667026245184259
63 0.6330620074797075 0.9820661292950713
64 0.8856912710329152 0.22019393627335448
65 0.5402391677501162 0.039302730428831256
66 0.6196632137187178 0.25683448825272615
67 0.9397144522195638 0.25872987415045756
68 0.0012565030457618587 0.13153827002314078
69 0.6056462713952702 0.3515931930904732
70 0.3818095583606804 0.26270625999329833
71 0.7976360090631125 0.7009906456470726
72 0.1366831759949524 0.7624411420458422
73 0.8101850072285858 0.29153445935396693
74 0.14543964047470082 0.024622014255105684
75 0.4104936223030876 0.6496657700737012
76 0.11005374201276719 0.2897959623034865
77 0.24264054676530955 0.5367024318502401
78 0.7680147072470793 0.32685899061162527
79 0.7944170868313071 0.751173599061994
80 0.06696675268382613 0.23414464200121365
81 0.29620941916809806 0.09547176962080928
82 0.32894926372699373 0.6598008864418325
83 0.4516613859252324 0.6110085150949707
84 0.7741937400207737 0.545184131067403
85 0.06735324826554456 0.8153048056984218
86 0.5720963267060701 0.5814880207183384
87 0.4036884485746447 0.7532137284835769
88 0.06816332366306532 0.40278354887196377
89 0.8254687052473751 0.49928045983113833
90 0.9590852229233262 0.7189202358900197
91 0.15559872099177785 0.008701214155985126
92 0.24520883299872065 0.4294164950819692
93 0.2909986452818135 0.5637426239330783
94 0.06922228883244985 0.8850960751171685
95 0.9367979341092566 0.6700798412176296
96 0.840810613202247 0.45740366195058413
97 0.6684815555360882 0.3520994296413825
98 0.029613114510067873 0.16620321855500975
99 0.4964700627521892 0.5926626919623595
100 0.18084967097460503 0.7336039499525673
101 0.6705940357313991 0.8011774603282432
DEMAND_SECTION
1 0
2 7
3 3
4 4
5 5
6 7
7 8
8 1
9 6
10 3
11 3
12 8
13 3
14 5
15 7
16 4
17 2
18 9
19 1
20 6
21 1
22 2
23 9
24 1
25 8
26 9
27 7
28 6
29 8
30 6
31 2
32 7
33 7
34 1
35 7
36 3
37 2
38 9
39 9
40 8
41 8
42 6
43 4
44 4
45 8
46 4
47 6
48 9
49 2
50 8
51 9
52 1
53 2
54 9
55 4
56 1
57 9
58 9
59 3
60 2
61 4
62 1
63 5
64 3
65 4
66 6
67 4
68 9
69 6
70 9
71 7
72 6
73 3
74 8
75 8
76 3
77 8
78 2
79 9
80 3
81 2
82 3
83 9
84 5
85 6
86 3
87 1
88 8
89 5
90 3
91 8
92 2
93 5
94 4
95 6
96 6
97 5
98 8
99 5
100 9
101 4
DEPOT_SECTION
1
-1
EOF
