NAME : gen100_000
COMMENT : uniform customers, demands 1..9, generated by bench/make_tuning_set.py
TYPE : CVRP
DIMENSION : 101
EDGE_WEIGHT_TYPE : EUC_2D
CAPACITY : 50
NODE_COORD_SECTION
1 0.5443754370004004 0.42639086006618776
2 0.5391936372099864 0.4918798560263392
3 0.7532889122910807 0.7081637974793122
4 0.1570604078352159 0.7437478865218745
5 0.5116397509685876 0.764311266254761
6 0.30201098198941423 0.7060119058056628
7 0.3514606996122439 0.343777345313507
8 0.11779395949456128 0.15265703119854968
9 0.42091591889605273 0.44522335229257426
10 0.6733526854950461 0.1828070210418795
11 0.15686363137807924 0.9713178058266874
12 0.38343551402455356 0.7453533912972086
13 0.36868028651483886 0.735443226616856
14 0.6347495969499664 0.13354275374043278
15 0.7074562375627403 0.08327199534507468
16 0.10591584310498037 0.9516455752342052
17 0.011814719495414905 0.19188532483847975
18 0.11311772610760074 0.15416619533041753
19 0.08240482764465418 0.15880909530758247
20 0.6714216589385581 0.3539662762481275
21 0.6011652907808743 0.007979462025902273
22 0.6014112798101916 0.32836808834256714
23 0.2122103188391632 0.2000689341980756
24 0.27229453502901046 0.8684939977822393
25 0.6495889939747612 0.19120038496857739
26 0.333159765778676 0.723860451426195
27 0.15467375626373125 0.3253555902983384
28 0.8283501891273223 0.44890999584496705
29 0.9279012618767604 0.8264893244517137
30 0.27967492796431603 0.021074571541772946
31 0.09426223318883431 0.23829769263640221
32 0.6223578563823952 0.005847501312320147
33 0.3536877729783168 0.8734534289176393
34 0.9249818298540032 0.5444641484798626
35 0.12994242327089423 0.5536968765483876
36 0.7205781080514274 0.2002285957166885
37 0.19891435912614197 0.32029771692261233
38 0.6295495057026832 0.3162498507517596
39 0.926824306960375 0.40331307123298243
40 0.13098268516660583 0.5015571695056422
41 0.15870909620459606 0.6787245887185603
42 0.3201104914119747 0.5608151244028241
43 0.6591541727964192 0.08968048992812505
44 0.681305766194743 0.17201890890262428
45 0.4329703660703832 0.5009126788078981
46 0.8589636178281379 0.2978400000454625
47 0.7799991220817801 0.9371639758439724
48 0.16679672677174406 0.7604070944782687
49 0.9884843901044611 0.7418616743480245
50 0.3401151198477653 0.33576612944346507
51 0.9008830149894551 0.7280147191596631
52 0.16179814657906277 0.035598410732682995
53 0.3216393812730497 0.6702863189934984
54 0.8794833498673916 0.6271973563480912
55 0.0035510208182439884 0.6783992772633631
56 0.8347716955819451 0.9863806974847785
57 0.5982125935240684 0.5924944494798499
58 0.7493984124904738 0.9479859117429311
59 0.5659721200304624 0.16856414615091364
60 0.857212945463441 0.08829020147066524
61 0.1855963918189425 0.3650148444395551
62 0.6847799320311264 0.6324475026830254
63 0.5479795137053052 0.7571199494212154
64 0.6431716911923622 0.03438614784912564
65 0.146468276068915 0.9931853570402185
66 0.6993433203090332 0.7541486512445201
67 0.9303393817632464 0.5803788252166782
68 0.48111955640364745 0.576832746531489
69 0.3994035094482512 0.9686949189971507
70 0.1142436584079487 0.6820116481599371
71 0.6653895546469513 0.06950630916301115
72 0.6846349392658636 0.8136975958020772
73 0.07169148066138276 0.1020420708639247
74 0.6771570325403774 0.44502352442772375
75 0.15611681524622667 0.774678354954825
76 0.6924498481369027 0.42255883931003635
77 0.6519211897591496 0.6684873892043488
78 0.634510711971889 0.7672301622292095
79 0.8725438533838339 0.31711499425053946
80 0.10692173163665653 0.4601862713093121
81 0.6689772330775234 0.3428168015764246
82 0.7755499005723048 0.13963199425999318
83 0.06281154621420781 0.2625816686729231
84 0.46150653241047446 0.07782695786318639
85 0.6294002264023663 0.3776446945579607
86 0.7000150037734647 0.9952960477554087
87 0.4912662675985866 0.614457020805466
88 0.271751325929944 0.8188004130881671
89 0.6916721372753183 0.10284824082698274
90 0.1282144004830883 0.399282596650942
91 0.07815602520753762 0.04257512289148513
92 0.2502378670502028 0.5287219894878366
93 0.5548173054142949 0.3943567264658234
94 0.8856077486037166 0.11150222330071702
95 0.6971255658505591 0.7663124944855231
96 0.26411597992376334 0.5898689787395228
97 0.44704837732229685 0.5984088743585158
98 0.30313024061286353 0.9477460841241333
99 0.32689933262180737 0.6097119872268708
100 0.584108371422282 0.46591489992805024
101 0.7207590479467308 0.10624655658877191
DEMAND_SECTION
1 0
2 4
3 7
4 5
5 1
6 3
7 6
8 9
9 5
10 9
11 3
12 9
13 9
14 8
15 3
16 7
17 5
18 9
19 6
20 9
21 7
22 2
23 3
24 1
25 8
26 5
27 3
28 3
29 4
30 8
31 6
32 3
33 8
34 3
35 9
36 7
37 2
38 2
39 9
40 7
41 5
42 9
43 8
44 3
45 4
46 7
47 4
48 3
49 3
50 9
51 7
52 8
53 4
54 9
55 4
56 5
57 8
58 8
59 9
60 1
61 7
62 7
63 6
64 5
65 3
66 5
67 4
68 6
69 9
70 9
71 5
72 8
73 4
74 7
75 7
76 2
77 8
78 3
79 8
80 6
81 1
82 4
83 3
84 2
85 2
86 6
87 3
88 6
89 4
90 4
91 8
92 6
93 8
94 6
95 7
96 5
97 3
98 2
99 3
100 1
101 8
DEPOT_SECTION
1
-1
EOF
