NAME : gen100_020
COMMENT : uniform customers, demands 1..9, generated by bench/make_tuning_set.py
TYPE : CVRP
DIMENSION : 101
EDGE_WEIGHT_TYPE : EUC_2D
CAPACITY : 50
NODE_COORD_SECTION
1 0.593868129871281 0.44039086892686596
2 0.8772892339594037 0.40529921687125137
3 0.2758947191510539 0.08471207131819103
4 0.8721159103314764 0.2042276854745153
5 0.8234772024306347 0.41447021947049567
6 0.6823376346020988 0.8907030197056983
7 0.09839780312427138 0.11974763142317923
8 0.8286269436407352 0.21609028724010215
9 0.6251142744784803 0.6333540145666642
10 0.14779819713875386 0.10356028514064641
11 0.8447283035511332 0.17980058063250404
12 0.30214767575538015 0.9961253444755004
13 0.8934626955602853 0.9201191946588357
14 0.567867235547805 0.37709074583807156
15 0.03911394756715214 0.8230344658312283
16 0.5795617336225124 0.727589646647145
17 0.417412759273184 0.9586799482844296
18 0.8398642621706547 0.9028730668947995
19 0.17088463267555154 0.10974341304589197
20 0.18637375506406284 0.5422638528406364
21 0.18755950699743373 0.9867076082277004
22 0.8526064319625299 0.7344983119716383
23 0.4165824144693233 0.8661766744698332
24 0.4141105908103727 0.5262610727012889
25 0.36148337233486916 0.3496935363104311
26 0.9573748577395035 0.2528488152921037
27 0.37768604455251664 0.6268061972118291
28 0.7227576356662646 0.23285951488474133
29 0.49175620977248624 0.9436895211188243
30 0.6369812507466985 0.18366390283308065
31 0.7855181375639431 0.16183149570152733
32 0.6171875443235303 0.06621797281426522
33 0.17994546407381495 0.6314406885852865
34 0.3997101086688887 0.07994264256808647
35 0.9420237827527421 0.8908125843951489
36 0.8211828920897951 0.8747857410304664
37 0.9897122710238208 0.8253899346452038
38 0.48232134839686513 0.895507393413922
39 0.6867525230809222 0.14784338712570455
40 0.2293052416901965 0.8426507656090336
41 0.048469161207484124 0.500587786376236
42 0.464597840375907 0.18732578197788563
43 0.2904430535828568 0.3453922366643669
44 0.4560612537046821 0.3374631853479184
45 0.9390633282786176 0.48380219680663084
46 0.44122594397391923 0.5446058301773974
47 0.6081675002185183 0.19380907151597593
48 0.3743525565207505 0.8103046466449573
49 0.33499966512206214 0.654412242815997
50 0.8688790444622344 0.16529619857764621
51 0.7937463388598428 0.6860700577069813
52 0.35550238950803936 0.36175702780168306
53 0.33790851919541876 0.5446200247741642
54 0.5640278009721127 0.029365855377396777
55 0.8610425270880421 0.41028351890319603
56 0.02782400183410172 0.2246929313143401
57 0.6872221382466407 0.5978741173339198
58 0.2831132902422847 0.8213559477562187
59 0.7469923977224955 0.39716126715688316
60 0.27289104021281885 0.8104148259637567
61 0.6911048855325275 0.6610438492811701
62 0.724459784911696 0.7115745215758588
63 0.9900785308740521 0.9078633989780289
64 0.8355740070032862 0.5335121786101708
65 0.21905878413889557 0.7152374320852584
66 0.21567481453976234 0.4880649509554441
67 0.09772483987743164 0.5015785373617097
68 0.06942430741210448 0.21640554869637363
69 0.3282590630510469 0.46214721023385164
70 0.818941529230499 0.03550759409157567
71 0.4032053851838382 0.38262212549799524
72 0.29580879843674324 0.7804781900768744
73 0.5885811794981152 0.8181820842260317
74 0.4626456846026906 0.7632254377359108
75 0.03602957810289997 0.09336153292066962
76 0.7505226475429396 0.4834892614496332
77 0.570029852215236 0.1397409752080816
78 0.2925154498795052 0.9464672330669776
79 0.872146064509883 0.9902439225785148
80 0.20239869135824828 0.7747742994683493
81 0.021777171942840123 0.2730154898094387
82 0.3824747515735064 0.9411467590494146
83 0.9437363189869623 0.25620198042588016
84 0.41890715973848724 0.34054667122171445
85 0.1330879703612039 0.8319311691702351
86 0.82816169646947 0.648770705179872
87 0.9535604104005498 0.5959060061448139
88 0.2094684785351495 0.2759073471215492
89 0.03079854670250204 0.3159005985714711
90 0.20334309628932135 0.689985727823607
91 0.8393155883134193 0.9925197838413119
92 0.40753485738875184 0.7459929914624402
93 0.09486038084648851 0.10570924256054959
94 0.8085985708657529 0.26925745449353566
95 0.33027929037966663 0.8659500643027765
96 0.22032772914614251 0.7515928157156567
97 0.9491483052201368 0.5627609189994648
98 0.18266571825622824 0.14599104538513796
99 0.054553749251420314 0.007132096975428048
100 0.3277504113523244 0.7435119896267735
101 0.559559178428698 0.6949798216815969
DEMAND_SECTION
1 0
2 2
3 2
4 8
5 3
6 7
7 6
8 5
9 9
10 9
11 4
12 2
13 5
14 1
15 3
16 8
17 6
18 7
19 3
20 6
21 9
22 6
23 7
24 4
25 4
26 5
27 5
28 3
29 7
30 1
31 1
32 9
33 8
34 6
35 8
36 3
37 4
38 9
39 6
40 8
41 2
42 1
43 2
44 4
45 6
46 4
47 5
48 9
49 8
50 1
51 3
52 2
53 5
54 4
55 8
56 1
57 9
58 3
59 7
60 7
61 8
62 5
63 8
64 4
65 8
66 2
67 4
68 9
69 2
70 5
71 2
72 9
73 9
74 3
75 8
76 8
77 3
78 4
79 2
80 3
81 4
82 5
83 4
84 1
85 2
86 8
87 1
88 7
89 3
90 9
91 4
92 4
93 6
94 5
95 3
96 9
97 9
98 6
99 5
100 2
101 4
DEPOT_SECTION
1
-1
EOF
