NAME : gen100_014
COMMENT : uniform customers, demands 1..9, generated by bench/make_tuning_set.py
TYPE : CVRP
DIMENSION : 101
EDGE_WEIGHT_TYPE : EUC_2D
CAPACITY : 50
NODE_COORD_SECTION
1 0.0724938367508261 0.8692599146964114
2 0.6830802249199683 0.26373713323810943
3 0.6738419144462325 0.43012193735165216
4 0.019328133512846013 0.6828512759170721
5 0.6324913915362734 0.3523525754925587
6 0.3569640873986941 0.3956989476674201
7 0.8766913480943986 0.649269649530261
8 0.4521466709690922 0.6867097082649591
9 0.6413990215621141 0.3820597622831927
10 0.3740069361712206 0.08574367073126399
11 0.45913026533755086 0.983909517891348
12 0.6211436301815483 0.408161671974945
13 0.5460463759822014 0.5466000152185763
14 0.9174931479885907 0.0718775888822275
15 0.5955795599088747 0.8851923824153729
16 0.9070837994578658 0.16010812214939896
17 0.754442848655132 0.6782674993337166
18 0.7666483691160135 0.4569472244974848
19 0.8305854844546424 0.00900995363676893
20 0.10038702838108726 0.7077304557026924
21 0.03742579476194596 0.4321512526997402
22 0.6341023282445288 0.3412889603567575
23 0.7670052481586216 0.536773151464621
24 0.39231599463761424 0.9965294852339304
25 0.7272426331985079 0.2203893836600519
26 0.8840102512466383 0.38378724419207344
27 0.5536467520748782 0.20288876805321188
28 0.3381725315051437 0.5582695856555672
29 0.5113741171401425 0.6188888128214626
30 0.03755004540773821 0.16161782361895694
31 0.44404725735115014 0.5084583991580612
32 0.42417515924655846 0.9882459539202474
33 0.846255474119417 0.8681364757987552
34 0.2795088031840024 0.9467745409652292
35 0.5348076154037733 0.32944071884488835
36 0.8180322329596589 0.01243745188176204
37 0.3143376455431923 0.7964967560245396
38 0.08370673346137214 0.11366774456059647
39 0.8666841948051193 0.7244499659081097
40 0.804839128211646 0.864715870945889
41 0.9224576433121748 0.00936854951920929
42 0.9912191577091596 0.8638886026744155
43 0.07167987927427133 0.499415051683349
44 0.9408054219757799 0.6219611228490528
45 0.23001254710376684 0.15670337966731496
46 0.6414258903128828 0.2814836057121418
47 0.8143762050257323 0.05238065740038289
48 0.7245638257330577 0.720003854678444
49 0.35438545176562664 0.7105476718855263
50 0.13007423315247924 0.03760881564811547
51 0.9978475322835477 0.17218914553949682
52 0.21379109851127487 0.5506521314454349
53 0.8298243841538004 0.7776702462415934
54 0.5463388775827175 0.02381649490876081
55 0.7652087734893573 0.17823357639519943
56 0.8204250841762375 0.47334123337470413
57 0.7890861568984773 0.3592623369285749
58 0.6465505821459664 0.6801382756350945
59 0.9291674718771167 0.974675438489507
60 0.4199830054712401 0.734767994867957
61 0.6638590291959976 0.6522791224729487
62 0.39093119702991486 0.5761465320825837
63 0.3865660015428406 0.5874009536760411
64 0.02750362713467558 0.7651838355502715
65 0.645603404311998 0.7068150962047185
66 0.5159423839434463 0.6077104867725787
67 0.6106077369915044 0.337494419387219
68 0.6855402790450624 0.9188204964220967
69 0.7030121212749287 0.560456573503624
70 0.5099014021967222 0.35740844096285695
71 0.7450011101077686 0.3419869663935101
72 0.7328113440004379 0.7343558488768468
73 0.8468231149358835 0.5204257344701504
74 0.7557316452376605 0.038774547290977734
75 0.7064668862199069 0.7259355717396123
76 0.45177544590828644 0.06134189227674658
77 0.8968262224619753 0.5305085185461478
78 0.35050995559978126 0.6875247945535835
79 0.4831246655048974 0.5740992154986746
80 0.35230552408058713 0.895446075247327
81 0.6852652216895361 0.9860732964692019
82 0.729643920704239 0.5870171272801562
83 0.7011138898111499 0.6951434228656997
84 0.3666722184218364 0.23737661903861607
85 0.2906727924593735 0.9463078165045347
86 0.343360804811331 0.7884861077443621
87 0.6109015243313384 0.3624887448523879
88 0.32411299046514386 0.3651309276013067
89 0.42651175934358243 0.8779825205205357
90 0.21468592944210863 0.9027175742326121
91 0.37110114029251884 0.7952128036823358
92 0.3290757648929221 0.41972458775129584
93 0.6670035571372174 0.7778102238720506
94 0.010470687477198592 0.7714818479873571
95 0.09067429091292545 0.06823931505147407
96 0.5292474327203632 0.7213393848035146
97 0.72213327577067 0.9747958115139567
98 0.8713918083738126 0.8726984579200864
99 0.8193436752821046 0.4402910529019014
100 0.5290696029391365 0.08150204301774122
101 0.8712581175398045 0.43047954877307637
DEMAND_SECTION
1 0
2 1
3 8
4 3
5 9
6 9
7 3
8 7
9 6
10 5
11 4
12 8
13 8
14 8
15 6
16 1
17 8
18 4
19 9
20 5
21 5
22 4
23 4
24 5
25 4
26 4
27 4
28 2
29 7
30 6
31 5
32 3
33 2
34 2
35 2
36 2
37 3
38 2
39 7
40 7
41 2
42 2
43 8
44 3
45 1
46 7
47 4
48 4
49 9
50 4
51 4
52 7
53 8
54 2
55 7
56 2
57 8
58 5
59 3
60 4
61 6
62 8
63 5
64 8
65 9
66 3
67 3
68 1
69 7
70 8
71 1
72 3
73 7
74 7
75 5
76 7
77 4
78 7
79 9
80 1
81 4
82 6
83 9
84 1
85 6
86 8
87 8
88 6
89 7
90 8
91 1
92 2
93 9
94 8
95 5
96 4
97 3
98 9
99 2
100 2
101 5
DEPOT_SECTION
1
-1
EOF
