NAME : gen100_026
COMMENT : uniform customers, demands 1..9, generated by bench/make_tuning_set.py
TYPE : CVRP
DIMENSION : 101
EDGE_WEIGHT_TYPE : EUC_2D
CAPACITY : 50
NODE_COORD_SECTION
1 0.16897215898519324 0.7891808444553596
2 0.6484493065252551 0.7631500854547163
3 0.28700177362866974 0.5023298856449061
4 0.5995688380154298 0.21364101110985856
5 0.9826827715778328 0.1514904425767417
6 0.5388833465346328 0.885300353721409
7 0.9687586778276646 0.9337398938799282
8 0.6667013672229837 0.3229270752933394
9 0.8953010356702609 0.08281349752675848
10 0.6571987765129891 0.3422486316785318
11 0.8484762702656464 0.5696207994805771
12 0.4406181487652433 0.4500696516028675
13 0.38140385393411746 0.8658453140196779
14 0.10886821804785696 0.7170614257450236
15 0.5106840165047281 0.32008788243102626
16 0.01265163166681671 0.7906717508885198
17 0.08120975434484567 0.8142192277295679
18 0.5372193150554989 0.3697086858192258
19 0.028131572221828383 0.09906433257249048
20 0.06524831347877103 0.43818896027013043
21 0.2460820171502769 0.02452238801517226
22 0.5544159809148526 0.35050915438366825
23 0.924968623641307 0.4509509342466099
24 0.4474287737794761 0.901179536144128
25 0.32960312977011774 0.6460688445674108
26 0.06305893777725136 0.5996264409494056
27 0.7332160244034309 0.4031262046525258
28 0.9384844125536129 0.4102682937954377
29 0.4483181869303934 0.685040608954493
30 0.5346569651603088 0.8944109775193053
31 0.3200391518032445 0.88190218885506
32 0.8583077153582493 0.7888950189187325
33 0.9967337426209667 0.4076702170817573
34 0.6535708241449655 0.5485063603860955
35 0.10408041020965797 0.17907309363947455
36 0.35961925162940744 0.048954453144389176
37 0.5551266523792799 0.13613715855192665
38 0.6425642825287481 0.61262436568644
39 0.6126361018763533 0.2816721416870298
40 0.20956777286617034 0.8057138273276716
41 0.5745020968945729 0.8779756942316641
42 0.2775746459170967 0.9054227712813893
43 0.6948444401387422 0.4819098571336047
44 0.023411444396701953 0.8765445488668778
45 0.7664018850388251 0.4618943958410823
46 0.11066144664634248 0.14300854989472267
47 0.2300789747498334 0.09748755902613848
48 0.7124446191809214 0.5475514396707648
49 0.7655522966317359 0.7049356013956625
50 0.8543283404447191 0.8162904143648271
51 0.014675495550965145 0.2091760631428834
52 0.3885570411245868 0.5837882363218786
53 0.37322868979128887 0.6379780332051695
54 0.10266662872187915 0.26487265224325807
55 0.9109637495061258 0.991606429916596
56 0.11219097791356047 0.7296997352214643
57 0.2975158723633968 0.5634492406171466
58 0.6704568184102975 0.015551114669236088
59 0.90979627593643 0.3626552086993893
60 0.24477152291091675 0.0738800124125435
61 0.5813919716002727 0.4808637682196777
62 0.13307316327055974 0.28542869568906126
63 0.023613545363173727 0.43265974352239445
64 0.49173707800381194 0.5560851029652555
65 0.7645478597218437 0.6825244094717833
66 0.90791484598259 0.35860950337062947
67 0.6895869472717611 0.383746733811446
68 0.4334144635434489 0.6601366164471054
69 0.9142324962962405 0.4739387222714906
70 0.23878810241589665 0.538055987499391
71 0.32951917655162755 0.4527683218025387
72 0.5427853762023997 0.5580671933428848
73 0.9115763166201922 0.9434428896365448
74 0.9066583938611301 0.3276396405625155
75 0.7587557833063964 0.09103791140949269
76 0.20470502559197845 0.03505574829219926
77 0.6391303132676621 0.624555637553162
78 0.0486842991006704 0.3925350774523383
79 0.09936369684177315 0.7020388813798141
80 0.2005853679502656 0.29644378803445104
81 0.8395483688781722 0.6587881909646964
82 0.3839745418818066 0.2543208046772314
83 0.3897808429037375 0.9067447237184317
84 0.8156227916465837 0.2910798632348368
85 0.539072965957692 0.662801871201041
86 0.27272074382343436 0.415740221581395
87 0.1957279762027938 0.19743096084727063
88 0.01776857665725773 0.7230312095711137
89 0.002374072267712135 0.11377983729151786
90 0.3179698546515942 0.3986957120328455
91 0.8969263254927536 0.46318714689975726
92 0.5777526598641008 0.8981240774260867
93 0.6131025290814138 0.004735938161623321
94 0.45949900773082863 0.1987689037190954
95 0.8935734590749798 0.3699676812362369
96 0.7990367109458301 0.19481998421871227
97 0.7516977808894705 0.6219094209225774
98 0.8059234498993513 0.5024358348486866
99 0.5581058104255029 0.34666468219608015
100 0.06789860813628401 0.6714367671173886
101 0.35598082738853687 0.08017768621479993
DEMAND_SECTION
1 0
2 8
3 7
4 1
5 9
6 7
7 1
8 5
9 9
10 7
11 4
12 9
13 9
14 2
15 1
16 8
17 7
18 2
19 8
20 9
21 9
22 2
23 6
24 6
25 9
26 7
27 1
28 9
29 9
30 2
31 2
32 7
33 3
34 7
35 3
36 6
37 8
38 6
39 1
40 7
41 4
42 4
43 5
44 2
45 8
46 4
47 6
48 7
49 8
50 8
51 2
52 2
53 9
54 6
55 5
56 4
57 4
58 3
59 6
60 6
61 3
62 7
63 5
64 1
65 5
66 8
67 8
68 7
69 5
70 8
71 8
72 1
73 2
74 6
75 1
76 4
77 6
78 4
79 9
80 7
81 5
82 2
83 9
84 7
85 7
86 4
87 6
88 2
89 7
90 1
91 7
92 2
93 6
94 9
95 6
96 4
97 6
98 2
99 2
100 8
101 3
DEPOT_SECTION
1
-1
EOF
