NAME : gen100_034
COMMENT : uniform customers, demands 1..9, generated by bench/make_tuning_set.py
TYPE : CVRP
DIMENSION : 101
EDGE_WEIGHT_TYPE : EUC_2D
CAPACITY : 50
NODE_COORD_SECTION
1 0.20297623132105203 0.13872623709287069
2 0.3974814362772814 0.6262645396430728
3 0.038596728063666985 0.7523651087078996
4 0.7228224409290135 0.558785205240559
5 0.1491436154901672 0.6377826562043002
6 0.08585551670066238 0.16685307641247393
7 0.3545560978464204 0.04050549994082342
8 0.9033218782168918 0.5599422756792951
9 0.5216332789250948 0.6562088190535674
10 0.8060890028371251 0.9664281853652992
11 0.6129881118691664 0.016074378637350062
12 0.273942672660228 0.7320873114174334
13 0.5382301030472196 0.13815038811168034
14 0.816817220779356 0.7831406699199752
15 0.4160124620308083 0.41852961163405655
16 0.1923511681900868 0.15635558785383763
17 0.6924788114518547 0.36845779005732227
18 0.9153735106123841 0.27777177802347075
19 0.9562397517545314 0.41484254938716214
20 0.7528758402532736 0.6231127801842532
21 0.9531585575205737 0.6110683409736622
22 0.681266387592167 0.6763979785550694
23 0.9606807354590747 0.8767743456309953
24 0.13450834212861562 0.3551621916945569
25 0.914932478771655 0.7449684654798572
26 0.10474181144235095 0.038382543909912026
27 0.5793967113902648 0.6893209100774527
28 0.6726698141782289 0.8991896334201279
29 0.32421693764262804 0.5513965300416719
30 0.8426273667394442 0.17538230094365204
31 0.7868707859935128 0.5163373163028792
32 0.879108106723337 0.4369776964126061
33 0.2859739677655835 0.130987034218232
34 0.25623456045789195 0.48496201589965227
35 0.36976748295850237 0.5406472019938747
36 0.520983791545808 0.48983413327628256
37 0.8542184955405067 0.10044367358903172
38 0.9375519607474416 0.12027885157961071
39 0.6826455196744164 0.5452154884376206
40 0.7104182959958437 0.4875051456612344
41 0.09262386941224277 0.9660192227910399
42 0.33177075294042213 0.13561519126548272
43 0.6223928603626597 0.46901086262801406
44 0.8155991869086706 0.08843706214164493
45 0.33390024307106125 0.7074465709321509
46 0.6077733418391477 0.7310287166165739
47 0.999310067011304 0.2438008173834334
48 0.3344787094910484 0.32446405224011643
49 0.35547587084188503 0.3436513145880319
50 0.45159049830357345 0.28985245299831297
51 0.6422821956150572 0.6116530798981963
52 0.1473040636102837 0.2732893391671857
53 0.6329787597013693 0.48161200461930276
54 0.6868509791390465 0.9760909449780758
55 0.9532139715624892 0.46866425431909087
56 0.9896139592851662 0.7112731152597922
57 0.0065834375425338765 0.8961524096673131
58 0.9635542171625129 0.6791010344039003
59 0.32042701232872295 0.8903495413143564
60 0.6274923895927377 0.5134130070233873
61 0.9730501203321772 0.3322498385712278
62 0.02399736245089501 0.9783539659256263
63 0.8946318669405844 0.4124810665389532
64 0.8474324143295241 0.1560896394604685
65 0.5819649647602075 0.896724823708973
66 0.8780402749273426 0.9789607319926271
67 0.36913807617899197 0.052385716993119114
68 0.6192630618549347 0.13305091959911508
69 0.5474967010951978 0.24995636978098512
70 0.6695345536180711 0.055211101972300614
71 0.6685743852180346 0.44506521634395557
72 0.18715347939901705 0.40273666006892883
73 0.12205957285821245 0.045750549640354965
74 0.7310182665703434 0.8838920615562192
75 0.354065356925896 0.5967380528161444
76 0.6285537506746864 0.47914429761395805
77 0.3032202078129391 0.5979702174555696
78 0.7368602987526679 0.3354553956470663
79 0.8849471327480327 0.6333333217665034
80 0.7492559425256591 0.2278608496762674
81 0.7896268570978124 0.4188330926838221
82 0.5416604376216554 0.49493139735368363
83 0.6137045912252639 0.5244874981592761
84 0.3358054334676356 0.49100532902643523
85 0.8408173315717703 0.5831039458707368
86 0.31694835453003245 0.15267651048618458
87 0.6930370938351992 0.3830052912952314
88 0.6681322179064595 0.4810428333421859
89 0.018575991771394018 0.9799659808961934
90 0.6092133258369906 0.12803338789480823
91 0.40204582838008285 0.6103920504931074
92 0.3501891892193171 0.09318419499813713
93 0.0026439338765966713 0.2818940160432879
94 0.04815618953181411 0.8701954057870984
95 0.7486314635876782 0.16862025286213955
96 0.9118320134806221 0.768828765843034
97 0.8739839281934204 0.7498400219439495
98 0.10957266715579606 0.7654309860502716
99 0.3716456492520488 0.8334331679596336
100 0.5193211396102224 0.7288981717232271
101 0.46917642738033805 0.003941695356922015
DEMAND_SECTION
1 0
2 7
3 3
4 3
5 1
6 7
7 3
8 8
9 3
10 1
11 9
12 5
13 5
14 8
15 3
16 4
17 2
18 8
19 9
20 6
21 6
22 1
23 3
24 7
25 1
26 8
27 8
28 8
29 7
30 5
31 7
32 6
33 4
34 6
35 4
36 3
37 1
38 1
39 8
40 7
41 9
42 6
43 5
44 2
45 5
46 4
47 3
48 8
49 9
50 6
51 4
52 2
53 2
54 4
55 6
56 6
57 8
58 8
59 4
60 6
61 7
62 9
63 5
64 7
65 5
66 7
67 5
68 9
69 4
70 9
71 3
72 4
73 1
74 6
75 8
76 2
77 6
78 1
79 5
80 6
81 7
82 9
83 2
84 4
85 2
86 8
87 3
88 7
89 7
90 2
91 2
92 5
93 1
94 1
95 1
96 4
97 1
98 8
99 2
100 4
101 4
DEPOT_SECTION
1
-1
EOF
