NAME : gen100_007
COMMENT : uniform customers, demands 1..9, generated by bench/make_tuning_set.py
TYPE : CVRP
DIMENSION : 101
EDGE_WEIGHT_TYPE : EUC_2D
CAPACITY : 50
NODE_COORD_SECTION
1 0.5612021264602817 0.024861672163605575
2 0.3976054138745905 0.6446625733143364
3 0.8272633020745052 0.29047162843693886
4 0.06824636806349627 0.006398040723232135
5 0.9850027144974607 0.016936194945964433
6 0.12928392495203755 0.6672779874152234
7 0.3097450931635254 0.010612667980100632
8 0.06639768387627076 0.006656856466849326
9 0.40421957035100686 0.18163308154636582
10 0.19255433293805146 0.12923605787221615
11 0.005660095822929034 0.8413244643761038
12 0.8042879902957893 0.1103910414589866
13 0.4611089858942852 0.7441071319350512
14 0.9599803450016777 0.5539441968785758
15 0.6192303333378901 0.8649843509855105
16 0.2082654010925823 0.4010404103086662
17 0.23709416551975881 0.7381614520278189
18 0.3767284362175187 0.6727111615040119
19 0.4737276486211749 0.9453156552089211
20 0.698694868499095 0.2518801113680533
21 0.3401195135560817 0.9590680857052779
22 0.5727993492499797 0.4098420526948142
23 0.12703358812879395 0.9006776485453617
24 0.012593774782639011 0.9065427320186252
25 0.49596107593825345 0.4093854658631585
26 0.7222749117651948 0.8355193312140449
27 0.5365495308676896 0.5653000449822408
28 0.7603563566395477 0.4738496880085684
29 0.9327603520437061 0.6978794257339986
30 0.42973055238157565 0.9828379243805939
31 0.15057410615199984 0.19146694170949408
32 0.681997389740809 0.469740785859727
33 0.3417996845050132 0.43866263501990843
34 0.5254863768079497 0.04537443053709933
35 0.9430781712410001 0.5539844713883345
36 0.03093449688200911 0.21453269006796527
37 0.738210817747277 0.09822174607923007
38 0.9586452849211647 0.9741693553720052
39 0.6504759184320478 0.5764854979190871
40 0.8146580617719047 0.006979085697984333
41 0.4162339731584944 0.752338882974327
42 0.050845544932714204 0.26774624912541267
43 0.7134050146681812 0.583139476280115
44 0.5303590550376794 0.2063192273405714
45 0.997795078679278 0.3044933235920364
46 0.5149567333964121 0.7489197841495756
47 0.6739232907554096 0.4015899986373688
48 0.958087674333237 0.12895066256348875
49 0.35964926651225104 0.1303767662317924
50 0.21411982436331423 0.3014982247675624
51 0.6271693148398446 0.7131796165364319
52 0.5070849340982628 0.6687835228290565
53 0.3590797400510838 0.3777197995687599
54 0.3071622910092646 0.4893672435464468
55 0.4971774795356527 0.9865832392049246
56 0.6178955641485369 0.6521011531272614
57 0.5128209758382278 0.48012292632239884
58 0.9312177211694135 0.13706232272091912
59 0.28961610892771883 0.16366918067316416
60 0.39886481336823587 0.2597452821206977
61 0.7130777969436676 0.46856274484756144
62 0.8767161160180703 0.0032079771220990816
63 0.1820650669778907 0.9379114711261318
64 0.21911212545352765 0.9415402709036725
65 0.9404828091916762 0.07599434400740457
66 0.5192982518909146 0.15849799065812342
67 0.3535115755744518 0.2678215476044171
68 0.6770010368723884 0.4506383751288249
69 0.40572961664136686 0.41298614773436326
70 0.2776767613244252 0.23414016836144058
71 0.4255741684298142 0.5054485189131342
72 0.4078263822961312 0.859051435734807
73 0.12251496292271002 0.952929315349494
74 0.4683828007405242 0.9645551366891009
75 0.7010910216492722 0.09728520963765097
76 0.5193318135692954 0.24012791674564848
77 0.17390372338683258 0.4717799377754136
78 0.47802286493950874 0.16861680199900397
79 0.8586190327015443 0.09345055341712227
80 0.5998309837964722 0.8381863173362062
81 0.9251361239785683 0.6830590565094036
82 0.2770664980707448 0.7285062144483194
83 0.5984146494697666 0.7467881746519351
84 0.42709510733501066 0.8419560985044012
85 0.5816161408056865 0.5956133202808401
86 0.1730644342622819 0.32194742717522773
87 0.34149069973570245 0.2888869041452099
88 0.9304284875097159 0.19923791837368932
89 0.9490237544522913 0.6961576449746935
90 0.8347573672687385 0.17019262324402284
91 0.9757221787405643 0.9119236224857538
92 0.44284649348964733 0.6534364395912513
93 0.05862670347822052 0.8030561952860743
94 0.14473099376055287 0.19175325524951248
95 0.8608181974454392 0.4972313102135749
96 0.10864640940242998 0.9828064228883088
97 0.11167193749042947 0.41998930828290293
98 0.8270819135233753 0.46210560058612193
99 0.7968646287383587 0.511959155534613
100 0.0534537940643387 0.023535374162463873
101 0.9439777033336184 0.6634773396521108
DEMAND_SECTION
1 0
2 5
3 7
4 4
5 9
6 3
7 3
8 3
9 1
10 3
11 4
12 6
13 9
14 3
15 7
16 6
17 7
18 1
19 4
20 2
21 3
22 6
23 4
24 8
25 3
26 4
27 2
28 8
29 5
30 4
31 3
32 9
33 3
34 2
35 5
36 9
37 1
38 5
39 6
40 2
41 8
42 8
43 8
44 1
45 7
46 1
47 7
48 6
49 1
50 5
51 6
52 6
53 2
54 4
55 4
56 3
57 4
58 2
59 5
60 7
61 9
62 9
63 2
64 5
65 8
66 6
67 9
68 6
69 9
70 5
71 2
72 8
73 5
74 5
75 8
76 1
77 7
78 4
79 5
80 9
81 2
82 7
83 7
84 5
85 3
86 7
87 7
88 8
89 1
90 8
91 1
92 9
93 6
94 9
95 8
96 2
97 4
98 7
99 3
100 6
101 5
DEPOT_SECTION
1
-1
EOF
