NAME : gen100_036
COMMENT : uniform customers, demands 1..9, generated by bench/make_tuning_set.py
TYPE : CVRP
DIMENSION : 101
EDGE_WEIGHT_TYPE : EUC_2D
CAPACITY : 50
NODE_COORD_SECTION
1 0.8783396906538011 0.7569336314490938
2 0.7446031159661293 0.9122554096177828
3 0.5487227408453942 0.6503544917973327
4 0.7335450206336478 0.20520134988519423
5 0.6094949110335731 0.9284678348991922
6 0.00711056169955937 0.28221641303207023
7 0.5531855627619134 0.28204905404597846
8 0.17579133373832723 0.4924342278014826
9 0.21428014616710267 0.5633198369552647
10 0.6405952263368636 0.54942474181197
11 0.5645580012924982 0.6409484527738407
12 0.20546211885852184 0.17159264688180664
13 0.8871318757369014 0.16853182172920755
14 0.17928323769139343 0.9949157252111599
15 0.7974977388580154 0.20017351992854138
16 0.08978044709153044 0.3606001537341389
17 0.8411779064022006 0.1958382695636952
18 0.45983266163441616 0.660550894077483
19 0.011009685782846446 0.1279266609635562
20 0.8079203731196917 0.45427247362405165
21 0.2930671034881689 0.3445156099419484
22 0.5948864461794546 0.09915087230260022
23 0.9089627147471432 0.9234405802691004
24 0.11321002569180727 0.6978606340667433
25 0.43158644666933155 0.9669526204181741
26 0.0603752338560648 0.9957429506213408
27 0.31197704911382607 0.9891359224438346
28 0.02385508977486972 0.5172188102097394
29 0.3904905827994949 0.3136259591641041
30 0.44004239728456807 0.6649488924242577
31 0.4755896837748985 0.6040463066339413
32 0.6779721981370826 0.9801570880616576
33 0.44988128391561866 0.5809502200449258
34 0.549291976840839 0.745740452758276
35 0.6288580615710665 0.9420804762502892
36 0.21790597297818282 0.7556862210388614
37 0.46260152190517434 0.3910758428419703
38 0.4018018194533224 0.6303107236167385
39 0.33534009017508004 0.7182827815305206
40 0.37396569877213715 0.9682787987344824
41 0.43058988646771645 0.8349025361595943
42 0.21932375167837614 0.15565972442632692
43 0.04958778290306298 0.40490054376873397
44 0.8771364663118698 0.9342148660276489
45 0.6869607520167285 0.2878866316050225
46 0.9742022971402501 0.2335007653835165
47 0.013230887722442297 0.2584983563042853
48 0.33858497007181676 0.6305353832800069
49 0.15061426600117844 0.9319509692569421
50 0.5237240496067711 0.41044743430095587
51 0.5927008912044133 0.9963548351898072
52 0.15768081138390522 0.020344337471635332
53 0.08958193436079398 0.39085790734830794
54 0.21058064779108887 0.31390549239062326
55 0.4542246809238696 0.190072070848738
56 0.6956748704478506 0.3398741501779049
57 0.6701455027295261 0.8213202259872858
58 0.354968037801659 0.6767884573772598
59 0.18654420373476333 0.4771305191504138
60 0.732841463069545 0.12236813056322582
61 0.04252490051904945 0.43415473487535794
62 0.7628625597500269 0.7541042664382719
63 0.7500585346570647 0.013369799576605224
64 0.3056054499058104 0.7285945675443304
65 0.9392647544287188 0.3099732870913423
66 0.5987990212667881 0.14710785315661767
67 0.6339812403080413 0.20257574599711092
68 0.0976769776409947 0.370904507493066
69 0.8973615979918078 0.1082553782550254
70 0.1392249042511423 0.5433582867972321
71 0.44088313358448616 0.43926313644699233
72 0.8915290893374153 0.8427033234152308
73 0.3158719386946184 0.707208333263431
74 0.0947463833457155 0.9619106564430151
75 0.2035029659014681 0.9535345878155589
76 0.17006782770369422 0.22894135374662672
77 0.08548726336046142 0.673732919243739
78 0.6854707025520569 0.36856155377424826
79 0.7957538176711414 0.6085733031323718
80 0.5251593680637259 0.8198717073394673
81 0.5646838044225763 0.09165032379191995
82 0.128749447028353 0.6944383827915248
83 0.6561678771908263 0.25838702433298355
84 0.9721007536928342 0.6864164916365016
85 0.8065563461761127 0.25325336190919934
86 0.03381597815627835 0.961586000534414
87 0.913187236333637 0.5357434836812076
88 0.5339650144849271 0.6259165914591882
89 0.27466823693355547 0.23929892693923827
90 0.21701259066111678 0.47191932167740636
91 0.4746574615969473 0.10202703890617693
92 0.9681894141488213 0.23823274077242507
93 0.523257188614296 0.11846504583392281
94 0.16726251111689883 0.8809334411394816
95 0.5173723644852212 0.9322168513836487
96 0.7118592074532903 0.4154877517736786
97 0.430955018811496 0.28372019778188295
98 0.42702384715811614 0.30226760315637025
99 0.9425657971265495 0.15480123192053996
100 0.006495782617221613 0.016092133108371764
101 0.63695683556848 0.7404667423090958
DEMAND_SECTION
1 0
2 5
3 9
4 3
5 7
6 4
7 6
8 8
9 1
10 3
11 3
12 2
13 6
14 7
15 4
16 4
17 3
18 5
19 6
20 8
21 1
22 1
23 3
24 2
25 7
26 6
27 6
28 4
29 9
30 5
31 9
32 7
33 2
34 8
35 4
36 1
37 9
38 1
39 3
40 7
41 3
42 9
43 3
44 4
45 5
46 9
47 1
48 6
49 9
50 1
51 4
52 3
53 3
54 6
55 7
56 8
57 2
58 4
59 5
60 5
61 7
62 1
63 5
64 7
65 6
66 5
67 8
68 8
69 6
70 7
71 3
72 3
73 2
74 8
75 5
76 6
77 2
78 4
79 5
80 9
81 8
82 3
83 6
84 9
85 3
86 3
87 1
88 2
89 2
90 7
91 4
92 7
93 5
94 9
95 7
96 4
97 6
98 4
99 7
100 6
101 6
DEPOT_SECTION
1
-1
EOF
