NAME : gen100_002
COMMENT : uniform customers, demands 1..9, generated by bench/make_tuning_set.py
TYPE : CVRP
DIMENSION : 101
EDGE_WEIGHT_TYPE : EUC_2D
CAPACITY : 50
NODE_COORD_SECTION
1 0.32414581829894007 0.0010174232245231396
2 0.7261876062742427 0.6172733018509138
3 0.6430216411449979 0.0032359214980759443
4 0.2780020288431787 0.4573675916434944
5 0.8258421581845818 0.9607133690584234
6 0.4204492837815329 0.372892021406645
7 0.034637339275699564 0.41420498853869303
8 0.44436849132049805 0.25886348310889373
9 0.9918273370776104 0.9944490877373504
10 0.5094141810753713 0.37516882904979676
11 0.6223694180300742 0.6532280433110942
12 0.7595237958939545 0.9576704066124697
13 0.055396673389322304 0.8515890563229909
14 0.23347680456407294 0.7969740696594123
15 0.36639575276154646 0.08020862932310846
16 0.2208410464618905 0.9855428346726351
17 0.9307064876958298 0.6004792879219916
18 0.43576386305128967 0.1749377675203837
19 0.848081498782235 0.6743078738787568
20 0.8786166920334297 0.17318152363052564
21 0.18350600599583167 0.869017644250563
22 0.09161740214256697 0.6645061081460687
23 0.6892399394061041 0.6340976365649708
24 0.9169887167272956 0.15943007744408721
25 0.27744571523345163 0.44443639042904326
26 0.5619998377591614 0.6516127480365215
27 0.5210329537039764 0.4648736061060259
28 0.5171084886115936 0.267490920171785
29 0.29818408159481613 0.8186824202014145
30 0.8944125138841905 0.890721762906201
31 0.954070575615381 0.934604193529192
32 0.008951258866871648 0.8052360798602936
33 0.8545471698410307 0.20962205050374716
34 0.46121000421627223 0.30840979726470763
35 0.8362258287033609 0.6495022252524149
36 0.6488848711445386 0.9862838276271554
37 0.2787158167579892 0.21051538396127378
38 0.6268300079469361 0.7136831331174239
39 0.06634017665181147 0.3368353555690039
40 0.41257014755435684 0.2585322429359438
41 0.29025549763717606 0.7951427896912011
42 0.5173583589116372 0.6218466809699544
43 0.783681301634072 0.4365750452394648
44 0.8856826339520576 0.6942498507237778
45 0.5424873202228666 0.6077821282470749
46 0.23866036884772346 0.5488497266297925
47 0.5366075599658952 0.2066015395148657
48 0.5220277741166358 0.2921472003395871
49 0.18603518739540081 0.999241953042101
50 0.8779977694205323 0.7218452548165032
51 0.42403943237250286 0.294519503471952
52 0.6293128233469987 0.16108239409190617
53 0.8714900299611319 0.9524542583636431
54 0.42117405058060275 0.20632861860062335
55 0.9951597709170791 0.12109943726071482
56 0.9310705670898843 0.6161751758913463
57 0.9426652238332314 0.5126001486560289
58 0.9401034318539513 0.9139607440881616
59 0.5602710526576895 0.3229869209376851
60 0.43224409063290226 0.49932973058613983
61 0.18581717887159122 0.025800251196946733
62 0.5943459630391348 0.44018051364491206
63 0.9436598036038217 0.6248609175107627
64 0.7991907808917476 0.17633363346970143
65 0.16518870692989218 0.5032222782529189
66 0.2523165678745912 0.33822652348367666
67 0.9239158951492757 0.4890660003380275
68 0.9959361978187796 0.7191284378906495
69 0.06445294900395804 0.3260508666062586
70 0.8230231688890024 0.9823015445340404
71 0.957323028873928 0.7225024119283138
72 0.9424544719085284 0.5386426636261764
73 0.9087205089320513 0.7235528139594457
74 0.3435513038206425 0.676671376528234
75 0.43241573441104275 0.02690459288200764
76 0.16369969728702083 0.11345799204179885
77 0.8505232537780307 0.6836404254180938
78 0.4836152933491973 0.9177210218516088
79 0.7559104347749263 0.0561642881147002
80 0.8541076508773974 0.45090755752036304
81 0.8809181437474888 0.5747578543454931
82 0.9319625484318089 0.31156570491363844
83 0.6791707208715028 0.9291489700533723
84 0.9107088652667388 0.6801304451196617
85 0.9666342179352784 0.646966934562662
86 0.139701161587939 0.118859006472953
87 0.4536456766889203 0.8672022191553973
88 0.5213236950503829 0.8974620051296739
89 0.8142275932801522 0.06470721282195135
90 0.6893702017077675 0.4069901197715641
91 0.03599579377550344 0.6673731853543532
92 0.9219160429322832 0.8528507814442736
93 0.8811508278096482 0.411699935922895
94 0.8680704768662728 0.9885102282919045
95 0.7598444286491158 0.46519217523705836
96 0.886671958635068 0.861666503328442
97 0.3970306964531579 0.3807961183178732
98 0.3414309927755538 0.18148572846037947
99 0.6350673878257227 0.6203604009603655
100 0.6510437211816731 0.4767800873919691
101 0.023591941482512202 0.5605731402634025
DEMAND_SECTION
1 0
2 3
3 6
4 8
5 8
6 4
7 2
8 2
9 6
10 6
11 2
12 6
13 1
14 3
15 4
16 2
17 9
18 1
19 5
20 1
21 7
22 3
23 8
24 9
25 2
26 3
27 3
28 8
29 4
30 2
31 3
32 5
33 9
34 8
35 3
36 5
37 1
38 1
39 4
40 8
41 5
42 5
43 8
44 3
45 5
46 3
47 9
48 4
49 5
50 4
51 2
52 6
53 1
54 1
55 2
56 2
57 7
58 7
59 3
60 9
61 8
62 6
63 4
64 7
65 5
66 5
67 8
68 1
69 4
70 2
71 9
72 2
73 9
74 4
75 1
76 1
77 4
78 2
79 5
80 5
81 5
82 8
83 5
84 3
85 9
86 3
87 9
88 9
89 6
90 9
91 6
92 1
93 6
94 8
95 5
96 1
97 8
98 4
99 1
100 7
101 6
DEPOT_SECTION
1
-1
EOF
