NAME : gen100_024
COMMENT : uniform customers, demands 1..9, generated by bench/make_tuning_set.py
TYPE : CVRP
DIMENSION : 101
EDGE_WEIGHT_TYPE : EUC_2D
CAPACITY : 50
NODE_COORD_SECTION
1 0.8809815197351046 0.8666991638765177
2 0.4840667897310943 0.8534581908491078
3 0.5115978702138814 0.26836623007969485
4 0.7931931770040149 0.965844729360456
5 0.5886227900466596 0.8713296461903001
6 0.5983034713464842 0.021552175007123475
7 0.18998661107749637 0.18756338384442361
8 0.9304766775507975 0.6172726747411322
9 0.3955491825683731 0.5462873057675951
10 0.9014410480306548 0.44539737450562045
11 0.8806266470132547 0.5711609660591118
12 0.7546613949720089 0.1810569579731569
13 0.939694366277103 0.20078760757727998
14 0.6869839055188317 0.6107573996417949
15 0.7673332553138724 0.3331219181082409
16 0.6004346278722054 0.6773022420771947
17 0.9482453087104322 0.4071556055211991
18 0.01503044161292999 0.05640420667663726
19 0.17796038317300966 0.31971383694415745
20 0.7636260471344586 0.9220572746529748
21 0.8744337172000712 0.24084685708867914
22 0.6461017345378988 0.3985961448571089
23 0.11723511015346988 0.223206060557957
24 0.6941945636849204 0.8323939527673877
25 0.771100327606514 0.29213798509172395
26 0.8844726582814857 0.7718346542926956
27 0.6286947524874377 0.631933071419777
28 0.3303308414778824 0.187849239213017
29 0.2950259089115388 0.0388701833301216
30 0.8403294139810961 0.7632452009694779
31 0.2166271991767793 0.5630551845412103
32 0.5383310882438863 0.6161979514880593
33 0.054061116536436526 0.00117162450942343
34 0.4075414373631827 0.7592679593430801
35 0.3733159290777459 0.8503259465815659
36 0.29951784249879165 0.776036619488692
37 0.23874307069852252 0.2957982143437816
38 0.020941123037190534 0.050131237180672805
39 0.06692317705879092 0.19474969531311992
40 0.43093563262088197 0.4183882115981373
41 0.8715725149675249 0.5981467855805392
42 0.057790278782183346 0.04195782158570649
43 0.09257685236175206 0.8262695405576792
44 0.4041437998129005 0.6232668959725257
45 0.8987033811335329 0.6473934200605784
46 0.6573726890068029 0.41507470174558625
47 0.7438459913058583 0.95867147323493
48 0.9569824052225979 0.40024377457772575
49 0.9060121743978522 0.60442567622053
50 0.3987904231726611 0.7221043854095843
51 0.0943065968430109 0.6908893086487126
52 0.40969404157997147 0.08292995165260453
53 0.7120095823126272 0.23890524539532043
54 0.1063419507982879 0.8058539373396514
55 0.12890312796443437 0.6101407801966459
56 0.7913525256515985 0.8337665221205249
57 0.5258764887672392 0.20762812313716517
58 0.06765478937430036 0.34632257421252133
59 0.9146438609134953 0.2038037771326886
60 0.705948154750746 0.4459838974160727
61 0.1049328652089524 0.7700279608489331
62 0.5361972139314635 0.14770793592066922
63 0.2771179521002566 0.023162540412889676
64 0.0746800258464192 0.4465786210505771
65 0.8685505818845792 0.15833212191253254
66 0.14954942137504623 0.843837384379632
67 0.8725213586441605 0.8701932634975565
68 0.6605978607193069 0.35391089000027187
69 0.7888782094632634 0.29537251991093394
70 0.8906528256173677 0.5055445160598722
71 0.698683198496263 0.03197545626770226
72 0.3267225561125925 0.56735275372032
73 0.9564856194146186 0.802174418780776
74 0.715063953354631 0.8436960778043965
75 0.40850039095742396 0.6005606235621183
76 0.3905109956038463 0.8783980939041691
77 0.755703648133564 0.048648271309903346
78 0.22831654593053852 0.8958881140816144
79 0.6758884950999168 0.4468134822110662
80 0.09211928969032235 0.4275133079161767
81 0.18201624797607463 0.5142223846574805
82 0.9774545705602442 0.42068476123665854
83 0.12930008729697196 0.9062273458236065
84 0.44607850274448224 0.45156384271255345
85 0.1161219088507498 0.8326747857358817
86 0.1667708479991794 0.7226360931088729
87 0.6264943541641054 0.9569445968406781
88 0.9066027987271719 0.33547099499001354
89 0.23205081390778437 0.8745451178427128
90 0.3413387070155408 0.6562296860372568
91 0.5988822064434614 0.012073822621415764
92 0.8223573199090904 0.27326720500195945
93 0.9404978051063132 0.8882765929740856
94 0.46135714523699056 0.3204750543012843
95 0.5639379803690688 0.5527564722510455
96 0.6104716222673771 0.16133554298055097
97 0.6477634626686094 0.7853558403783393
98 0.4125588544676527 0.03227858548294882
99 0.19117034334649685 0.689546726511941
100 0.8192634975294795 0.6464157373864503
101 0.9559269619492969 0.5199629888065979
DEMAND_SECTION
1 0
2 7
3 4
4 5
5 4
6 9
7 1
8 9
9 3
10 1
11 5
12 8
13 7
14 6
15 9
16 7
17 5
18 1
19 2
20 2
21 2
22 1
23 8
24 6
25 4
26 4
27 8
28 1
29 9
30 5
31 9
32 1
33 5
34 7
35 3
36 4
37 9
38 9
39 8
40 8
41 5
42 6
43 8
44 4
45 8
46 6
47 6
48 5
49 3
50 7
51 9
52 8
53 3
54 5
55 3
56 7
57 3
58 3
59 9
60 4
61 8
62 9
63 9
64 4
65 2
66 1
67 2
68 1
69 3
70 9
71 1
72 8
73 3
74 1
75 2
76 8
77 4
78 7
79 9
80 1
81 9
82 9
83 3
84 6
85 1
86 8
87 8
88 2
89 6
90 5
91 9
92 6
93 7
94 1
95 5
96 8
97 1
98 3
99 2
100 7
101 8
DEPOT_SECTION
1
-1
EOF
