NAME : gen100_031
COMMENT : uniform customers, demands 1..9, generated by bench/make_tuning_set.py
TYPE : CVRP
DIMENSION : 101
EDGE_WEIGHT_TYPE : EUC_2D
CAPACITY : 50
NODE_COORD_SECTION
1 0.8406822126873154 0.5507186285223493
2 0.5659974106663592 0.6559773013969054
3 0.4012134323430827 0.651601862220745
4 0.17974972129445277 0.6583595576219955
5 0.09271777248831492 0.5854291897111578
6 0.22450154719187654 0.1379362957154262
7 0.2639600041008545 0.6148476863072222
8 0.08623504437177454 0.12939007404415326
9 0.7044421144832348 0.16755841897995316
10 0.9060892898292303 0.17847658043677883
11 0.30088338939200554 0.6408273120533956
12 0.9928064101433179 0.6280917521790286
13 0.49743639907566306 0.6326025117158995
14 0.4060325441121143 0.8825350167542431
15 0.20416792481981616 0.3682276676325954
16 0.5458447335888151 0.3657301460491934
17 0.3368877842571302 0.6990398488213481
18 0.9680141822908939 0.5994618348084606
19 0.28230351546550503 0.25800439118618357
20 0.9120939456116225 0.49668787321647123
21 0.3014138657345138 0.8567420580700611
22 0.920376811775086 0.49190453291948255
23 0.4424764832885535 0.16586779615337344
24 0.5175082100472573 0.7772885719387514
25 0.974454582131402 0.7645114360516387
26 0.33268249572942865 0.5207826367408894
27 0.22910166531889975 0.42225748931349705
28 0.4048917013888095 0.5121449585643026
29 0.17258221160467768 0.12801897626080616
30 0.9855594929417585 0.4193094992689481
31 0.7639934251601026 0.514854123155325
32 0.8752672634781951 0.5957725977542982
33 0.4684017501897829 0.022056527897096556
34 0.5957862204361517 0.7990513501204078
35 0.7160472782864048 0.48553012397666195
36 0.24756848304072765 0.5873753994131404
37 0.9113978002153614 0.22882107380069006
38 0.1343389394237945 0.8724048768191427
39 0.08347476841470403 0.7908407438535683
40 0.6581755397350748 0.5471224282283396
41 0.13072808755466891 0.44334923727665165
42 0.575907053741752 0.1319741486885988
43 0.39212528673780855 0.6154634949083423
44 0.290472649015201 0.264720411236432
45 0.7804963156577985 0.1442584588958994
46 0.18906285633241737 0.8477336318832392
47 0.03220238618145532 0.05812709216837142
48 0.8466589998189465 0.9244127005637843
49 0.0927925222451913 0.2575044996033794
50 0.20918085197760206 0.2627192981514487
51 0.13104361551397925 0.07234587926476665
52 0.9304361386438375 0.8506411223823139
53 0.29313683698372994 0.7549712876370976
54 0.13028016399184172 0.20167222069536805
55 0.41834828433746185 0.03196131275193814
56 0.6999254840283033 0.5771177007291579
57 0.5461017238161021 0.8481238280890034
58 0.3644989437403644 0.6241855104135663
59 0.6200652523353429 0.11174237620149208
60 0.30051753115178637 0.5180992885884512
61 0.46264700448708396 0.856020193831074
62 0.5558259830920225 0.146989267983334
63 0.2880290184479102 0.6596035070416151
64 0.7716399983320298 0.8981648015576988
65 0.4333081867570725 0.43889444496126706
66 0.23968558777290072 0.9621177121435825
67 0.2450107145325986 0.5724719543707715
68 0.29986606293570894 0.9115960685948301
69 0.9566319237721576 0.08792510847281987
70 0.9207263222957349 0.12073182399683058
71 0.8743145632274133 0.39311918582316474
72 0.3475049192732167 0.6076751141220432
73 0.25810098810732496 0.40691994645994023
74 0.15365771725999933 0.9391255979425134
75 0.7831825464214722 0.6249908673003677
76 0.7755742836552089 0.594139024933504
77 0.9138041512556997 0.6180854265731301
78 0.3037190505362084 0.26969632978927827
79 0.3995296023874142 0.7905764387814413
80 0.19046065980324223 0.9584003545936037
81 0.3413012414280333 0.2224221839014775
82 0.2305094216252569 0.3504335163612228
83 0.8289688539417003 0.7293822364357243
84 0.29324760332063504 0.6733440309786227
85 0.6008738514812154 0.11169463708318006
86 0.7090719764181189 0.16398010420484488
87 0.8718816560780074 0.1535825110408099
88 0.19570147830031215 0.08067669812714262
89 0.8859186477931268 0.008805057378212577
90 0.8778582316724239 0.6134756208200949
91 0.9030575971301953 0.7495894584406612
92 0.7216345456476159 0.07437614058952347
93 0.8678473429971846 0.11468230568014992
94 0.8817413655805698 0.38741524596531274
95 0.3834708456720851 0.056024330478166684
96 0.025913414435912552 0.010302552444481194
97 0.3689109851395539 0.4967713576687466
98 0.8466931435357717 0.060163277700608475
99 0.29087854916085 0.7356940072064163
100 0.9256087826389771 0.404181289679449
101 0.5730965517043407 0.11228866343357469
DEMAND_SECTION
1 0
2 4
3 1
4 8
5 1
6 2
7 8
8 6
9 9
10 5
11 1
12 3
13 6
14 1
15 9
16 2
17 5
18 6
19 1
20 8
21 9
22 7
23 2
24 8
25 3
26 8
27 9
28 5
29 2
30 1
31 6
32 1
33 5
34 9
35 3
36 4
37 4
38 7
39 7
40 9
41 9
42 7
43 4
44 2
45 9
46 2
47 9
48 3
49 9
50 5
51 4
52 3
53 6
54 7
55 9
56 3
57 1
58 6
59 6
60 4
61 4
62 1
63 9
64 4
65 7
66 7
67 4
68 6
69 8
70 6
71 4
72 6
73 2
74 5
75 6
76 8
77 9
78 3
79 2
80 8
81 3
82 9
83 4
84 9
85 6
86 8
87 3
88 1
89 4
90 3
91 8
92 5
93 2
94 7
95 1
96 9
97 9
98 2
99 4
100 2
101 2
DEPOT_SECTION
1
-1
EOF
