NAME : gen100_035
COMMENT : uniform customers, demands 1..9, generated by bench/make_tuning_set.py
TYPE : CVRP
DIMENSION : 101
EDGE_WEIGHT_TYPE : EUC_2D
CAPACITY : 50
NODE_COORD_SECTION
1 0.7565764320346734 0.3551636802829553
2 0.1413885062448047 0.002466555272935933
3 0.2549884005347959 0.06504713883268975
4 0.1381343355635397 0.9089632863933658
5 0.9047392365284385 0.003146312373218163
6 0.022324536338564682 0.8350968953649451
7 0.8801651596309772 0.006452218830386047
8 0.3854873622187257 0.2571336355824987
9 0.1685161897744234 0.565371701178841
10 0.8378437743186882 0.31063997384944986
11 0.09873803663490555 0.16862494141769924
12 0.46592302191777524 0.17204419790435044
13 0.36887251812742405 0.15671567455395663
14 0.6605698769161115 0.3134383361508639
15 0.4046586567072783 0.8071442457939807
16 0.24788639252567668 0.7237762467922285
17 0.6718541204291563 0.8950480362278854
18 0.20833332527569381 0.25114266112124994
19 0.3000769286684244 0.0005519524011126098
20 0.12417323631106503 0.9112189333003771
21 0.1692505711010972 0.5650119263833585
22 0.3419901720768902 0.20209311724383316
23 0.6929078712580535 0.026743077114518066
24 0.4177224609235983 0.8491360463541373
25 0.6276770615042158 0.555778460310881
26 0.4625162182617951 0.786301240713206
27 0.564677101578325 0.25278997546753923
28 0.027727266139076612 0.6698746237238833
29 0.8549877766575746 0.5460785239801227
30 0.6904534222146772 0.46534441170191065
31 0.8649838444563144 0.7604318379665997
32 0.46074642018439793 0.21681542266479936
33 0.2090073932105001 0.5438327704680332
34 0.24672977544479802 0.5465507748633309
35 0.8729595887529424 0.8125905692369865
36 0.1477846035956596 0.9364969833910544
37 0.6142583713613252 0.05458163528288984
38 0.7980519856506492 0.9229956197991652
39 0.1866370774008438 0.4235058068899893
40 0.30848090677819007 0.14015324035619703
41 0.6275853539571711 0.6099438461337022
42 0.7493894848338054 0.6938450175665573
43 0.03333581036453559 0.9010998702995273
44 0.6192023387376421 0.4902055569008107
45 0.9010894971217014 0.9418427992174134
46 0.8847575703903733 0.7423837421513251
47 0.30368706228423414 0.020706017487769013
48 0.6800898912105431 0.2985187524696462
49 0.8486709920313573 0.7855781508078767
50 0.3292726287478376 0.7914062147043822
51 0.916221258779559 0.8781658493021549
52 0.34287267727161497 0.4501618460366986
53 0.15531263092140724 0.934707614223432
54 0.031226130026347554 0.7327241145420778
55 0.08306990277445048 0.768762655182254
56 0.4676348660501142 0.10664107933831546
57 0.7230695262778198 0.8223063952084758
58 0.3621421089871615 0.10478315964195839
59 0.36273070246354233 0.3115660174794147
60 0.5410331247493478 0.7101042165304705
61 0.8463816224897012 0.09290245949107201
62 0.8216574479094398 0.5920801654938094
63 0.8593008363500876 0.4071684041221829
64 0.8782058571165227 0.0037653100423120645
65 0.6972445307091895 0.5504001332395435
66 0.433778022576922 0.16093821472686454
67 0.3376305485541282 0.007691645099863753
68 0.17859636437238624 0.053037530594899907
69 0.24704601579764673 0.09174292704168918
70 0.29931857600183875 0.925346132054034
71 0.07325280153736002 0.46540306970209355
72 0.7128392573325091 0.38402153755530655
73 0.7484949126438303 0.5409361294274713
74 0.23325061207189113 0.04407884150591601
75 0.7333292399268259 0.7506930684411538
76 0.04234855837011142 0.6164511525098214
77 0.7675442769917252 0.20623452900658934
78 0.1795816032452695 0.9641554706792397
79 0.5653741675833203 0.2943663093107044
80 0.6769683651069501 0.7612213200637631
81 0.018061938663283206 0.9189445708954249
82 0.257212951568784 0.2873547837777308
83 0.3114683352369374 0.7663290914529063
84 0.6054676284834998 0.44395139245790083
85 0.5316174120361058 0.6484624840926406
86 0.6465390769330929 0.4807878388876998
87 0.8334337587823891 0.47947504418073905
88 0.5334872288525176 0.9843942401478188
89 0.5163103374225961 0.8171542212754918
90 0.5484164101999669 0.5964111549891548
91 0.21588530657989113 0.2476574070480183
92 0.8543619508585598 0.36735632166037135
93 0.8674801856922744 0.40676182332729316
94 0.4470079521882543 0.3678327270626709
95 0.9745260665048535 0.339939673405918
96 0.8049312484386103 0.5057906829278623
97 0.14316798693026644 0.6068474204457686
98 0.8063278994177734 0.04024293006781254
99 0.726461029092619 0.5213963469589766
100 0.026963340654301504 0.24680820084706923
101 0.6309042032378956 0.19493160861001502
DEMAND_SECTION
1 0
2 4
3 6
4 5
5 9
6 1
7 7
8 2
9 3
10 5
11 4
12 3
13 4
14 4
15 4
16 7
17 5
18 9
19 1
20 6
21 3
22 8
23 6
24 2
25 6
26 6
27 6
28 7
29 5
30 2
31 3
32 9
33 1
34 2
35 9
36 5
37 1
38 2
39 9
40 1
41 2
42 4
43 5
44 5
45 5
46 9
47 9
48 3
49 5
50 3
51 8
52 2
53 7
54 2
55 2
56 4
57 1
58 1
59 3
60 2
61 6
62 1
63 7
64 6
65 4
66 8
67 3
68 9
69 9
70 3
71 4
72 4
73 6
74 9
75 9
76 4
77 7
78 1
79 3
80 8
81 1
82 3
83 1
84 2
85 6
86 8
87 2
88 3
89 2
90 7
91 5
92 7
93 5
94 7
95 9
96 5
97 4
98 1
99 1
100 2
101 5
DEPOT_SECTION
1
-1
EOF
