NAME : gen100_012
COMMENT : uniform customers, demands 1..9, generated by bench/make_tuning_set.py
TYPE : CVRP
DIMENSION : 101
EDGE_WEIGHT_TYPE : EUC_2D
CAPACITY : 50
NODE_COORD_SECTION
1 0.7116471154384317 0.9846772344010271
2 0.6714215402595907 0.8781713342093588
3 0.682369629582671 0.5304927179505053
4 0.9177774650834724 0.987678863980749
5 0.9772491558853037 0.3042858961276068
6 0.4204640877184924 0.2638044991395313
7 0.06769196722659732 0.5883704813803861
8 0.6917694163537785 0.19718316756288157
9 0.5810322314100786 0.8725118831595463
10 0.9487329987881415 0.13415257065225517
11 0.6522097870273396 0.7920388585089191
12 0.20632223131776617 0.7430466064210987
13 0.5059358023687988 0.9288496691529783
14 0.6098262175675992 0.42641535465820757
15 0.7773794544578103 0.9633639523085419
16 0.2585040841704712 0.9424380270877387
17 0.35674433129528116 0.3842760216644603
18 0.026374014694339865 0.5340903489295663
19 0.5690682854237807 0.058881616128129366
20 0.9188489374628547 0.6864132707980681
21 0.25334255816269025 0.316477764804621
22 0.6679851644870608 0.3195291894324215
23 0.10729805693836247 0.9950952305977785
24 0.7768692022066503 0.49266671517801364
25 0.14016384665921677 0.388736224319029
26 0.7038771990283037 0.551674977028993
27 0.1177670463339271 0.2795493893390667
28 0.38928240849794005 0.15286074025623841
29 0.9602813082540511 0.2643654879941212
30 0.9095567541154009 0.29212901753772724
31 0.4611327315949332 0.6240976182186379
32 0.348216486783831 0.9835818057425354
33 0.3249108928564193 0.6547360139915998
34 0.7439783835587149 0.7590806221145335
35 0.19350385097285505 0.12529902667990056
36 0.6522201296760296 0.7651806870305254
37 0.9395086064665626 0.9509141944379471
38 0.8114431196075125 0.9701873603433881
39 0.594210337290081 0.05343536653191017
40 0.9825782532800137 0.13039739929193395
41 0.499319345879769 0.6213817354008522
42 0.40578778638445745 0.5067337310181257
43 0.21354765249507368 0.06218307136955359
44 0.9271274431431482 0.257689249836514
45 0.5289751629765068 0.15326182702293545
46 0.044544651121611434 0.12181037289992969
47 0.2803290510140747 0.0549867577497648
48 0.25321039197426054 0.9571303961944513
49 0.26497070764699215 0.5241945279902748
50 0.14060871991222235 0.4882819355631014
51 0.7576483817535293 0.8750244497534133
52 0.8041746695961906 0.06301169614579627
53 0.1569335216275647 0.3148354947914529
54 0.8018377198125128 0.5236318136760613
55 0.7699445061879393 0.6565843671295387
56 0.8682608186852648 0.00259696405866483
57 0.40008274287374257 0.07143948637955178
58 0.9382373093737939 0.9998762016805978
59 0.6645256647646853 0.1738917425519897
60 0.10948274439751027 0.8938622498048905
61 0.39388835486354457 0.60879841212591
62 0.8115651781231205 0.9206961201769562
63 0.9235649114106329 0.23174034486794237
64 0.2532095705569192 0.19383149790188114
65 0.42892325311352975 0.9838208190979194
66 0.7193841817443443 0.1813724330168165
67 0.9863574892771205 0.7001385448785109
68 0.0710745474826302 0.12217969997057221
69 0.10719071915963929 0.6015333822906879
70 0.7049555908849117 0.07204104374212694
71 0.9947289008381387 0.7416592004086514
72 0.7300538194534806 0.9433918135038526
73 0.9756210635894068 0.19430177084791
74 0.31378732374091745 0.4696991463642797
75 0.9711322802246194 0.5814449903423731
76 0.05126602642474498 0.8487563119839475
77 0.7133762722281328 0.023154946749874727
78 0.800478094640062 0.24631775856765936
79 0.25370950998156083 0.9763330278435493
80 0.36815182921590706 0.9442228334228353
81 0.639549761373697 0.041857870123944374
82 0.12520281054029292 0.6936568567082348
83 0.6100032827535439 0.7492460252662392
84 0.11751304244748795 0.22005331237918202
85 0.5403895328827175 0.8073744091793753
86 0.2860565491995646 0.5192023962489737
87 0.4213009570497992 0.016293431142269887
88 0.4682580212539518 0.21412685740924764
89 0.5678027351544893 0.942639550583598
90 0.5670096209040186 0.3151763800245859
91 0.7151707520711563 0.1607678361936007
92 0.9681936306851274 0.42494791967782786
93 0.6356572115897163 0.36089513636091564
94 0.6758769718706745 0.37869014902929554
95 0.6283335338022152 0.8288382739461574
96 0.9381421540331056 0.04353455894940783
97 0.0935433224186909 0.4653527749127736
98 0.923692245808499 0.6942255816016695
99 0.10525969722259665 0.23983301990229378
100 0.26243939259335847 0.07376262622399221
101 0.14605815008886835 0.22019385244218947
DEMAND_SECTION
1 0
2 5
3 5
4 5
5 8
6 2
7 7
8 8
9 4
10 6
11 2
12 1
13 3
14 5
15 4
16 1
17 9
18 4
19 3
20 8
21 8
22 2
23 9
24 7
25 7
26 4
27 5
28 4
29 3
30 8
31 6
32 2
33 2
34 3
35 1
36 3
37 7
38 1
39 1
40 3
41 7
42 1
43 4
44 1
45 9
46 2
47 4
48 9
49 5
50 7
51 8
52 6
53 1
54 9
55 2
56 8
57 2
58 3
59 9
60 3
61 5
62 5
63 1
64 7
65 2
66 6
67 1
68 1
69 6
70 5
71 3
72 5
73 8
74 5
75 4
76 4
77 2
78 5
79 4
80 3
81 4
82 8
83 7
84 6
85 7
86 6
87 5
88 9
89 9
90 7
91 7
92 3
93 8
94 4
95 1
96 9
97 6
98 9
99 1
100 2
101 1
DEPOT_SECTION
1
-1
EOF
