NAME : gen100_003
COMMENT : uniform customers, demands 1..9, generated by bench/make_tuning_set.py
TYPE : CVRP
DIMENSION : 101
EDGE_WEIGHT_TYPE : EUC_2D
CAPACITY : 50
NODE_COORD_SECTION
1 0.6694989115910751 0.6713466778336674
2 0.8201457478163213 0.9129204149818174
3 0.3213819748527016 0.6024190749323595
4 0.8826270038865025 0.7237987297478586
5 0.5708679844377319 0.8670979958065449
6 0.9778174319266165 0.930402879183705
7 0.06493875630596169 0.1503046787337431
8 0.42337927760183947 0.28279160469311204
9 0.7638023458253045 0.6742945474393945
10 0.7729604978928344 0.15756303020131956
11 0.2730280751786305 0.9699732132650822
12 0.939725394588197 0.41506844827163003
13 0.05159690489604862 0.9142318302352979
14 0.9533939798663325 0.6025171869369529
15 0.9686490870227334 0.2498160695211249
16 0.32420775271132596 0.7157609541613464
17 0.5669478720069218 0.6000460867982076
18 0.1130421816955115 0.07196171787701822
19 0.617066423444058 0.3619165336636735
20 0.3983598116112933 0.03716470273375816
21 0.2547659689917825 0.04958475353631753
22 0.21993909915992438 0.8760930695041523
23 0.14979040700329138 0.8129187834463597
24 0.21751208340495276 0.13842215262745483
25 0.748958137590128 0.17446273547072477
26 0.7719460485522559 0.11831341491987901
27 0.0786776303163711 0.5186012812498304
28 0.40538623811518804 0.07397967255825877
29 0.9141027979767046 0.2350989051889687
30 0.4994903778362505 0.21114919231780338
31 0.725673587461362 0.3149030915474532
32 0.06636831988169478 0.21384120480413815
33 0.6532136822647251 0.2141296681418473
34 0.14984601360629957 0.5912280592843872
35 0.6356677361479597 0.3862141506951067
36 0.35800383579146833 0.486965661119674
37 0.15561643839430217 0.5451353066148171
38 0.5192102505761753 0.6520041089241444
39 0.7782911015006918 0.4711676852620169
40 0.20768746333310195 0.6850320491860451
41 0.31709112034566445 0.9370895090987428
42 0.8660415596642851 0.9022917896830549
43 0.545121230263891 0.6883916962521226
44 0.6871224049402668 0.34724296882620953
45 0.0211235472089768 0.3103163236372066
46 0.13088140495807388 0.639869252996346
47 0.3273711232127706 0.8270178540593714
48 0.9882673357515929 0.29447803900022806
49 0.43662171666500704 0.7719279986356645
50 0.6683997309518463 0.32852494333537774
51 0.21883528081931314 0.6950344651600434
52 0.6033128001046631 0.9210400003721385
53 0.46788068714615905 0.1063203821696026
54 0.986599494337687 0.1540012850720035
55 0.9839120028183583 0.6549112904784106
56 0.12427467121713653 0.44498702931310796
57 0.22978526188080262 0.25334786899262973
58 0.7482543826757044 0.78091593487984
59 0.4506135388197757 0.0754110315162505
60 0.13208977762226837 0.33450241846071993
61 0.5571927999850501 0.9675445545138552
62 0.18766989374579923 0.4203857343808868
63 0.8455479420997366 0.384595232891209
64 0.8627710707243169 0.45273333644489056
65 0.21712980532626303 0.8992157691278972
66 0.10319251388478834 0.06053467383891131
67 0.5478372931326101 0.18162316689893943
68 0.2927782495118102 0.019215873391115634
69 0.9391936670965274 0.6233938831462441
70 0.553261453114437 0.6084503526657458
71 0.13836661396007488 0.5852168829617396
72 0.8122384651829746 0.7655308576137427
73 0.048788439442760345 0.3290949101579538
74 0.10540618256068945 0.38440278363262714
75 0.551430819978957 0.15467847081856734
76 0.18051322279082804 0.7296554579656476
77 0.45516712183894725 0.03530151558010819
78 0.6955120371777035 0.016928663354328966
79 0.8784835824333154 0.04475998169500095
80 0.12133815610692122 0.3560929325464871
81 0.26231136225762197 0.95473722996593
82 0.3091513118446161 0.9567254583843814
83 0.8150189673291999 0.9649967156998709
84 0.36369449253691255 0.5275433507817069
85 0.12200885582142795 0.6251466906685552
86 0.5226425365215386 0.5139603895642334
87 0.8084474698330312 0.9446173473266861
88 0.20122167021644022 0.4025815432596165
89 0.9723115384197709 0.24865050134558953
90 0.01756940793371453 0.2848808821071771
91 0.6093146520419597 0.30403360845332517
92 0.6534322567094796 0.4129235568676961
93 0.577060219960352 0.7663680935019512
94 0.6427544441926555 0.5912708928071589
95 0.6359031089800832 0.07465537822353363
96 0.2637959739362079 0.1933624795029757
97 0.5955569721759514 0.5671274529580015
98 0.9394479582374247 0.4772797284159499
99 0.7062334953927666 0.8158702428450582
100 0.8540693823876495 0.595197497369129
101 0.5151090437435022 0.489355463683805
DEMAND_SECTION
1 0
2 1
3 1
4 2
5 4
6 1
7 8
8 6
9 7
10 2
11 3
12 7
13 9
14 2
15 6
16 3
17 6
18 9
19 6
20 3
21 4
22 6
23 5
24 6
25 4
26 8
27 5
28 9
29 1
30 6
31 5
32 2
33 4
34 5
35 5
36 4
37 4
38 2
39 6
40 4
41 8
42 4
43 6
44 8
45 1
46 3
47 9
48 6
49 4
50 1
51 2
52 6
53 2
54 8
55 9
56 9
57 9
58 2
59 3
60 4
61 8
62 9
63 1
64 8
65 8
66 9
67 6
68 8
69 6
70 9
71 4
72 4
73 6
74 5
75 8
76 2
77 6
78 8
79 9
80 1
81 2
82 2
83 6
84 5
85 6
86 2
87 7
88 7
89 3
90 8
91 4
92 7
93 1
94 2
95 8
96 9
97 2
98 3
99 4
100 5
101 9
DEPOT_SECTION
1
-1
EOF
