NAME : gen100_013
COMMENT : uniform customers, demands 1..9, generated by bench/make_tuning_set.py
TYPE : CVRP
DIMENSION : 101
EDGE_WEIGHT_TYPE : EUC_2D
CAPACITY : 50
NODE_COORD_SECTION
1 0.14126788735262275 0.23700828899995574
2 0.4693416130733926 0.7821864402191678
3 0.05307872552580917 0.4690898695316864
4 0.8470864410521499 0.9549827737209996
5 0.24645433305914355 0.4212087634444295
6 0.2124909565356845 0.9568216437139246
7 0.5971149996119974 0.20900892396335735
8 0.8715339104686257 0.9720497430772138
9 0.28685184263029984 0.1072035619653966
10 0.38655087571230606 0.886207805202645
11 0.5509470550913232 0.8444210576648333
12 0.9687426787389811 0.8951372950311656
13 0.3703555664763297 0.6601293382361128
14 0.2873700325001062 0.29664764269251753
15 0.24315659945072898 0.3292275195901375
16 0.5710239115420161 0.9792379741383486
17 0.3705029155058591 0.8823250514623401
18 0.769367454890113 0.8115313790531545
19 0.020864182577635337 0.937422288403142
20 0.591166862476058 0.548688012543316
21 0.5162938368936112 0.8768716067631328
22 0.13614621839669439 0.5283975552445092
23 0.30482526426985357 0.8922100845141109
24 0.6942559016241535 0.5670103523318536
25 0.25219111317702503 0.9560405857034308
26 0.43449409874145084 0.15630051983572923
27 0.9863772423863092 0.034792064293830305
28 0.29845774665762803 0.9399724746207878
29 0.7644401832454475 0.34324395526232143
30 0.17720116577024336 0.8008666629404679
31 0.017718225783296182 0.15092626166587908
32 0.7869856765507478 0.24683700399033404
33 0.9075187511809942 0.10112846665434916
34 0.913982908215352 0.2984740017533797
35 0.7112184844613605 0.664300019860809
36 0.0585118875135473 0.646318712337753
37 0.8504939402201325 0.4101646616263921
38 0.3172942051726517 0.24010035092220017
39 0.8006782106303878 0.89572038737029
40 0.8846441547173866 0.05566385401681129
41 0.9555358045032307 0.9431947020864446
42 0.8675873746166086 0.2948938494614488
43 0.9996216914863197 0.2768529909928046
44 0.5272134045192939 0.4272959776711277
45 0.1384015963581784 0.7416135912052362
46 0.980244586266975 0.9054971353515604
47 0.2555019456625257 0.3109327114541983
48 0.6163275552471951 0.24989132150098015
49 0.407788194316162 0.1016910890652617
50 0.8497603372703828 0.4447765605186199
51 0.43198451497574764 0.22278907793086078
52 0.4715769558941051 0.8651787483321159
53 0.7011087445364015 0.18840062101212685
54 0.1241015123828072 0.25939899713090253
55 0.5925380203171355 0.012503984225315734
56 0.16801551544492366 0.9159167501360129
57 0.9219433817607189 0.843836057725007
58 0.9432681920320082 0.43022538107153807
59 0.4425525106577506 0.504668296196071
60 0.7838406440952344 0.8869173194332903
61 0.9048245109194559 0.05454100548659935
62 0.9747709051410688 0.4210881448952405
63 0.08334258458390731 0.885393602172996
64 0.8833827058477443 0.7740579739706756
65 0.8360946466898171 0.10144041465391707
66 0.2915624545215345 0.47180251585207955
67 0.8351286088037048 0.9528931139661655
68 0.35764725404320175 0.5097336809388403
69 0.905657539462561 0.7625586478715561
70 0.03256887362912275 0.5969252112949155
71 0.9457443970765721 0.4070139031483606
72 0.6662291544568213 0.8674481815749098
73 0.7255648797064506 0.6023310306566586
74 0.6610612560919734 0.4872849301129293
75 0.12490778779605516 0.5792353206418063
76 0.030488598401874123 0.6471771448316592
77 0.11932614714197443 0.7406025335678794
78 0.7000177055969272 0.002884578785218528
79 0.5549589706993474 0.9139362212890351
80 0.8176029681044406 0.045022064756613855
81 0.9710465414861684 0.6377963540116725
82 0.5497379268766296 0.6317609097840798
83 0.43158598642824775 0.9580751013746677
84 0.07687034740920262 0.7594928957659672
85 0.38253936492589513 0.3427732763608975
86 0.2690189943527007 0.17185692114815565
87 0.5542375712901942 0.6854939673289899
88 0.7753363331404619 0.37677628518048656
89 0.292589402632654 0.10513079440774642
90 0.34299052884623626 0.13738778207401792
91 0.31644754449936785 0.7036219340367982
92 0.22359332927076836 0.6595359962118781
93 0.9737358894734336 0.8850563808290828
94 0.5490840739769253 0.6737234280574804
95 0.9230119078697809 0.5764783345108039
96 0.15566314366139256 0.30773301217286597
97 0.7282863361704661 0.8778236853302094
98 0.5676194797631477 0.8117173206904509
99 0.6457919559753101 0.627489864511633
100 0.5946844512679557 0.44137417892541697
101 0.31641159562837207 0.7416042688943472
DEMAND_SECTION
1 0
2 1
3 6
4 3
5 9
6 1
7 8
8 2
9 5
10 4
11 5
12 2
13 4
14 7
15 1
16 2
17 4
18 3
19 2
20 4
21 7
22 5
23 5
24 5
25 4
26 5
27 8
28 2
29 4
30 9
31 6
32 3
33 9
34 7
35 4
36 3
37 2
38 3
39 3
40 2
41 5
42 4
43 4
44 9
45 4
46 1
47 3
48 3
49 4
50 1
51 6
52 3
53 5
54 8
55 5
56 8
57 3
58 7
59 9
60 2
61 2
62 4
63 8
64 2
65 3
66 6
67 7
68 1
69 6
70 2
71 9
72 2
73 4
74 1
75 8
76 9
77 2
78 3
79 1
80 9
81 8
82 5
83 5
84 5
85 2
86 3
87 2
88 1
89 7
90 4
91 1
92 3
93 8
94 1
95 3
96 9
97 1
98 4
99 5
100 4
101 7
DEPOT_SECTION
1
-1
EOF
