NAME : gen100_004
COMMENT : uniform customers, demands 1..9, generated by bench/make_tuning_set.py
TYPE : CVRP
DIMENSION : 101
EDGE_WEIGHT_TYPE : EUC_2D
CAPACITY : 50
NODE_COORD_SECTION
1 0.04603293036320566 0.8443475895574206
2 0.9112529397078191 0.2853330417883104
3 0.6147834251085001 0.798530886825372
4 0.17642915508592405 0.11667971341684569
5 0.5891772026927063 0.1923876967836382
6 0.7938900138402033 0.31548060567531355
7 0.7390184348109854 0.07452465168162214
8 0.980629230731702 0.2931064870544816
9 0.9514943596410671 0.06560506605863137
10 0.7388982269684029 0.6878217251163364
11 0.4534035265895633 0.6493285369431223
12 0.060835999353492376 0.5103469872635809
13 0.9304906534780534 0.36480356394789226
14 0.13779307495310122 0.6045645984038168
15 0.05885754815091737 0.4080237168021168
16 0.4877575456398625 0.15335217155075842
17 0.3875487058189172 0.7708491439713165
18 0.7804764431673388 0.5306358779553979
19 0.09145501624580021 0.3746880198384481
20 0.6232099844882609 0.8859042692416469
21 0.463135639235144 0.879796660571165
22 0.3348802763703357 0.16498335097106376
23 0.45701409371571666 0.5239130898006926
24 0.29294042882592597 0.2829995689020671
25 0.08804356017292625 0.0045045082901161715
26 0.7484280518577139 0.6827084452633533
27 0.979691623952573 0.9497072811501936
28 0.00492575596580902 0.6350200856118039
29 0.25764981802855635 0.33772430410409926
30 0.26933155674988063 0.6416309328440057
31 0.9872550229376846 0.37697780080391974
32 0.06569364420817247 0.7152642527057166
33 0.7816269088927087 0.6529965764679349
34 0.7122734673001373 0.4680825691656434
35 0.0046200045282189794 0.08154189971765469
36 0.5379564250886922 0.2732031946519169
37 0.3094631432515147 0.3456738429083491
38 0.3559336046481988 0.28144502698462504
39 0.6419648357295072 0.3847809979236275
40 0.8527844688084021 0.7848321100355441
41 0.41737399166387223 0.5602468272319773
42 0.37975771293340566 0.44989252806705704
43 0.5047554873359079 0.1698586335142781
44 0.31412722789026404 0.8058660747217989
45 0.15805071144472838 0.2136699187389316
46 0.25642689233280846 0.04785723657753238
47 0.7075212361905228 0.9265177371395389
48 0.10341789515725419 0.6160533186273375
49 0.5726523951189161 0.4493720762643467
50 0.09178459468911693 0.4590325323524358
51 0.19261133977799227 0.7095611648721043
52 0.30878287277389127 0.6083844944415169
53 0.5243698308559892 0.3489363367858743
54 0.8849807719384039 0.6336719780676926
55 0.9078511222299582 0.23018678400338466
56 0.08535409360698243 0.5987955939383367
57 0.8135897978425233 0.1300898208264255
58 0.9817253969384793 0.6960255435544046
59 0.5715138915053423 0.06035448980999192
60 0.799879015841948 0.18395631263421108
61 0.5791289262618484 0.825045852787281
62 0.7149377930487864 0.09916932907626608
63 0.7693154506548185 0.10068541376155549
64 0.08528725922917657 0.8301271388257232
65 0.3271295004494513 0.6498790784559799
66 0.5078956591861004 0.584727037737647
67 0.8489544618389865 0.3733060111190607
68 0.7293275730676676 0.998277776312711
69 0.6478909250351039 0.11224838701083262
70 0.38795096884818325 0.2485193345869613
71 0.6002112877179886 0.4583288224658426
72 0.5097404150741164 0.6949448670098088
73 0.7772722046253256 0.9820166653017154
74 0.6439070116043012 0.541494004535817
75 0.8380505569433463 0.5241631240257949
76 0.846335801193237 0.29742896847056255
77 0.13420365963212333 0.12936838290198815
78 0.7145188939896459 0.584524263982805
79 0.12166579825560986 0.5421003017300947
80 0.4961741607337924 0.102266743275498
81 0.9682297832563863 0.1954023267385433
82 0.8423639377241318 0.11752628653178432
83 0.049653227389163446 0.6615095050400979
84 0.25980051692982964 0.9813790000575064
85 0.2726260308270452 0.4327359939661525
86 0.4174902068877161 0.7359066487862359
87 0.5694988647703302 0.15678640995818627
88 0.5431854576124026 0.21515255919352883
89 0.7682597035999584 0.9232596005178658
90 0.4741913304110462 0.56916742836137
91 0.1268954164545113 0.6143286020901926
92 0.7335926485027523 0.3091918907526825
93 0.5002330441430414 0.7581833094077289
94 0.6006865185089318 0.8839707484259667
95 0.6831506050842802 0.7674854681355567
96 0.9832835257834615 0.29000580563251055
97 0.027903441499532833 0.9012096136736147
98 0.639830065191912 0.9205019404397171
99 0.7405842252713573 0.5394456159921615
100 0.21505467754004515 0.4246604512864267
101 0.9903051845697782 0.8461544342871415
DEMAND_SECTION
1 0
2 5
3 6
4 7
5 2
6 8
7 8
8 2
9 9
10 1
11 5
12 9
13 8
14 6
15 7
16 1
17 5
18 4
19 7
20 9
21 7
22 9
23 3
24 9
25 4
26 1
27 5
28 4
29 6
30 9
31 8
32 5
33 8
34 7
35 8
36 2
37 9
38 1
39 1
40 1
41 1
42 1
43 7
44 5
45 2
46 1
47 2
48 5
49 6
50 3
51 4
52 7
53 2
54 4
55 5
56 6
57 5
58 5
59 5
60 6
61 7
62 4
63 6
64 5
65 2
66 9
67 8
68 7
69 3
70 4
71 3
72 8
73 3
74 3
75 1
76 9
77 7
78 8
79 7
80 7
81 8
82 4
83 4
84 3
85 7
86 6
87 9
88 8
89 3
90 3
91 2
92 7
93 8
94 2
95 6
96 2
97 6
98 3
99 1
100 7
101 4
DEPOT_SECTION
1
-1
EOF
