NAME : gen100_016
COMMENT : uniform customers, demands 1..9, generated by bench/make_tuning_set.py
TYPE : CVRP
DIMENSION : 101
EDGE_WEIGHT_TYPE : EUC_2D
CAPACITY : 50
NODE_COORD_SECTION
1 0.689629645448333 0.4168255395515046
2 0.9275120737713188 0.47428114101760366
3 0.9104227151369565 0.9078936584997904
4 0.7803861588518365 0.35993452200692344
5 0.057844491621141136 0.7154245119113899
6 0.40901949477387023 0.9482513171864575
7 0.7969644190825236 0.4754755440960948
8 0.0344153760137883 0.5918968027581415
9 0.5199512441396237 0.18081777624314865
10 0.8659850265312325 0.6609980716538201
11 0.37990726113975504 0.9899957934120273
12 0.7790991302884143 0.06286741019013609
13 0.2314579444624527 0.6299574670669298
14 0.30138901619920666 0.6335841378603998
15 0.993752824770387 0.2972126652685433
16 0.39492922396955177 0.16300230369954793
17 0.9692047894218577 0.31216210038163905
18 0.19194335459222966 0.3473242499875543
19 0.9567794595311399 0.3037297794879028
20 0.28609141826776363 0.5952484946024275
21 0.18389764170091316 0.6483346234328013
22 0.8976701107692479 0.19930442821816607
23 0.2939102218283568 0.9535651433364356
24 0.8558997084758213 0.6230752214508478
25 0.9036056794926447 0.9042933747192924
26 0.44279655616587377 0.579741206165693
27 0.4019604641708143 0.17277785048111483
28 0.36459063665287583 0.8642777797195499
29 0.21381517536376593 0.7221205010694388
30 0.4892410042998262 0.63014883727446
31 0.8343994486288686 0.4851545725229137
32 0.11038553301925103 0.1318919900583011
33 0.04224560619263851 0.16586330894515933
34 0.9214579482948372 0.16968896560635083
35 0.4422602709313125 0.21562961472466524
36 0.3768075848148891 0.7010683387909029
37 0.667866475149387 0.14929266581347378
38 0.05360649659066441 0.14155622413442825
39 0.06973118072774287 0.5726968770012728
40 0.4851880072664948 0.9534793294208542
41 0.7941667794380272 0.5515333423910609
42 0.8559739511823234 0.864989523490534
43 0.24111783987516955 0.14618380349620308
44 0.876049089406043 0.8689959631405179
45 0.11963033055611005 0.8886838500202244
46 0.11770682126385101 0.7112081282432813
47 0.23378305487896178 0.05009995819142654
48 0.8197064664297435 0.5685313913074206
49 0.883341413355282 0.9301298690020641
50 0.6982719803170041 0.12095299494780676
51 0.44262821831359866 0.6472638929747976
52 0.8807487931037479 0.8278316215937505
53 0.7441312317688059 0.9892896902384832
54 0.1862226691472656 0.23844237027096182
55 0.7667853457527838 0.9605709983562761
56 0.16242573743250743 0.40396135900497543
57 0.3756492647265972 0.13711929398226042
58 0.5818924844233053 0.16029688073833015
59 0.1160243991449863 0.7561454735270463
60 0.7832555053889548 0.8738115272175808
61 0.3653656015595945 0.18918965938180088
62 0.5906054940329346 0.2618520397946096
63 0.38907205970612413 0.30739222241566744
64 0.5329163301700349 0.4317712322405376
65 0.3402707975083399 0.44166307565885177
66 0.3227910774518632 0.7694818971784423
67 0.3464497169749462 0.14076143586440104
68 0.6982532028219227 0.7698936871210652
69 0.3203403492428044 0.952862966922085
70 0.5947252412685117 0.970963768602106
71 0.7906966901716425 0.8689181161677703
72 0.36782964438380783 0.6619073699158223
73 0.9847685951688478 0.29455220404447535
74 0.6952859204069534 0.7332753006627581
75 0.23119674165297743 0.9703459233985487
76 0.11478127091326962 0.3791540408154237
77 0.02425681427675741 0.0164559770431435
78 0.6704609612247866 0.8924958058337784
79 0.1481217172710969 0.7565221889833915
80 0.2425150806388302 0.8570281372164456
81 0.2613729523099124 0.25849760657058285
82 0.9446591820377288 0.3613140628785745
83 0.48056118593829145 0.4566479675929811
84 0.9258090010570802 0.3744548732771753
85 0.06481112726331917 0.9303533489432704
86 0.7706366009131065 0.7245606122410494
87 0.33209638735183944 0.7446615914070073
88 0.2255324496417902 0.8116840765029333
89 0.42646371231808655 0.3930445740581682
90 0.42300635720839785 0.09133247723920845
91 0.4914154183239988 0.4432060226802812
92 0.9979881402500327 0.8988921997931488
93 0.3735773159971344 0.6804197377467487
94 0.004201369528636256 0.11800362703266953
95 0.6924624498908488 0.7283291486935396
96 0.3243571042458332 0.4014356858091911
97 0.6089351782384095 0.7608956929707174
98 0.7096283348362241 0.6913838385966048
99 0.8860844537458304 0.3364989801928435
100 0.6272430481626046 0.9567589989979324
101 0.9080310023154847 0.05639591414416678
DEMAND_SECTION
1 0
2 1
3 3
4 8
5 5
6 5
7 6
8 2
9 9
10 2
11 6
12 2
13 4
14 9
15 4
16 1
17 1
18 1
19 7
20 3
21 9
22 3
23 6
24 4
25 8
26 5
27 5
28 6
29 3
30 3
31 4
32 5
33 6
34 2
35 1
36 1
37 2
38 7
39 6
40 9
41 5
42 7
43 6
44 5
45 1
46 3
47 6
48 6
49 8
50 9
51 3
52 9
53 5
54 1
55 3
56 4
57 5
58 9
59 9
60 8
61 4
62 8
63 5
64 5
65 9
66 9
67 3
68 7
69 3
70 4
71 9
72 3
73 9
74 9
75 1
76 2
77 3
78 7
79 9
80 2
81 1
82 6
83 4
84 4
85 2
86 7
87 4
88 9
89 9
90 8
91 8
92 1
93 7
94 1
95 7
96 5
97 8
98 1
99 6
100 5
101 3
DEPOT_SECTION
1
-1
EOF
