NAME : gen100_018
COMMENT : uniform customers, demands 1..9, generated by bench/make_tuning_set.py
TYPE : CVRP
DIMENSION : 101
EDGE_WEIGHT_TYPE : EUC_2D
CAPACITY : 50
NODE_COORD_SECTION
1 0.1885486842691072 0.06291376344881616
2 0.6073820799425815 0.39195616932931165
3 0.11502706063979473 0.6034633034924869
4 0.05201544958334059 0.07803045466268788
5 0.9832030110012339 0.1657920057375598
6 0.5461228982171488 0.6177922551323676
7 0.61744300581078 0.043647682446333214
8 0.4935258810746751 0.06939415587263764
9 0.506605295263966 0.4759065133901439
10 0.6861957329384348 0.5666767740404259
11 0.4766716432729555 0.8886304694402307
12 0.8016502927070833 0.19132965616179753
13 0.12489031143857654 0.7709735027654465
14 0.491496949158829 0.6263955255964566
15 0.40162559397315134 0.6530327572521556
16 0.5400507262751868 0.21718419529116095
17 0.46994753064719363 0.08850528664330892
18 0.406014898069183 0.3536410927433311
19 0.06876447293660393 0.26785462430594253
20 0.6687926456285972 0.9148025632605602
21 0.26372086874349465 0.3022378605406667
22 0.9357361364618719 0.03110065642097759
23 0.29362194809637365 0.8992175567176958
24 0.5369855020658981 0.9260351180691567
25 0.4493985073513692 0.020755492165144718
26 0.7044587776107425 0.06283017031260674
27 0.8143662565482082 0.0322188040220619
28 0.6346893317632906 0.99234228518247
29 0.06669264244566298 0.18335839896478745
30 0.11740855430396457 0.3507077340958744
31 0.10530616090751221 0.42891481492269
32 0.8553119105693953 0.39563771168504225
33 0.36321429964499075 0.8225410813513906
34 0.9279222073046425 0.9282039342762621
35 0.34733210273408544 0.03245836553700221
36 0.4663416331767489 0.8726135676524961
37 0.01022197717550588 0.47915813219159176
38 0.42697479616760015 0.4227177488418382
39 0.7867737556174236 0.6191283410285096
40 0.07216215319858954 0.8357310638284899
41 0.1193763516071149 0.8777249034167172
42 0.7189191971440853 0.7965483696612919
43 0.3168655299313595 0.9325555824521615
44 0.6567192425747322 0.19470498811378334
45 0.5775843911028237 0.5682999769098284
46 0.3975984023427819 0.10220351054210686
47 0.22464940563324187 0.4880088436769219
48 0.9687857665433601 0.7693975625565652
49 0.4447089492879669 0.02935438380685773
50 0.562767720389979 0.3820015281506729
51 0.4560568556791641 0.8687131864258726
52 0.353689601822192 0.773611088772667
53 0.3402726294999804 0.6486811233177817
54 0.0925319051814143 0.0253092735194963
55 0.7655766395038774 0.019349995714814217
56 0.1447336340041282 0.9235696252160125
57 0.10906377576074366 0.9371341580452994
58 0.8327246650333395 0.7637680363475802
59 0.8221154959599808 0.35156385589315853
60 0.557960279682539 0.6409275534967797
61 0.2790516554575774 0.6311929592916902
62 0.7907466412204767 0.03916017078641998
63 0.8185514347679524 0.06093553384129202
64 0.03926351125714722 0.9755444600422201
65 0.33605110498113555 0.3039349658806414
66 0.0429989668694325 0.8994989339927401
67 0.26332482741895846 0.3746184965539643
68 0.7670590529577765 0.46071672657662655
69 0.8045484185401639 0.5104282731228068
70 0.25192806632189346 0.9652739713353662
71 0.13248692710125853 0.7302821871609337
72 0.18588582015621957 0.8125624498620703
73 0.26225070464366274 0.7818186447671902
74 0.7121658601259238 0.005910979409699535
75 0.8547250132665499 0.5035471379172689
76 0.35227965388950044 0.11922087949129856
77 0.47684229099482933 0.6234533500754743
78 0.43274364701502466 0.9332128889928141
79 0.8747878935488455 0.923963119714181
80 0.6259273478804634 0.5792205670335476
81 0.3728587879844125 0.5467794194778377
82 0.8824022966147828 0.8903121705789079
83 0.2900610718145519 0.46563565937375184
84 0.09251311956153319 0.5315783624400158
85 0.16267849044123606 0.023859707679178555
86 0.8868679540957657 0.6599612502153538
87 0.3289389731292567 0.4894960489102327
88 0.5285882458541793 0.12239327479880913
89 0.4934982420113162 0.0932267173314898
90 0.7979344351612763 0.8868015909668552
91 0.9215189089225153 0.2641474758241854
92 0.8657221432548612 0.9190918475370721
93 0.9888635895868243 0.4137273710971553
94 0.14819050391973732 0.09983574644430016
95 0.37569723762993334 0.6490415084042629
96 0.2502400886964212 0.661292514683163
97 0.42658335904840694 0.019101217424534966
98 0.27794977796125375 0.7020079438842525
99 0.1824238969816787 0.13931430174775172
100 0.5747816221623229 0.16786161272799782
101 0.06994290797408576 0.6219458511316799
DEMAND_SECTION
1 0
2 1
3 7
4 9
5 7
6 1
7 7
8 6
9 9
10 9
11 6
12 4
13 6
14 4
15 3
16 4
17 4
18 8
19 4
20 3
21 1
22 8
23 1
24 6
25 7
26 1
27 1
28 5
29 3
30 8
31 9
32 5
33 2
34 6
35 4
36 8
37 7
38 5
39 9
40 5
41 3
42 2
43 6
44 6
45 7
46 7
47 2
48 9
49 6
50 4
51 5
52 5
53 7
54 3
55 4
56 9
57 3
58 4
59 9
60 8
61 4
62 4
63 7
64 9
65 4
66 2
67 6
68 8
69 7
70 3
71 8
72 2
73 3
74 1
75 4
76 5
77 3
78 2
79 4
80 5
81 3
82 5
83 3
84 1
85 7
86 8
87 6
88 8
89 5
90 1
91 1
92 1
93 9
94 4
95 5
96 6
97 4
98 2
99 6
100 7
101 6
DEPOT_SECTION
1
-1
EOF
