NAME : gen100_010
COMMENT : uniform customers, demands 1..9, generated by bench/make_tuning_set.py
TYPE : CVRP
DIMENSION : 101
EDGE_WEIGHT_TYPE : EUC_2D
CAPACITY : 50
NODE_COORD_SECTION
1 0.30646380142452123 0.41090198239472286
2 0.282415924253558 0.43084704871930846
3 0.4232610687110806 0.712627647086189
4 0.7995235349459493 0.7351756766552234
5 0.035568810936016715 0.02531795503847012
6 0.4895463612784632 0.33673871728965
7 0.9755034679965898 0.38702969671458654
8 0.4254985429244652 0.3572034242142881
9 0.21220833870882305 0.824091842213227
10 0.6675028918483826 0.8492776148669438
11 0.09431264325964828 0.8293105309466516
12 0.38876896559586593 0.8070988332082487
13 0.38860299041202084 0.32211910686950795
14 0.6936556056509613 0.7554464506738116
15 0.743582196133751 0.05416804818305965
16 0.3326474788209556 0.686283097829046
17 0.7831799859997136 0.8156313951588529
18 0.559503792462345 0.26774396149746504
19 0.43743249964863096 0.20455730381994708
20 0.5764735901026332 0.6456126645519459
21 0.22467148732998343 0.6246346831790512
22 0.3365272802429784 0.8352728403378343
23 0.4139455774006934 0.48495876201752974
24 0.9453762112082669 0.7687595824302149
25 0.5757261602044137 0.9825792126240448
26 0.6974389521583205 0.9574782306668321
27 0.509659307977649 0.09668169014482542
28 0.9029093719568201 0.9767475693658242
29 0.6708584052983162 0.9764355887093572
30 0.6763676604925993 0.004943768123030989
31 0.5574236522045459 0.45884390678732423
32 0.5767408964680453 0.13772106322190558
33 0.5426050818155671 0.0053491891959781546
34 0.7852823118353885 0.9670422108451022
35 0.7789774572701684 0.8705948878837036
36 0.9128751817809383 0.9444618825644169
37 0.15880365945503017 0.5813762746898635
38 0.2348934711765267 0.40065441604341956
39 0.12448197231930114 0.1454618411303631
40 0.20615497427730023 0.9735450902446416
41 0.9889408754422937 0.4222597443760209
42 0.6647426718100948 0.9279607959882382
43 0.058556477394022255 0.13955036659426068
44 0.5699261833998398 0.5141801628234814
45 0.2662392344214991 0.7362848889676298
46 0.5412539511078726 0.23079874894535723
47 0.1282920788159564 0.4526282044586134
48 0.5547825312105543 0.471369436103686
49 0.060444934918163384 0.4971014638079039
50 0.01341917644619195 0.12917226045614594
51 0.5363603383512517 0.9275922891905474
52 0.28228368110160307 0.5952267215632572
53 0.7588786151670441 0.7410383215032473
54 0.47401535818221574 0.390705824210666
55 0.7994517310873813 0.9884252894656327
56 0.24285868033456226 0.219785106642162
57 0.21067919245928546 0.7799452586870311
58 0.0048664068302637364 0.3948081717997376
59 0.7930588224021411 0.40214875763350966
60 0.7147712976158791 0.05760318874034809
61 0.9660930202970571 0.2732631510024056
62 0.07410507254755494 0.6941627860067829
63 0.47655709380610667 0.790288999155019
64 0.15664547116375327 0.7913720029405754
65 0.8735226606367031 0.26881699916852675
66 0.0706622627722775 0.25227336543799017
67 0.22662594630767474 0.7354459907753128
68 0.621027525404754 0.5992053701482004
69 0.8429704835112906 0.23231672680393556
70 0.5145776881668769 0.07488612515566806
71 0.132140005125305 0.15508050430383968
72 0.07701260142382704 0.33232997361426797
73 0.9008785883607675 0.7921465204724379
74 0.9732681896591386 0.31501370199860224
75 0.9894514846808227 0.6719860164285657
76 0.4734631550301708 0.9192868564707263
77 0.7035169954330547 0.10353648228676227
78 0.32614642007775596 0.6782015271645929
79 0.31909919323105196 0.4958415223325977
80 0.28402017330207596 0.5159290010554286
81 0.9206925446314135 0.9544631013128172
82 0.0009021857146078727 0.1038954218909558
83 0.565190667955377 0.041040493787010024
84 0.7446648938414342 0.9138798949302926
85 0.07050462993741102 0.8026688337212599
86 0.433942547591031 0.3441504252620995
87 0.7094567911535254 0.5655771691326041
88 0.019719519609557756 0.17104608440934543
89 0.8159217719042885 0.36489182963375744
90 0.8356081093703943 0.27498912497695316
91 0.03530757618368119 0.8844921389008201
92 0.9605242209668468 0.4865357486903745
93 0.06630838815251117 0.7062122841418705
94 0.10935483228180964 0.030618778650950196
95 0.029361983674939807 0.4603936532629722
96 0.719164984712784 0.38438612033788466
97 0.2323780226852843 0.23083449749128981
98 0.2899037140471611 0.9593098877492016
99 0.0550014541646312 0.5102254948788133
100 0.9939492446436089 0.48421245427640813
101 0.8189382891265624 0.6227531671449184
DEMAND_SECTION
1 0
2 7
3 5
4 1
5 3
6 4
7 5
8 6
9 8
10 2
11 1
12 5
13 2
14 3
15 7
16 7
17 5
18 3
19 3
20 8
21 9
22 3
23 6
24 5
25 1
26 2
27 8
28 6
29 8
30 3
31 8
32 2
33 5
34 9
35 5
36 5
37 1
38 8
39 3
40 7
41 3
42 2
43 2
44 4
45 7
46 7
47 7
48 9
49 4
50 5
51 6
52 1
53 7
54 3
55 4
56 9
57 1
58 4
59 8
60 5
61 2
62 9
63 2
64 4
65 6
66 2
67 6
68 1
69 3
70 8
71 9
72 5
73 9
74 9
75 3
76 5
77 7
78 5
79 7
80 2
81 9
82 2
83 4
84 8
85 1
86 6
87 1
88 6
89 1
90 8
91 1
92 3
93 6
94 4
95 8
96 7
97 1
98 7
99 6
100 3
101 6
DEPOT_SECTION
1
-1
EOF
