NAME : gen100_006
COMMENT : uniform customers, demands 1..9, generated by bench/make_tuning_set.py
TYPE : CVRP
DIMENSION : 101
EDGE_WEIGHT_TYPE : EUC_2D
CAPACITY : 50
NODE_COORD_SECTION
1 0.657463803305701 0.921915690482041
2 0.6508413451140478 0.8054799251245244
3 0.5433034746142534 0.9137828820771744
4 0.892233849503602 0.4395649721524947
5 0.13614185807117207 0.3774329943849625
6 0.21957265668907033 0.8452254208041409
7 0.49249958341642575 0.6521554361191504
8 0.6999739151662 0.5284672686609844
9 0.8478742320988486 0.26681272330447836
10 0.23485839005988696 0.5773612983071041
11 0.8580855272513819 0.2841903119794982
12 0.2721847447286754 0.8860721423080391
13 0.4914319243561218 0.38485659649858583
14 0.15950892295101582 0.6267369141517414
15 0.9840249985552257 0.39303829814564306
16 0.3343761954314516 0.10939218717521959
17 0.05192964616353468 0.6664503209756945
18 0.9187356887883599 0.5457012001479974
19 0.2605319409483774 0.015382847077569872
20 0.09610410864789454 0.9238209538065761
21 0.3800874833874073 0.2820963050485428
22 0.4329837938649762 0.03104346466444441
23 0.7744175708388223 0.19775343187639682
24 0.9253753698279478 0.5108897360134592
25 0.9212058007653876 0.6139470865218597
26 0.42452005063015574 0.2459795891269536
27 0.4905331473004325 0.0412151903986826
28 0.4782215576320227 0.7490960506454153
29 0.9586610618186417 0.10991795120974646
30 0.22687901210445538 0.07704196156505949
31 0.060016745197525645 0.46240525163833235
32 0.5597736648758904 0.6075385319566972
33 0.34942130694955764 0.2665274409455315
34 0.7951157398417357 0.9061183242728268
35 0.3983621647425222 0.507432712599097
36 0.5005998641947557 0.9433905830803593
37 0.7469544407104511 0.11982126251049907
38 0.7771120046806206 0.44842555032953024
39 0.2732690353722914 0.7274112579184391
40 0.4742928070204223 0.8294799797915493
41 0.41992500825660806 0.35561296811947307
42 0.7682169001756127 0.046782361729553745
43 0.31861672963489374 0.8229859692006574
44 0.4062700071634512 0.7228218271126816
45 0.8287237883888916 0.25384519048804066
46 0.8046669503984869 0.02333389486158899
47 0.565272186847929 0.09850677139845254
48 0.6003589629686016 0.02915212525042221
49 0.5282907189730587 0.11636006680665634
50 0.7039379189260606 0.4478884290925338
51 0.130702605593912 0.7499576105456782
52 0.8723320887128029 0.7812668233823289
53 0.7923195487297351 0.7531650050396356
54 0.6958043262339061 0.6546077904380071
55 0.04459960991847711 0.031846493479910976
56 0.5711123569434221 0.9757654321700003
57 0.2850353542744192 0.01835692551557
58 0.23226445662334605 0.4718803479220146
59 0.45003711510456224 0.7101282692717099
60 0.28506951287491644 0.009247877653160486
61 0.5332273848953034 0.4036217206231496
62 0.9534629370055134 0.509681272045123
63 0.9803667506897231 0.37588803454302344
64 0.06748158527103754 0.7058672524413703
65 0.3108644630620827 0.6230705586871148
66 0.9199077736223612 0.602750447509796
67 0.8441635024934739 0.5845575547400443
68 0.5293104710710085 0.14942864762179076
69 0.9082650895293792 0.2778267263213017
70 0.5299882633627774 0.43923731473023375
71 0.1632742595455524 0.4823137127719296
72 0.6438124279539826 0.9741698753097604
73 0.29036492962100025 0.07268475909413519
74 0.7407983158726108 0.715853812531037
75 0.5496277384235214 0.7655763291974957
76 0.06599044641379004 0.4841189395114689
77 0.6188931788635776 0.48338339781579465
78 0.9270794270698284 0.28805233961685783
79 0.9890592888574458 0.3959151931572191
80 0.6172080842245875 0.8521682492981038
81 0.9111332039257694 0.8877940891295407
82 0.12805968144970548 0.04464711909269925
83 0.5770703870615358 0.6030759660449992
84 0.7455326647798625 0.5702887679136883
85 0.855674554503352 0.3061588825569391
86 0.4222744296254394 0.33858703766205145
87 0.275669531703734 0.4749328991960087
88 0.9602975170760385 0.3984872050977383
89 0.3096228470626742 0.30060817924380545
90 0.6470692238377034 0.7884696800347211
91 0.03153408027720661 0.5688914598962415
92 0.49499727648562697 0.2324007865206671
93 0.10796309081435973 0.9052869968445847
94 0.48109243123601997 0.5627548107624457
95 0.35603867017473734 0.9112271902322095
96 0.4039076790829762 0.4520011859850067
97 0.3849846442849395 0.46665619029637173
98 0.826138386371968 0.8153005790623004
99 0.6811806692672575 0.6893525507864319
100 0.3804211908055033 0.07779967869078952
101 0.47804284790314455 0.3583626246263112
DEMAND_SECTION
1 0
2 9
3 9
4 1
5 1
6 7
7 5
8 4
9 3
10 7
11 9
12 1
13 5
14 5
15 6
16 4
17 8
18 6
19 4
20 5
21 2
22 9
23 5
24 6
25 7
26 3
27 7
28 1
29 5
30 5
31 6
32 1
33 8
34 6
35 2
36 2
37 8
38 8
39 9
40 9
41 6
42 4
43 3
44 3
45 6
46 3
47 1
48 1
49 7
50 5
51 3
52 3
53 5
54 8
55 2
56 6
57 7
58 9
59 4
60 7
61 1
62 6
63 9
64 2
65 4
66 6
67 1
68 9
69 8
70 9
71 5
72 5
73 1
74 5
75 9
76 1
77 7
78 2
79 5
80 1
81 6
82 2
83 9
84 9
85 6
86 2
87 7
88 2
89 5
90 2
91 4
92 2
93 5
94 1
95 5
96 4
97 4
98 5
99 7
100 7
101 2
DEPOT_SECTION
1
-1
EOF
