NAME : gen100_038
COMMENT : uniform customers, demands 1..9, generated by bench/make_tuning_set.py
TYPE : CVRP
DIMENSION : 101
EDGE_WEIGHT_TYPE : EUC_2D
CAPACITY : 50
NODE_COORD_SECTION
1 0.5416222873498447 0.21709618913148943
2 0.20892800752272855 0.5745692129707181
3 0.6215704992068237 0.35243644718395695
4 0.11670352626059644 0.5906226122093664
5 0.8987181602120958 0.23765648982624243
6 0.5913804660588252 0.11034531710878459
7 0.8233223040727712 0.5299008034540515
8 0.6407848091225382 0.32395264275620805
9 0.8687615779839278 0.5512554801017927
10 0.5323753732308075 0.8555538745570914
11 0.18613028948267107 0.9205712441539862
12 0.4439757834421135 0.3538996363376219
13 0.7608628800490187 0.40133591078839914
14 0.4441677244420188 0.23682692803593497
15 0.7583239999880744 0.3589506285435399
16 0.11623880989307023 0.010690892676059716
17 0.06960220805275807 0.25733661141211917
18 0.8066933563841532 0.14312133135568017
19 0.04853145930149905 0.5994449825899169
20 0.48815032181611584 0.4717650435058205
21 0.7017657872193741 0.5542261070159366
22 0.3047207359052311 0.8979023001425902
23 0.4137447558075793 0.2449083030014807
24 0.2501907393822943 0.7256264364915668
25 0.014899992621076774 0.9559494241435971
26 0.9846013957749233 0.47675046421940126
27 0.9966761319552292 0.1246860221983016
28 0.05646880109376207 0.5015738494330007
29 0.6646082022648478 0.19714929509452628
30 0.2017840406334267 0.9761770340024832
31 0.06732172172087802 0.03919126571567255
32 0.6112362322904625 0.30985225962675556
33 0.8259693537182562 0.5603071791843482
34 0.47641968626314135 0.3686388121512879
35 0.6288716234241006 0.23582603535489466
36 0.9673206859362992 0.6223368865743504
37 0.3727664333322389 0.15017322702754288
38 0.2850374139510766 0.45421163754544136
39 0.9663482179174656 0.5164735107695966
40 0.25791551802633084 0.46683417657129633
41 0.3443965951349659 0.3565832690621895
42 0.2693917873903312 0.28114032957068646
43 0.03231736560691645 0.6360057616128872
44 0.6285876383905964 0.6487767142628854
45 0.13578033415153845 0.2566107550355792
46 0.4681706900602567 0.15465960209757623
47 0.2119933617501829 0.7475428551708715
48 0.9128067035177376 0.24961377745514313
49 0.47669369167146025 0.5605843053283078
50 0.032548504002828715 0.7979528284270931
51 0.5407563887659046 0.3524599374214038
52 0.01847137415621558 0.13253896622259076
53 0.7455997524038224 0.09619899941672083
54 0.46282580820413466 0.5708319230340632
55 0.713849442082602 0.485082777921897
56 0.7405474834142839 0.21685791982879132
57 0.7560336270132995 0.277703090755799
58 0.6032063987900828 0.9755005812283752
59 0.5474615978797547 0.6207608589458109
60 0.0003596161219524552 0.06915259981863786
61 0.4544395609000902 0.8894322792171322
62 0.766907304012403 0.6569770721837228
63 0.8236092572945977 0.816884123281523
64 0.028905617501655656 0.02973437238830401
65 0.3175323895318859 0.147177983738635
66 0.3932384297682774 0.38119767332988164
67 0.17687752922660205 0.35108578085354025
68 0.6908207632124527 0.5847004110576068
69 0.8749468054767243 0.12514624567064725
70 0.6798523722618786 0.29373226210479586
71 0.7990935371821798 0.1208338820658873
72 0.5873103926444713 0.18241080572174095
73 0.5495765611826475 0.15458065588313485
74 0.8306294067791968 0.9621681094972994
75 0.9226044559406136 0.7968076947087304
76 0.9856137565850285 0.2988450149337454
77 0.5505498096712969 0.3372158380589194
78 0.1772098890588094 0.8036442409767157
79 0.10905053689518873 0.7732979317453555
80 0.922064337764426 0.6079357491108293
81 0.9145780969686984 0.4374856818067753
82 0.5593046671149493 0.049540551811042444
83 0.9007559806449369 0.5281114199050513
84 0.7364688857108043 0.6130852796285183
85 0.48971751993033896 0.6678362620972312
86 0.6814699577794583 0.27994577603927806
87 0.3110954936222804 0.9984346274078715
88 0.1287879398409818 0.11073201019246504
89 0.8753292718890072 0.7275846609441307
90 0.6780547680396071 0.545305651786238
91 0.29546909302778257 0.9236891488556078
92 0.09246961336147885 0.405524630868354
93 0.9118473964747791 0.7938289134235578
94 0.5026328088071482 0.29306487509189694
95 0.019002892991019982 0.27148105248743026
96 0.6516112243902518 0.6377910128207464
97 0.5791776187975817 0.1391817220062651
98 0.6281679807794243 0.659791458028077
99 0.14687690434141565 0.765055709650184
100 0.3850044884536584 0.5831697483760859
101 0.1143118190090443 0.6939157478457092
DEMAND_SECTION
1 0
2 8
3 5
4 5
5 7
6 1
7 9
8 4
9 8
10 9
11 8
12 4
13 4
14 5
15 6
16 1
17 1
18 1
19 2
20 5
21 5
22 4
23 8
24 3
25 9
26 8
27 1
28 8
29 4
30 3
31 6
32 2
33 1
34 6
35 1
36 2
37 2
38 1
39 6
40 9
41 5
42 9
43 3
44 5
45 9
46 4
47 3
48 1
49 1
50 4
51 8
52 3
53 1
54 3
55 3
56 9
57 6
58 7
59 4
60 9
61 5
62 9
63 3
64 8
65 6
66 3
67 4
68 7
69 4
70 7
71 5
72 2
73 9
74 4
75 1
76 3
77 5
78 3
79 9
80 3
81 9
82 8
83 6
84 4
85 5
86 3
87 3
88 7
89 9
90 8
91 6
92 1
93 1
94 1
95 3
96 7
97 2
98 7
99 5
100 2
101 4
DEPOT_SECTION
1
-1
EOF
