NAME : gen100_027
COMMENT : uniform customers, demands 1..9, generated by bench/make_tuning_set.py
TYPE : CVRP
DIMENSION : 101
EDGE_WEIGHT_TYPE : EUC_2D
CAPACITY : 50
NODE_COORD_SECTION
1 0.44479403189436384 0.6769878474917062
2 0.22535079367556987 0.4683829483938836
3 0.35330825044751013 0.36605561591634417
4 0.756384900599497 0.13230252407147725
5 0.49735876197809736 0.24115062553263278
6 0.6222242949350375 0.944300011379221
7 0.045431973011656135 0.44769350908526284
8 0.7450982451387282 0.714807013189679
9 0.015550140942955037 0.593905609096725
10 0.1747057090464813 0.740712521881667
11 0.796370416261538 0.6774712985127724
12 0.27512103347641736 0.8816615134974679
13 0.17583779247066822 0.35905278420568976
14 0.9037684531303907 0.8125554134935236
15 0.04255075518863538 0.7492030161127402
16 0.8446792422266635 0.699903852973147
17 0.6015826167019027 0.6873648087958749
18 0.06497469261087985 0.63061473918131
19 0.836659324738198 0.5406578380215659
20 0.9162228750549347 0.8202177283358213
21 0.5322462861778642 0.1380899709038923
22 0.7938408112744285 0.49889734856551426
23 0.17598889400218987 0.15980882784144068
24 0.7413468443383738 0.9767216802149223
25 0.6658599343267264 0.2709837200278845
26 0.8580110544425062 0.5908772426242774
27 0.5957322653056171 0.7956360409894637
28 0.47385518952251504 0.6486778387193183
29 0.7134209105277804 0.31835215754063495
30 0.11207201497048047 0.825926537660331
31 0.10782129213423175 0.01898576229287574
32 0.674568814015466 0.6758580193841016
33 0.9674881871878522 0.5108647622965646
34 0.1068670282894808 0.13206920132861333
35 0.6085297842199389 0.6951572672896089
36 0.44312414843716097 0.7440800058436111
37 0.024867843710958404 0.4394181926811077
38 0.9688506236579812 0.4021289700730073
39 0.9364084427692388 0.8548279636086213
40 0.21952994632372058 0.7541189410169057
41 0.2425298934833373 0.17575207330011677
42 0.17213400768730214 0.27889419168114526
43 0.6925122936192106 0.09065096980047826
44 0.6524723214782654 0.052236693218315255
45 0.7202691910852987 0.016302039180051464
46 0.8315523912153888 0.6367399840389147
47 0.6925874321844941 0.11062123932000945
48 0.2893336087203068 0.6540905886263026
49 0.1933139158410735 0.022303003831431578
50 0.7653142839956718 0.907734353296726
51 0.8497140022164088 0.9956503357869877
52 0.11939655972568353 0.4455447747177165
53 0.05485505765020593 0.6170027349316222
54 0.3966157918197405 0.3810646644523301
55 0.7033273763992912 0.5333420481397698
56 0.9740185005739422 0.1504352141823726
57 0.5801406033509107 0.011643374281660623
58 0.4317686573506908 0.24404750907897177
59 0.8233685795486286 0.5846599904173354
60 0.37934879706567237 0.48502380509853926
61 0.9363301845112333 0.23833034103916206
62 0.6317987633222711 0.6737144487124078
63 0.3739053107719216 0.5067969892265606
64 0.49175889576218645 0.7964790166194462
65 0.6310091956330273 0.2436215833185219
66 0.032407261428719414 0.24812838358338485
67 0.07892751919007968 0.1258192478494341
68 0.8100962515905563 0.19618552090542118
69 0.07650850017330046 0.12500342300872724
70 0.5394406290578939 0.045224184348566676
71 0.7761912115837244 0.48863633960182506
72 0.5362571967749605 0.8443933509754876
73 0.8226448479076385 0.9723721546565269
74 0.06773558513227473 0.9991849389941977
75 0.8762265023510079 0.013579615739148787
76 0.5216595580407616 0.15475327207412237
77 0.07884628067122024 0.2172260419371248
78 0.5593237511367462 0.977094371157771
79 0.3199021910799924 0.8860330658374854
80 0.5825479980435533 0.7129431450275256
81 0.302414382211999 0.3127546501154388
82 0.8471787195189235 0.7340182531491494
83 0.4508873629945219 0.49209996808625445
84 0.7625078424595015 0.7900385971613412
85 0.3884392308584751 0.8872544688227492
86 0.5972693856783061 0.6556392451582553
87 0.8748413499658814 0.25544846845331537
88 0.7335243638435544 0.638312539197946
89 0.6038754669386125 0.0727730973889611
90 0.3373904285908792 0.06726733683178887
91 0.2179451837647658 0.2688246756227559
92 0.042761152964837845 0.9816686978454652
93 0.9192162716950906 0.8359960399582822
94 0.0531174751306831 0.6749848011102492
95 0.13362682145872085 0.29128238358237024
96 0.6756061369555081 0.007870614118867247
97 0.3387373276647263 0.623842247515212
98 0.14379518151048554 0.4143617179859499
99 0.9563450809509385 0.0605228796087145
100 0.2360169448683801 0.4006860247678049
101 0.4253198790685786 0.11153594668406286
DEMAND_SECTION
1 0
2 7
3 6
4 6
5 1
6 1
7 8
8 1
9 3
10 4
11 7
12 2
13 4
14 9
15 2
16 4
17 2
18 3
19 5
20 7
21 8
22 1
23 9
24 7
25 8
26 3
27 5
28 4
29 5
30 5
31 2
32 1
33 8
34 6
35 4
36 4
37 8
38 8
39 2
40 2
41 7
42 7
43 4
44 3
45 6
46 3
47 2
48 4
49 5
50 2
51 5
52 2
53 1
54 9
55 3
56 5
57 3
58 3
59 2
60 4
61 6
62 6
63 2
64 9
65 7
66 4
67 5
68 7
69 6
70 5
71 3
72 1
73 8
74 7
75 6
76 6
77 3
78 2
79 5
80 4
81 1
82 8
83 7
84 2
85 8
86 5
87 5
88 4
89 1
90 6
91 6
92 7
93 8
94 3
95 5
96 8
97 2
98 7
99 4
100 3
101 2
DEPOT_SECTION
1
-1
EOF
