NAME : gen100_017
COMMENT : uniform customers, demands 1..9, generated by bench/make_tuning_set.py
TYPE : CVRP
DIMENSION : 101
EDGE_WEIGHT_TYPE : EUC_2D
CAPACITY : 50
NODE_COORD_SECTION
1 0.02391485005207261 0.25459579734217885
2 0.4984166553208951 0.8083735250498233
3 0.030400056084374794 0.6412220794260498
4 0.5530601770794773 0.9438260854256493
5 0.6108315737812218 0.2504862275110409
6 0.2826215744112499 0.7334847391278995
7 0.3562594051935625 0.1287311571330958
8 0.9041631298756587 0.5397519378174069
9 0.2112547156353981 0.042032437448544346
10 0.209091392846811 0.45058466475319814
11 0.033314924425040915 0.9248203986763035
12 0.5675382707031716 0.7379708229792707
13 0.10131518412450258 0.813552915878663
14 0.52505730920028 0.8949684407393921
15 0.7989024201229955 0.285055417185479
16 0.9478353428778349 0.6201011930126406
17 0.6567515708506636 0.17404058165316705
18 0.06509269546912189 0.25105747989529015
19 0.9985473900464419 0.8610392628815442
20 0.9540476034154117 0.623271745905171
21 0.9030218765994648 0.08358614895513505
22 0.7035073780836107 0.9068163574937371
23 0.2975500047300963 0.4352631360085868
24 0.4819986620786292 0.7581812512783123
25 0.005567426246676943 0.1739445216467871
26 0.8835434852402716 0.6879327260226344
27 0.7730061092744288 0.757377671516538
28 0.4736401694715152 0.06995283712096989
29 0.030643167743507616 0.09512744825754382
30 0.30620790932586883 0.8527338659209254
31 0.28055082977297885 0.7625227146987921
32 0.7540603159614382 0.9348048149069014
33 0.1556211171366193 0.527034136072705
34 0.530858529425589 0.23800890209309256
35 0.9006913030925515 0.5576176880456324
36 0.8524286514151462 0.17754732042218468
37 0.048482394415428565 0.7602523056565181
38 0.3689766975996278 0.09928186556479435
39 0.5360486781104127 0.43396490223428363
40 0.32106291425308287 0.7984539790515777
41 0.047469456723678305 0.4537421660947425
42 0.2941853266180624 0.7616129427390684
43 0.29951310508270945 0.7265023508057583
44 0.8747336018218284 0.9057803279030365
45 0.4997842479103666 0.9147916593801378
46 0.04662774535967018 0.5666237393331566
47 0.5403403546985828 0.989164280792753
48 0.16709682501026446 0.6624748835281878
49 0.45636248847638305 0.8850147034976976
50 0.0946910482263309 0.28373848010552105
51 0.8666603767512229 0.7602269275672306
52 0.21133330375921566 0.12613020389068608
53 0.5699265911223262 0.6842072417256037
54 0.07411672538184721 0.31494151494546496
55 0.15917458977728205 0.2613695540217885
56 0.7683592436590362 0.4461297206191235
57 0.02383906337993824 0.86271140895574
58 0.3182243243171913 0.9794669651012766
59 0.602781447428546 0.08488294902229365
60 0.4349900337553543 0.293835790426886
61 0.8953293534870994 0.7523264502380327
62 0.7630008104598489 0.6299021770635609
63 0.5203432209455754 0.16750304155599838
64 0.6653459284881954 0.2973144027624549
65 0.7830259041725888 0.5195505557153327
66 0.7506744114527323 0.7579046333266053
67 0.03849001834467225 0.6223823085763056
68 0.8567573585015431 0.596861642092318
69 0.3641837954220787 0.52452724376256
70 0.9406276732365695 0.6448477882045273
71 0.9478898354412169 0.6044497529303453
72 0.4534438327212671 0.1775634756866119
73 0.75768342730882 0.9898044911906915
74 0.3976178750760566 0.8199903468077153
75 0.7953264457651712 0.6801285761143578
76 0.563303909262375 0.904134738152189
77 0.44679063308340483 0.6961443913877792
78 0.5353692147790211 0.034198943408107696
79 0.3929650729999712 0.8202246554872618
80 0.13954338446501868 0.16490350817239663
81 0.9158078939943031 0.8689417705851126
82 0.41542785478246225 0.05990782521138727
83 0.7756525843364447 0.2760635415474836
84 0.6613717555956539 0.8177377710784741
85 0.7254814229952028 0.1477465698584275
86 0.48331037797875875 0.7361460240900927
87 0.5864013250356396 0.02759432779219395
88 0.66784619599381 0.168983380313376
89 0.023549414234793176 0.3161000956172977
90 0.4677499883136481 0.31540567909944595
91 0.26716411955634245 0.5991141351791782
92 0.2925368281416255 0.058347742805033076
93 0.9286101380905087 0.2044338076267459
94 0.18160077218466786 0.16821729256193918
95 0.8763085663024828 0.5364297126386476
96 0.6059395620989496 0.7166035686683286
97 0.8002424709150603 0.5409318740631132
98 0.8220362667937996 0.8814750981724045
99 0.6852467750413748 0.09143415746877226
100 0.7687681875343677 0.4961128727718258
101 0.09728863651299602 0.1401594295556714
DEMAND_SECTION
1 0
2 7
3 9
4 2
5 7
6 3
7 6
8 9
9 4
10 1
11 8
12 7
13 6
14 4
15 4
16 9
17 8
18 9
19 5
20 5
21 4
22 3
23 6
24 9
25 9
26 4
27 2
28 3
29 9
30 3
31 9
32 5
33 7
34 1
35 1
36 2
37 7
38 3
39 9
40 3
41 2
42 3
43 3
44 1
45 2
46 7
47 3
48 4
49 1
50 6
51 9
52 8
53 8
54 3
55 6
56 3
57 1
58 5
59 5
60 5
61 8
62 1
63 8
64 3
65 1
66 9
67 3
68 1
69 7
70 4
71 8
72 5
73 4
74 5
75 3
76 9
77 6
78 1
79 8
80 5
81 6
82 4
83 2
84 4
85 6
86 5
87 1
88 8
89 2
90 6
91 8
92 1
93 9
94 9
95 4
96 1
97 7
98 6
99 8
100 3
101 7
DEPOT_SECTION
1
-1
EOF
