NAME : gen100_011
COMMENT : uniform customers, demands 1..9, generated by bench/make_tuning_set.py
TYPE : CVRP
DIMENSION : 101
EDGE_WEIGHT_TYPE : EUC_2D
CAPACITY : 50
NODE_COORD_SECTION
1 0.7876442590306728 0.6043161324413329
2 0.3065182763312455 0.7672156163004631
3 0.7282438951200723 0.9471231575435819
4 0.7213301421569218 0.03807368788184862
5 0.5554405597668309 0.9405109147593866
6 0.7179931327276664 0.43476762749418396
7 0.2710939256658471 0.23176814180914918
8 0.354376499693289 0.925614011429793
9 0.39486610543785294 0.9878559025707654
10 0.5223120431042785 0.38791191920348
11 0.21409329439362978 0.6094055863547884
12 0.9989762754086113 0.28914851542558695
13 0.13644823342214818 0.4230580174122298
14 0.6947716195655584 0.9048167784979249
15 0.7122587757615376 0.9174609692422914
16 0.24486923981225706 0.2566310371994579
17 0.5117692670428342 0.4873706331521136
18 0.22305599265380582 0.8840108228915186
19 0.26492666504935725 0.4594135367555302
20 0.2117166470052213 0.687402443063123
21 0.16012344628990993 0.510056165449578
22 0.7098250003961243 0.5830932448492946
23 0.12020340597203738 0.35651403610828847
24 0.235077875637832 0.5230878621217705
25 0.10167607683688984 0.2687474163471272
26 0.9187386206259088 0.6569591557176033
27 0.44627815151215133 0.2739646248014924
28 0.46314576553478637 0.25772472544874014
29 0.7844973415592901 0.5774900544417818
30 0.6206475611238315 0.8320440404127117
31 0.5447644355770582 0.812185127416838
32 0.8801108684306769 0.9899838556906321
33 0.1821845689929421 0.20271924565205068
34 0.518447355050664 0.29155492619364387
35 0.6948285820715103 0.28304037053049913
36 0.26315293036917786 0.3169264666435594
37 0.6771180955589394 0.562241955103615
38 0.31731480998173045 0.8491584497744049
39 0.04864690461698018 0.9915488356007078
40 0.12649300987067946 0.8416990336585548
41 0.27793610730620577 0.7021192249042966
42 0.5657494888027932 0.5684290900244376
43 0.13486544136654421 0.3437734608624309
44 0.37682468777131006 0.4693098223547296
45 0.37615546298687585 0.5649989057956801
46 0.3671063880457557 0.6094822612933009
47 0.6156823318904769 0.24429558677703078
48 0.2936559389711152 0.6977085389421401
49 0.5067190731975216 0.3730744592076495
50 0.5625798386854995 0.2100848451791607
51 0.23807909809958006 0.6034075000478536
52 0.9306584219119558 0.1096502117355398
53 0.582889791905748 0.2894837771474268
54 0.8627824984575803 0.0787357222666274
55 0.08735543063564566 0.07115806644971734
56 0.052437135212130115 0.9946605448217463
57 0.8223628101152604 0.36429014377911073
58 0.4415290537095172 0.10196831946808471
59 0.43871604683438725 0.4072137219025903
60 0.5383073123847143 0.7638376671495344
61 0.29004085092068366 0.024557363178705938
62 0.6802049348968416 0.7509733469291203
63 0.7917185833366094 0.42201725140444113
64 0.017253134125662206 0.027681000998626915
65 0.5652379396660097 0.0506696205289332
66 0.5729658385612921 0.9945449482126402
67 0.7797446186300422 0.41554016721397524
68 0.6682448703073998 0.25076682741479706
69 0.12549723491211928 0.27968378233041524
70 0.9332364580644259 0.4836837443705123
71 0.7749588682105095 0.2971379982288842
72 0.5963232692578554 0.9049005371876055
73 0.5949555704825749 0.64326972561092
74 0.49811550593620735 0.2772056275284649
75 0.2164799459309712 0.14176376672106905
76 0.07228888057582528 0.19596216971841063
77 0.9233237998262515 0.277072112444956
78 0.5434203630281597 0.05386982980810262
79 0.41645808330263634 0.32858742977634936
80 0.884033705395069 0.46906167623063355
81 0.4428784450909451 0.6742993197730496
82 0.9385640090737254 0.5975728772999783
83 0.9097038777441118 0.031278968979401967
84 0.2421251142316473 0.542682168214968
85 0.15228680257126437 0.05590077594866505
86 0.2589561075473581 0.11452501450980368
87 0.9587934348267225 0.5912934508559622
88 0.8473500727416647 0.08291514816439993
89 0.25414621974971785 0.06668388629278921
90 0.46666381940154 0.8856068341479667
91 0.3059345884184067 0.6772500532453722
92 0.6145229684312126 0.566015815671783
93 0.8939504274563153 0.5728167488595293
94 0.10160331877701356 0.236320429594578
95 0.887675256915203 0.7832141433053662
96 0.7586629325276425 0.07824434891630239
97 0.9654728117229859 0.271862694298869
98 0.8143888317299195 0.375296340004326
99 0.8771752346333838 0.5820909081436344
100 0.9032179624013499 0.551564430377922
101 0.5711573064274136 0.9251455477050775
DEMAND_SECTION
1 0
2 2
3 9
4 4
5 5
6 7
7 4
8 7
9 1
10 6
11 1
12 9
13 2
14 5
15 1
16 2
17 2
18 7
19 1
20 3
21 4
22 7
23 5
24 1
25 4
26 2
27 2
28 2
29 1
30 1
31 1
32 6
33 9
34 5
35 2
36 8
37 8
38 1
39 6
40 2
41 7
42 1
43 7
44 4
45 5
46 4
47 4
48 1
49 5
50 5
51 8
52 3
53 2
54 5
55 9
56 1
57 2
58 3
59 9
60 3
61 3
62 1
63 9
64 8
65 6
66 6
67 5
68 6
69 1
70 3
71 3
72 4
73 3
74 8
75 2
76 4
77 3
78 6
79 4
80 2
81 6
82 4
83 6
84 6
85 7
86 9
87 6
88 9
89 9
90 1
91 7
92 9
93 2
94 2
95 3
96 1
97 3
98 2
99 3
100 9
101 1
DEPOT_SECTION
1
-1
EOF
