NAME : gen2000_009
COMMENT : uniform customers, demands 1..9, generated by bench/make_tuning_set.py
TYPE : CVRP
DIMENSION : 2001
EDGE_WEIGHT_TYPE : EUC_2D
CAPACITY : 300
NODE_COORD_SECTION
1 0.3060841594178112 0.6156052167889264
2 0.46427823885847863 0.6854151568484452
3 0.026207144488845313 0.2900062232908326
4 0.4686338429511344 0.6790415953633433
5 0.35684700108308776 0.5161242336327383
6 0.8609236199853113 0.9861756818114501
7 0.12132963956972975 0.39480416873569935
8 0.779904107757141 0.1549668209825863
9 0.10873978288209107 0.5803409413034766
10 0.24820243962559552 0.06589404065288618
11 0.626315369888944 0.2568084272496388
12 0.3984981095992641 0.7929368173997653
13 0.33250483262701125 0.8169157666540603
14 0.9508327622762377 0.6389604749714103
15 0.7199366698797925 0.9678385228398246
16 0.09459967901088939 0.9133464835360209
17 0.9022814258330746 0.6104883438078486
18 0.8509882142349056 0.1757224150341341
19 0.3305502047435098 0.2563834724309666
20 0.4398500317025137 0.32123587260680253
21 0.886782983460399 0.33263572355238735
22 0.062160001566628376 0.6626878788339886
23 0.7819644399646675 0.640905105232757
24 0.26517107359749914 0.8296010060008265
25 0.5554414412969394 0.2027354579073709
26 0.9959960577797258 0.5264077708383369
27 0.1767654375633283 0.08103448166513716
28 0.8861750423136632 0.07536466363673511
29 0.26827059418529065 0.7394948327299126
30 0.08210468768578882 0.16303747017444858
31 0.41461396959538743 0.5109819039359318
32 0.8288037107942354 0.993336312323306
33 0.37423080801056163 0.9185213329952022
34 0.03823368425914064 0.32799626345308197
35 0.053647819083960324 0.5710586215305667
36 0.6541433538113117 0.7041878295168464
37 0.8991831850645365 0.3524704517630858
38 0.7388488734966882 0.7437211346066747
39 0.703521434832912 0.03506538027403461
40 0.12301430501949595 0.17109520019170588
41 0.10152647744016596 0.4246758468097961
42 0.04395960168673119 0.6244477248559034
43 0.17111038378363153 0.20419167616452572
44 0.30886603095542364 0.4878877515346097
45 0.8175231662243745 0.3395951371848388
46 0.20676501120574464 0.028263053531647042
47 0.1853919829401105 0.5867620485008256
48 0.1928378026286034 0.09393208111025153
49 0.268956958424447 0.7222850739428237
50 0.4491199733255562 0.5477289876947894
51 0.708269075495411 0.16340291303179033
52 0.6886629422501316 0.18388028751133345
53 0.03418656762292016 0.8051700356906267
54 0.18875412799395064 0.06518528650008704
55 0.13360393580037366 0.45846593670792446
56 0.019938193352399325 0.18845221142951774
57 0.4131969586682379 0.5547306449532293
58 0.18437907641278328 0.3467669741037306
59 0.8319092750661212 0.38065865348418104
60 0.9911449787736624 0.8853305453416709
61 0.16914638742476462 0.11697163373765684
62 0.8036775688264227 0.17390525303584858
63 0.7084685382612694 0.6189596207841017
64 0.857100664170079 0.5613443295983312
65 0.9982070739289352 0.45702817696695874
66 0.8245423379760981 0.3063113172807167
67 0.4984812298361081 0.8260158503985728
68 0.9800830648686226 0.03420059211719939
69 0.7291186717245148 0.2333389546497937
70 0.8394778521403983 0.10336035800877441
71 0.19631536108767145 0.12076952042808087
72 0.43636978609806054 0.3084586627444137
73 0.20656701744259442 0.7211058123984663
74 0.7766663150088308 0.19961805925532428
75 0.5561238280179889 0.5689998509624622
76 0.6921028794872932 0.7465907821975772
77 0.14202871603782474 0.3900212054066252
78 0.2526949948208116 0.10031971002937323
79 0.051573300658791954 0.6548962444745453
80 0.7743073228565867 0.7021746174446386
81 0.6908819541605729 0.9642849018618052
82 0.6687741751984311 0.09759046328442511
83 0.20103562597836155 0.5670428639740724
84 0.5763629443544069 0.38838847507914254
85 0.8530845831519552 0.06766617112790929
86 0.680064042208647 0.7269788698756714
87 0.010425587884048015 0.03699670513627884
88 0.4963569196651738 0.9370727300906211
89 0.00456236723057124 0.7969751526983452
90 0.2804266051746337 0.5594847798753022
91 0.00905907229881997 0.8931423261005841
92 0.8842392927294985 0.3258251477202492
93 0.653816954439127 0.7931554099579257
94 0.9268256344920027 0.1318807978300226
95 0.8539942966079541 0.040932853414804904
96 0.7306894918217743 0.09324757933148253
97 0.2487671272957197 0.7473045238064782
98 0.8510075474559188 0.7996921160411918
99 0.16824787266329144 0.5153966278443948
100 0.5763008946873273 0.3047858237156462
101 0.32373944552354394 0.39247794283843007
102 0.3264246504607802 0.5564543116535494
103 0.9810458132098 0.8637856016731369
104 0.543042878834605 0.5712603962801482
105 0.9715009608093663 0.43879919631338127
106 0.776816451016443 0.8978907029587251
107 0.08993054574158843 0.9597140196065557
108 0.7400550665840029 0.9803673526818837
109 0.22445803831753175 0.09407746126907679
110 0.7155728789233032 0.6409542193105909
111 0.23955982503651918 0.30543956556254137
112 0.3747330426458134 0.9366889598517176
113 0.8044319952175327 0.7053032091700068
114 0.026079050203462906 0.6870149740121367
115 0.4216864806775291 0.17574955371999312
116 0.7998809215759113 0.25739272410474456
117 0.9876023266570535 0.5171591530816151
118 0.23773304299356068 0.34391043831435575
119 0.7515189374878147 0.8721851693923491
120 0.8289682683137756 0.9634992373739354
121 0.023551214501264295 0.4629072363797194
122 0.30018205745288107 0.5783973719194198
123 0.8152268559173035 0.4907080959678559
124 0.5647017564590889 0.9379604546000453
125 0.7595307839886138 0.42736303721837143
126 0.021054040050863643 0.12576022958781496
127 0.48636282866571623 0.5689017804709129
128 0.7265322714406651 0.6718734472773584
129 0.7381581029914999 0.9550827716777995
130 0.8314620215851719 0.7237507723872458
131 0.2534968059725903 0.2614312830864546
132 0.5252923404980246 0.10812230040062742
133 0.221814800648366 0.20376884114186788
134 0.10057359700034685 0.8690873988773808
135 0.8778332966062006 0.015157228944703727
136 0.4381038312190877 0.6041101508303506
137 0.5385324394289829 0.6891347278200234
138 0.12909065191256852 0.35603069622709604
139 0.22271642531307456 0.26389583474383005
140 0.11487977105530311 0.17758310985154868
141 0.841945112519728 0.17891645094688902
142 0.1525976446650561 0.4628201059682455
143 0.0897003952404204 0.758938466300301
144 0.9737507845921709 0.060959738189290236
145 0.6259915114284025 0.12743958669650057
146 0.3894700668648713 0.7463050912408467
147 0.5282172167568802 0.7144523580649851
148 0.7509419296934183 0.7281762101558378
149 0.8904402097503517 0.03506009138687061
150 0.9331086371812263 0.4380030857129136
151 0.12304881041619398 0.3790472054388283
152 0.8859583917854476 0.158472690822563
153 0.17410715123510778 0.7722602692042466
154 0.7706253106392884 0.2902270911968655
155 0.5572703503176313 0.4501036438497581
156 0.7537563472660018 0.5024675523148119
157 0.7562464025141509 0.6702239790051923
158 0.6564521576558259 0.3201429399159599
159 0.1438183194784588 0.6839890532198919
160 0.254149321127905 0.6519462242443756
161 0.11587885773151196 0.5915165603058512
162 0.9677066831211028 0.5677433103616175
163 0.742589225170819 0.5297899070138388
164 0.2999416131303484 0.5927392613241828
165 0.12583465797230275 0.8832352257381184
166 0.23720533543456412 0.34175598869948987
167 0.7085344612140067 0.8393032373638152
168 0.7354827816747909 0.7199313585587857
169 0.8804829117653244 0.2240347127047364
170 0.05028916923311055 0.09837913618785465
171 0.9508398431711979 0.7310999978178017
172 0.2297761116938808 0.2422484904774267
173 0.3836628807708973 0.13166722394677888
174 0.6386054583513727 0.3398914135800305
175 0.34980058882411624 0.3320729367503694
176 0.2565187852343308 0.901180242344394
177 0.5243273198112374 0.17245052426978802
178 0.34220746117978895 0.25403769539251697
179 0.30128812141754213 0.14218234001285113
180 0.9822804721524641 0.7815348359708948
181 0.2321924362343526 0.3341920684538676
182 0.11083119684859377 0.2585603602532508
183 0.8875614239288575 0.5075247948482551
184 0.09652780898414526 0.6354059274943362
185 0.5880423906486841 0.2907677787852758
186 0.6734106768524046 0.15657103847898657
187 0.8890531847310346 0.4734872335699265
188 0.6568333336534182 0.3794593479511663
189 0.6774746307128108 0.5670447538123696
190 0.49175476478741686 0.3485704176825568
191 0.44250121641022844 0.15357306515482227
192 0.29254639591474474 0.031769522856011534
193 0.49396653765237863 0.08069680457486372
194 0.5679721038554488 0.9187343516110399
195 0.37622759868357114 0.2895014821629498
196 0.6823089860477163 0.37719561872357754
197 0.05717624182085479 0.4953790660176075
198 0.8142550610080374 0.3350982407291354
199 0.4093206749081092 0.2135659912080191
200 0.3748795178573965 0.34179940954255583
201 0.25185616138833067 0.9452564315657139
202 0.7730499055501874 0.7656027059882488
203 0.21724158558471285 0.619144859089165
204 0.10148150031674175 0.41739897041557805
205 0.5030357159917825 0.3951599502987626
206 0.12376742478381375 0.15538820128171726
207 0.0065887883257615965 0.5560830945870919
208 0.07826816654939739 0.1436350685349147
209 0.9723625539982439 0.4143408323871418
210 0.7195083187944744 0.2526104507081386
211 0.8017068388931337 0.4928348708936623
212 0.36343038701245933 0.7083163147944226
213 0.6372585568274236 0.023977300887076836
214 0.10142483461713925 0.9591160757702084
215 0.30086973603526224 0.5755867713619922
216 0.03764667323393189 0.034148887096236646
217 0.10705232427177336 0.578846343263605
218 0.25102740314173966 0.34776272651058293
219 0.991918518109527 0.7276938067580656
220 0.036014017704127266 0.6028478907675918
221 0.6517641531697047 0.41614833969035636
222 0.816138860847654 0.9891914022222338
223 0.44140236639353214 0.5158585771944431
224 0.08535660195643824 0.053233038540181576
225 0.5355832018848694 0.18269160550387775
226 0.6501745273293049 0.36337477628128045
227 0.15002661427689212 0.05888759994236625
228 0.3108737906696786 0.37357698158121333
229 0.7058997947838452 0.10823253289633439
230 0.2024185823014254 0.965441820001998
231 0.8847036460532326 0.60848903369807
232 0.37867523999773567 0.42531103268306425
233 0.5598796723006095 0.7372108271726348
234 0.36385582456149246 0.9262093145700026
235 0.40737073309883043 0.2367788040217984
236 0.6933414401826821 0.41602173918262186
237 0.4241576469194055 0.5361101633221655
238 0.1001973784932435 0.9467804260815108
239 0.8170545016072184 0.7194362242115183
240 0.9621369097840498 0.07432080653175321
241 0.4274110481181902 0.6653669860526439
242 0.9505289255786209 0.7709099013168512
243 0.3813041787689495 0.3263515731927681
244 0.17913818548042937 0.752229267032131
245 0.334513570509099 0.6544612767297228
246 0.8408497037490141 0.7936022650413014
247 0.7675978814799352 0.7722145468741833
248 0.44117326943693724 0.03908752628858081
249 0.4857368536861675 0.8950903329596542
250 0.776360974566607 0.554041848635933
251 0.7808001079994518 0.12580651693509692
252 0.005876399311052327 0.009347048342716935
253 0.27159739838362296 0.500289837532811
254 0.2263010854372426 0.7778205794722222
255 0.8042323995779757 0.7031381990346315
256 0.6390913011297973 0.507422783314226
257 0.8825045457227342 0.6119584940492678
258 0.6217324478155024 0.6271738910273637
259 0.9919038293378867 0.9295299717265616
260 0.741878700465403 0.11065154284479128
261 0.22553219738667885 0.6905775323911559
262 0.7769140111282621 0.5712428437199691
263 0.6153072567832701 0.3481198282996525
264 0.9686342526922327 0.7578491583925332
265 0.06227198942854972 0.6179067396576128
266 0.41875800203177704 0.22573067988992335
267 0.49767068232950495 0.41960397085747225
268 0.5718431176273007 0.39380630210771395
269 0.5947677860243606 0.9259905622645176
270 0.15284634242421802 0.6328434644415896
271 0.3109591965394485 0.08989462005149673
272 0.9243593400511682 0.376758977102002
273 0.25057820305855993 0.5015203575616984
274 0.4446477989901306 0.36757227241210344
275 0.4441741717242552 0.03003710803062465
276 0.02437770102219139 0.6172875702702736
277 0.6764133933787833 0.3117548643644089
278 0.8576921471165805 0.8994562151899768
279 0.8575005182537572 0.3166002786675476
280 0.25915738609283034 0.823149547901651
281 0.6343975650405616 0.592364763033979
282 0.35829222430487506 0.8867842545640212
283 0.7933803292892471 0.5001499466238061
284 0.4362108422964057 0.7246415164992273
285 0.9959092793445419 0.8934873382112904
286 0.783034837895609 0.19576250842581455
287 0.08806308552354647 0.18832496041042657
288 0.739658702508624 0.8850010092932921
289 0.021564446843803653 0.3012795992564492
290 0.11716468062877916 0.3666135934101713
291 0.11484773906239931 0.9668358761743502
292 0.6224150313600241 0.7270824494669198
293 0.8022722246005134 0.9389257609111414
294 0.7477541750264535 0.580889328430691
295 0.0024893621644683783 0.8650176367004824
296 0.22839878175297135 0.10624094770823711
297 0.4040759604819133 0.2522198436255221
298 0.8959459094947839 0.4235374523513372
299 0.6910900283316773 0.08713277519112139
300 0.2772686925586205 0.561952971128695
301 0.07560984790896463 0.19909304408080286
302 0.6350098230169985 0.13915415385180707
303 0.8801149362529831 0.1317540059838288
304 0.7179181971974672 0.9474966466159376
305 0.985191011890005 0.7353556181639636
306 0.24099938965226253 0.6605676396718867
307 0.01116845593109006 0.9363949808408724
308 0.927271819053228 0.43293072544755706
309 0.20861880596633187 0.5778503467146648
310 0.7780801266435187 0.5571490741235317
311 0.6309558978936184 0.875252388944555
312 0.9906394645233991 0.973899438575746
313 0.7057704787398791 0.7767760907030998
314 0.9587634808393058 0.3661201495469595
315 0.4264177498748861 0.030951547054198447
316 0.2664381873387528 0.4480761792286153
317 0.3300301047255051 0.17299604177888284
318 0.45189889828706664 0.9233830511383574
319 0.9164855281623603 0.28880492373013533
320 0.178173405450736 0.24670969162630596
321 0.6035435166649769 0.9047958497156136
322 0.5938403189445041 0.38827326719639543
323 0.6860729893797167 0.5669421063192214
324 0.6764752349445652 0.8952150897612065
325 0.5511113812198126 0.3891756233428175
326 0.18312626918969055 0.8531249915558304
327 0.29434962756729255 0.8236580411254001
328 0.5272443794073058 0.4455878575159702
329 0.10466290908620246 0.5165223414561423
330 0.1946281969320841 0.5737989501644707
331 0.42960002298983746 0.3702464817620489
332 0.8182990252309685 0.7321412506931262
333 0.45402647323826106 0.40752588307003923
334 0.7397051735174918 0.17315987184775594
335 0.39417416561509677 0.8231196254970751
336 0.6069766544340588 0.22005315337829756
337 0.6960215858329755 0.27564699168797235
338 0.6401270290650787 0.0945121472306063
339 0.15936992002153916 0.5038133661896317
340 0.6308487470035329 0.44282579931024824
341 0.7973439908442369 0.7360101288669262
342 0.09069184381220452 0.36488813870878956
343 0.43862546579270534 0.24867656230688906
344 0.0159048163690354 0.9165339512346342
345 0.8259670003335239 0.7326071556778848
346 0.21114214946532306 0.11248717799167185
347 0.1548563566084944 0.5756821140198803
348 0.4217625245207781 0.6449515080796914
349 0.8724364328216718 0.6952815536907789
350 0.24352242061347684 0.5706221048801282
351 0.8859409786609317 0.8639567324899553
352 0.3851208818643792 0.49567587568996196
353 0.09869400678456186 0.2762299451886945
354 0.6157068264719698 0.9088634753942905
355 0.3897105570162426 0.5038088122260282
356 0.18336646187301786 0.47594356888952016
357 0.03325880056290209 0.29035587879637637
358 0.028697780200405476 0.4344819118120459
359 0.019927590142949758 0.07428992497982634
360 0.800151357807659 0.3199709270372255
361 0.8028449291788526 0.09222033457455625
362 0.6227002543401031 0.9875893414443406
363 0.7448028901041552 0.1818169485937151
364 0.8373262193114975 0.8875228848972239
365 0.37566401553824413 0.06252876205622293
366 0.182910279065697 0.7095597967543229
367 0.8715780717947075 0.28395466007967296
368 0.059993719647015054 0.8004137674660496
369 0.9491136553403866 0.11016413978849016
370 0.17617167135856682 0.5334402055812991
371 0.29868445991250514 0.27092215108012896
372 0.3603272071093402 0.14127549462847067
373 0.6329461203317398 0.9263823858815377
374 0.4848011277491303 0.9562613115431791
375 0.9193285217753175 0.6264661071918844
376 0.875612572736549 0.07917331958696505
377 0.9254086879593991 0.4127468430155512
378 0.4914987275582031 0.18283825840200685
379 0.8072555227193627 0.3271680868504424
380 0.37107123229319994 0.5001857227383366
381 0.8437360975262883 0.8511480297736937
382 0.6100986129132434 0.10099289873409145
383 0.09924033969534629 0.7902006146127231
384 0.9533740596097359 0.28542595117963887
385 0.7610417620763785 0.7516402817131668
386 0.7448259909010498 0.6304410671823857
387 0.09748387532919178 0.635818186716705
388 0.17805763674994535 0.6898341536318245
389 0.7100190800509711 0.4129584259508149
390 0.48403769589181633 0.8851304301958182
391 0.9155437729534872 0.946374661920689
392 0.6301183416980114 0.81294186882828
393 0.15257371913571627 0.8025787566088806
394 0.9346264860894213 0.36568792123418037
395 0.9428093939593843 0.2863242254523636
396 0.8874461634826561 0.42032651975923285
397 0.6615136039951728 0.06815695405090472
398 0.18527356785478422 0.8274866584092541
399 0.9799455708856109 0.6729951722131402
400 0.21665799861601487 0.06596753326411309
401 0.7072300052903981 0.37837046161518173
402 0.1635732306063793 0.257443817481269
403 0.9280925581797536 0.718919239934644
404 0.3306182946349956 0.08123654237570532
405 0.8810402740423365 0.7688905759065494
406 0.11836574272460565 0.7444398513458367
407 0.9854769757350201 0.9540794791803134
408 0.15484904106414077 0.5407964993793865
409 0.8701786603982925 0.5127446130708418
410 0.65398986667209 0.7611245383737563
411 0.7785181123896181 0.006912682587627894
412 0.9949254872784676 0.7613162769717505
413 0.34880142096667444 0.8329990936612264
414 0.8593745932024562 0.5155831480595209
415 0.2969456252961862 0.5630696456455853
416 0.8331903526677272 0.8953533211651209
417 0.7499126275669953 0.3202198414012585
418 0.26463783628529824 0.34285602482721145
419 0.3865810079639844 0.31525035824388037
420 0.2517288504253311 0.9780161932910368
421 0.7545442770191666 0.676082989805761
422 0.40840187401701455 0.2760920015248661
423 0.7530122723565006 0.962186528678758
424 0.9457829586746945 0.4842034209573738
425 0.8062899351628172 0.030295250364613113
426 0.25144668690512817 0.22109231575931565
427 0.7202416236725698 0.6640501249378852
428 0.06259527471415394 0.7146957074117664
429 0.7333023264165827 0.49574532405464955
430 0.1475496839425351 0.17179988639373556
431 0.08807289832620535 0.9428406625990599
432 0.0668782241107232 0.5991336215362593
433 0.25321971890430617 0.689493346854822
434 0.5873886439921797 0.15257030334348198
435 0.7943276605184173 0.8136162828242333
436 0.0699222427724765 0.8150956772653346
437 0.5073970911060693 0.6737726837054492
438 0.2729307484691962 0.500564319104398
439 0.0850528358341276 0.696096897625101
440 0.029919518619786478 0.3539249965777538
441 0.8017068487786121 0.42543761895288734
442 0.014961041639827588 0.5819236411807543
443 0.1765538956810352 0.11191896554080272
444 0.5969498758133269 0.9648930086082164
445 0.5321192916686589 0.4576201376228246
446 0.6323198873959236 0.44160695081755597
447 0.27080866726876995 0.25657553312612547
448 0.8577591134409394 0.5176936047560371
449 0.37465116123929876 0.23296227694425153
450 0.809830936638062 0.32404481940865715
451 0.2896480385589697 0.8685864927245056
452 0.9082361179373838 0.9665462699446205
453 0.5051423747094185 0.01122151490660206
454 0.9897364784706324 0.792406431034963
455 0.749042911861129 0.48142924607148274
456 0.7525652001457939 0.8836029051531538
457 0.38217090561832734 0.7185854428818793
458 0.1559045071827838 0.6114261010987719
459 0.733421436893081 0.7501988248242716
460 0.7363690564156177 0.12553531117285888
461 0.3404767928114717 0.7811338164758194
462 0.23454616665619932 0.04441170243021586
463 0.10973103642296933 0.5796248843056844
464 0.531301781263327 0.13829092264166465
465 0.4069977331748641 0.9946332977158938
466 0.7302028377136662 0.9463130353123294
467 0.8825735861401859 0.6417376407363414
468 0.4185503079406455 0.8533889038238186
469 0.6191472929149346 0.5142497701696785
470 0.8521882873539579 0.7277032607694146
471 0.36567174692850435 0.10743520248414107
472 0.8702548644816137 0.41821114504246326
473 0.6991892201232116 0.10901421105132125
474 0.5776992466317451 0.29286468337612537
475 0.8765473928027833 0.8197295120508095
476 0.0749677725844603 0.7430403884602642
477 0.06843000568065138 0.7497532679706213
478 0.7910546786669868 0.21690733809127027
479 0.9239998202658912 0.0023990849353658916
480 0.3123719767505082 0.3457136466638733
481 0.08689527990236323 0.28737221552963765
482 0.28033467122314404 0.8322767872076415
483 0.5308618927009575 0.14520128556747736
484 0.35517989529592087 0.11674155193523705
485 0.5163981522151435 0.2420149018072162
486 0.3846569912736788 0.32663583224360737
487 0.28734920684367915 0.06382368075715528
488 0.6806030207883782 0.7537170217947552
489 0.5460050008578864 0.8289837997356655
490 0.2891187163456236 0.42670513793917053
491 0.3845330177062002 0.8479998391956537
492 0.03994086974494637 0.7820006428210333
493 0.2124420082239874 0.5427415569586714
494 0.7835546012950488 0.7657137703400544
495 0.5141810084838401 0.6916675234807912
496 0.4070445011215953 0.6394863983962121
497 0.2453083785906942 0.08613345522414295
498 0.7400105614820733 0.0793239336282584
499 0.9086437277646525 0.18169063182760126
500 0.7868603753113058 0.6059640869465515
501 0.5713894945642155 0.35942226001959576
502 0.9533019102700817 0.5279704187790208
503 0.14337882887125752 0.6760707325768209
504 0.6362189980886565 0.8801910256414044
505 0.38177778699831477 0.6571582559008023
506 0.18798791633753997 0.5935575720894287
507 0.04404435103957405 0.6121270119470192
508 0.8881002169060304 0.6925429370419035
509 0.2673191196500294 0.4706912317313613
510 0.33058871656277544 0.8818237124138284
511 0.47228927189881253 0.3170582260577858
512 0.26077255533413335 0.7390470510617744
513 0.14774929412010362 0.3075232759057266
514 0.2502803683349425 0.6492637680569859
515 0.04003184276370353 0.7593928215674702
516 0.8264628565090809 0.7794115697573717
517 0.32038656827417233 0.07361511730862691
518 0.5131089288481387 0.4330154010208206
519 0.8763957456397883 0.20361144787952434
520 0.5228328951193661 0.3721739362234814
521 0.9238297756526465 0.32387936414954765
522 0.37779978938335035 0.6580720018089042
523 0.41748103421824767 0.3351243147502275
524 0.7730234338347476 0.5304594269218953
525 0.15737149560550023 0.6023835304369216
526 0.4404033148172992 0.41057302853466926
527 0.07982317292465191 0.3589028816795017
528 0.0018512033014331797 0.6410568682978496
529 0.18193947221926754 0.41856196087679287
530 0.9007841009136793 0.8495014317243438
531 0.04054288943587914 0.153381539038417
532 0.2524520049222714 0.5837205824244381
533 0.09173149818424897 0.8973777933519663
534 0.33570020503086695 0.08145491003123018
535 0.33949192840205067 0.38389164004428533
536 0.502433032498777 0.38851691778458575
537 0.5923769831116873 0.9659500153782757
538 0.6418220843163914 0.9901441511962276
539 0.6087428287742352 0.0418640595299139
540 0.9712844058470929 0.14611806555492812
541 0.8216100246186251 0.3878704938241201
542 0.6944142892972622 0.8495402687906668
543 0.40426076750582685 0.6873956968268112
544 0.5231702821895685 0.16477012533229496
545 0.11783772865434727 0.8951783494737025
546 0.4432420557746328 0.7544496271532479
547 0.8413785876415771 0.2875512291876803
548 0.31262967638126526 0.24056944772483269
549 0.9463355682725358 0.08821704826368759
550 0.5812649415610945 0.7787278596454181
551 0.04120258708736935 0.25318332005900845
552 0.5178972001924477 0.8584627010283143
553 0.6451045650796435 0.29455063227873346
554 0.6161791668438826 0.1863004582472595
555 0.04290377174871873 0.6045996033553922
556 0.5591123227047516 0.4103626313811747
557 0.07702218001975658 0.016761929881557225
558 0.17740233637046932 0.459026302244974
559 0.4375803044706308 0.07686984785026008
560 0.830882405129836 0.27641268118888307
561 0.3946126810291616 0.9365271080193432
562 0.6325510367564643 0.6465419237126726
563 0.9247234901202563 0.4897578730220711
564 0.5367536821584998 0.05478788475526464
565 0.07439240685485415 0.13123840970337897
566 0.36689687089653944 0.5970148373057655
567 0.7532272481357007 0.29389223460243186
568 0.7289142114048517 0.008325562502712436
569 0.9774258556254032 0.9464065967927102
570 0.8508552319642501 0.31775076493469534
571 0.0390129181937382 0.8509989346572211
572 0.8339418619877251 0.4937504537466072
573 0.5289560470654887 0.30688441560684154
574 0.09157740531630443 0.4778950567097061
575 0.06072478842619233 0.200302477512193
576 0.5469138941434137 0.4688300924923984
577 0.31362891718775165 0.8137982212386766
578 0.20990200734483078 0.7943602741006074
579 0.13075192556286686 0.6106948176538964
580 0.13904580801964073 0.8890619447172224
581 0.5012846255950628 0.6123978559797861
582 0.852044336099038 0.3854895984435093
583 0.5190708337889401 0.43692843310508533
584 0.2639019653296616 0.2562898385378486
585 0.9476520071391465 0.5323788483776211
586 0.020223158589629753 0.043286372745581225
587 0.5757356122464494 0.06706266000337413
588 0.699647036213663 0.285906223426471
589 0.9504900289474675 0.540707931096874
590 0.611925395028981 0.11393566339874428
591 0.49729215297332396 0.8972003808074968
592 0.41215745722151564 0.7343449885130644
593 0.9362818626867236 0.07777313045186385
594 0.6005862644285903 0.5190957435629306
595 0.9640115382647023 0.10521690624703661
596 0.7687439710889115 0.4217210816171473
597 0.08691461915453247 0.33539942740234197
598 0.3037574188706492 0.8036794532300616
599 0.6027331199473281 0.23334455623059192
600 0.639230368629466 0.6706266287112115
601 0.7940633182794591 0.1771050705822098
602 0.7612494418347586 0.38229500007311534
603 0.8563446366440477 0.9114335020338383
604 0.46271902016207667 0.568633067104096
605 0.826906550056267 0.21256248372918318
606 0.5721055075735264 0.06243009077113704
607 0.03520954200841142 0.22927635425933923
608 0.4677728886872051 0.5148998765727933
609 0.027183619667754844 0.8763208555948627
610 0.8339029764192559 0.1395843516879598
611 0.7139820968033151 0.6425964193329022
612 0.2746745180270673 0.8988205093278094
613 0.7735661220313399 0.1407966873640868
614 0.03090437483726516 0.8243601339082218
615 0.7111400653769819 0.6974239471932038
616 0.6618375136202207 0.5023710013887128
617 0.02889917705709044 0.6773523915381539
618 0.7981745909156245 0.9726101211856409
619 0.17222808461968198 0.18850338709090175
620 0.5781744862114464 0.2629912771254561
621 0.8041671445824646 0.49603430050688635
622 0.5557883538677301 0.265604595662589
623 0.06113761656614147 0.4659380443425786
624 0.7661608703781421 0.22789552455635576
625 0.29044670382857385 0.09409152281749722
626 0.341991224143421 0.23696399768774457
627 0.9570467769557611 0.2168598093781552
628 0.5706636486461397 0.41515206113040193
629 0.0442450840615638 0.5548725918110551
630 0.48729159622763407 0.5503855434277559
631 0.8644100235818193 0.7419813831794605
632 0.36096649349203536 0.4606142363340172
633 0.989357283777411 0.14807119308289696
634 0.0037106274314747667 0.9653113415078596
635 0.6025178520721275 0.49034430555948205
636 0.5254900688170927 0.8132062197905942
637 0.856772251776753 0.36207022348607165
638 0.667720340056975 0.17100107453013969
639 0.23659986643128017 0.0694003868831986
640 0.10049865342606723 0.6166267537170859
641 0.5498868138497787 0.5937936224884968
642 0.6808717191213073 0.20405815675784844
643 0.5443723464194616 0.7773367628550111
644 0.9527036692401546 0.5050122663337427
645 0.34684059667674805 0.42111059829250497
646 0.34007038946017554 0.651243093334765
647 0.39118936932389814 0.4807525517308041
648 0.838992227290213 0.36297199591847107
649 0.8506166654962823 0.2476172770329902
650 0.3395621342485975 0.14551206022397445
651 0.9312425026529411 0.777161098313994
652 0.26230218150383533 0.11943044687803517
653 0.960995029691848 0.15652923023572118
654 0.8259442797940862 0.821978122950135
655 0.22087826632607266 0.9917751543752531
656 0.04307666584746461 0.6008097603809036
657 0.012345242900868691 0.17585276545012885
658 0.7845071466285375 0.051165962900952766
659 0.6171242806155793 0.2901562924766212
660 0.6827077985483041 0.9120893635676296
661 0.434961143775919 0.7306559923238006
662 0.9042622559453589 0.07499682683495912
663 0.3306795708032957 0.497887414698584
664 0.24437533284328883 0.9434271908871245
665 0.37015783723370776 0.010098346739003672
666 0.18377131336382224 0.41803356044764506
667 0.49835929737120843 0.788131438218718
668 0.8008935618029664 0.047484344401556466
669 0.07396759589911905 0.9030210790357379
670 0.5099158177483748 0.5314407744889689
671 0.46088412159478764 0.7682603639375959
672 0.3147110542885553 0.8269418658859945
673 0.5019678275026691 0.991456106726225
674 0.6122396742687739 0.1676396567205246
675 0.5751249896541726 0.1703441414709964
676 0.6917320622527199 0.8708373245592449
677 0.8974204762526191 0.39651011472846787
678 0.4774661376779352 0.6255241719456839
679 0.9592140638144769 0.5014520116118489
680 0.3129275580844658 0.27104404835907214
681 0.7895905315238374 0.08460775198263537
682 0.5003492600091959 0.4776497556509719
683 0.06373812783325017 0.6618187260116101
684 0.7995505016418071 0.5571303173488554
685 0.8341947323738275 0.9804618523420021
686 0.9247325166446915 0.1095357522647924
687 0.7482729685137977 0.6886313297544235
688 0.8187960278043395 0.5501917597301088
689 0.3804751110223219 0.6847980911248127
690 0.3694956828196263 0.8510264840686381
691 0.4700039466906436 0.3523433270540052
692 0.45070628880545305 0.8447178502284867
693 0.08123198070952553 0.07310653851083915
694 0.44475717168195217 0.6165434746236503
695 0.6045846281909042 0.4856778656273236
696 0.3711925795858315 0.7630564400733729
697 0.807706253938695 0.6574766405558558
698 0.1749013689586042 0.47393615112173326
699 0.20360084666950362 0.5592310020999497
700 0.25908151089762277 0.5174410730072241
701 0.5516966546447257 0.7436913234575441
702 0.6337124631404322 0.38730147911972135
703 0.2750953408545963 0.6238933784875436
704 0.017880067713793357 0.5369583995019228
705 0.34259935610565473 0.6893032732022821
706 0.9432390199602976 0.03886183405325194
707 0.9374226586058884 0.9814630348918197
708 0.14557150038231415 0.7457918703216849
709 0.6500669387671446 0.8110117765655912
710 0.04443375312030762 0.9810190517519903
711 0.6720354562193614 0.6551114665745269
712 0.5916262039182945 0.5750054345284025
713 0.4104084409328148 0.4950020145519246
714 0.867000373853721 0.5077236694894953
715 0.8851050919310685 0.3181149248294083
716 0.34044854871227437 0.4627951348916862
717 0.43125335686990307 0.4673785774988254
718 0.35398759726936213 0.5398231704190107
719 0.3054752580522505 0.5775966039167638
720 0.6253256719612268 0.19656312550041177
721 0.7311421475670248 0.7881235772918674
722 0.29935956268040176 0.5607825258716576
723 0.4434594903012259 0.20312670529576105
724 0.8065102131024321 0.7046430081249689
725 0.7349279804357677 0.17696031140095292
726 0.10660345803746063 0.9302755536129302
727 0.10663730510362013 0.06317387770230254
728 0.9077251798871452 0.9630225403865841
729 0.844402251781916 0.3890903947899449
730 0.33707390350324984 0.6602128719567075
731 0.4228251844045279 0.7082903469549793
732 0.06454503524356081 0.49590032520517746
733 0.9872103087076013 0.36367772594043246
734 0.8058525600229018 0.6030794743872193
735 0.9342805875149887 0.7970468658566063
736 0.45792031881716 0.2597098070092919
737 0.8213260134041499 0.9386482183736877
738 0.4159621464356862 0.4853557027945181
739 0.8786060016894146 0.12339622345988333
740 0.9490351316239487 0.3082242711547063
741 0.015534974489893605 0.11314075085823805
742 0.1852354399214664 0.23893744059530242
743 0.8640785688331153 0.8700574161138364
744 0.42997803016174363 0.880770953900524
745 0.6976097890667698 0.3092099241043149
746 0.1587727409344878 0.5093959312879378
747 0.8834259164255016 0.14163616866487172
748 0.43738047978218564 0.9750797523392734
749 0.2698208305657128 0.823089108761626
750 0.8773106703448702 0.716412515480124
751 0.4230778015686021 0.7948968042874015
752 0.3486572116595371 0.8280965631304056
753 0.7527498190606134 0.3769705474253001
754 0.41836596671882575 0.8991479991053886
755 0.2958011326037979 0.21730926336327483
756 0.15804992483705427 0.010747247826077277
757 0.9132232239732451 0.017957871235229073
758 0.8926414737037607 0.917517520971087
759 0.07002245527351214 0.29811283937301936
760 0.4635975633813737 0.011544036651360279
761 0.37520235259682355 0.27112120814355645
762 0.8845592967111069 0.4013054996324783
763 0.4151379182122359 0.015930956285379883
764 0.7086611290220237 0.5794318666935989
765 0.019135326073617454 0.6348576106270312
766 0.942812773661319 0.7447321809092431
767 0.9556094832909082 0.5909505289404648
768 0.623149186115684 0.43468921238272984
769 0.03218379529566573 0.772909026199597
770 0.03223878749394171 0.9360183845664808
771 0.8132323469232643 0.33236118180699215
772 0.3116509120695832 0.16495800703889307
773 0.674260265079558 0.4296613526647659
774 0.8553853142770008 0.8289669727822317
775 0.8766100657066558 0.7860600502056777
776 0.9960779758088839 0.6432088451385267
777 0.4668535333806688 0.04890840055444179
778 0.6382542612146922 0.1954158384117557
779 0.3088604419903449 0.3613584675271616
780 0.5471909104068763 0.24501832721732875
781 0.2876194636224211 0.06269641154037575
782 0.596990926678393 0.30852899750340523
783 0.078330566484902 0.8935214627910185
784 0.8755777564232132 0.2037940971041513
785 0.9713706013387161 0.28451012630453953
786 0.44893585824310345 0.2893789142981661
787 0.6201843750687606 0.2681240621637374
788 0.3134815469852831 0.2036304890657331
789 0.8667896035071871 0.04777505175795704
790 0.9450446891552852 0.3070650928887927
791 0.33563415235881466 0.7215657487351603
792 0.4938455804719827 0.8866285556242363
793 0.8417215325511428 0.21018901735509388
794 0.33947760206444 0.1505295883905745
795 0.1444507169269441 0.07220934548966962
796 0.6738034498906809 0.14253618446996486
797 0.4020376750778022 0.9645667772909173
798 0.9485356352493508 0.6781402273467115
799 0.757061323373007 0.21603572413937833
800 0.5216918373810171 0.33375816100095335
801 0.036640379219691765 0.26714248367969917
802 0.3778106695554485 0.8690659716933768
803 0.023134266613516696 0.07969102065083444
804 0.30451926686381026 0.13070875675454385
805 0.8669016016297976 0.21357141572432314
806 0.6673586965028091 0.7908187655799678
807 0.5482192701094685 0.4320764689287093
808 0.6828293283348761 0.024920181415584497
809 0.5279105139558963 0.09072803630277981
810 0.7708479967181626 0.4977146377236219
811 0.9367685509826458 0.41158338184803644
812 0.6402606290888274 0.035702740087472096
813 0.7573717197678981 0.5862851386758933
814 0.998682342647256 0.6687701211379479
815 0.48967996525552904 0.6052359044702522
816 0.49618068458543707 0.9196397893231714
817 0.4915991017463657 0.010952200959579717
818 0.738616380435364 0.2709815672375767
819 0.3170818415207107 0.016138341937702805
820 0.6256996133300726 0.5240889711382534
821 0.4385666539556067 0.1839586361009352
822 0.4122467126829015 0.8760748351901018
823 0.21982628308511565 0.773288116155586
824 0.025821348501975927 0.9200920752201421
825 0.2513585466283593 0.20452584662343276
826 0.33455000875115426 0.7567485466042319
827 0.12274272448406442 0.04938042421623279
828 0.265497535121904 0.329151651771737
829 0.012692080155279117 0.10146729776253449
830 0.8441353904225569 0.9108254218593621
831 0.7795815654786128 0.27605397772790974
832 0.8861467589103357 0.8220953902491853
833 0.4765784709514175 0.8324269374912879
834 0.4919987428628335 0.9592022045509484
835 0.1751986660908713 0.4318462586927786
836 0.8349722671871074 0.7192067548348393
837 0.08708043333787141 0.5283656326368462
838 0.08516580782365135 0.4879959332510152
839 0.8236223644012933 0.2568502535696163
840 0.392036214187218 0.46520356605025326
841 0.4228419250402434 0.5668230640405051
842 0.10425139992206789 0.3902265095501004
843 0.832891150361591 0.9793195819613518
844 0.9299385773870048 0.29181731555468393
845 0.27407179760118394 0.17800798327879286
846 0.8149102627574574 0.8855726098602261
847 0.8244584475090942 0.7434925330997157
848 0.2791858479787791 0.9308141290324645
849 0.9330506411890884 0.24801961427214492
850 0.1923502282552787 0.6524977704698326
851 0.6494085883491827 0.7088704050908975
852 0.05623284452784538 0.09810844214635939
853 0.10797331168905167 0.19578905180405237
854 0.11178918352385958 0.7033380414884547
855 0.017965597792326315 0.02604467713282399
856 0.15330838184909468 0.3417927068044523
857 0.7568491526449729 0.3076295750533463
858 0.46115468268966064 0.4269632768883084
859 0.275872261364577 0.8610839126516548
860 0.992913122897775 0.6256268263236979
861 0.5617897015453467 0.02910609678485243
862 0.5420138391580137 0.3139605526937881
863 0.3584661083667239 0.9070641989326967
864 0.5388092066418312 0.2900245100031881
865 0.7455359731610547 0.7031534538463923
866 0.9172866816064233 0.13076287939873832
867 0.7281224381883855 0.154088287706858
868 0.2818128181765014 0.03510106604849628
869 0.5392306171174365 0.5748869184356259
870 0.6454003454257327 0.5920799338044512
871 0.07178044512986548 0.22897271054680923
872 0.9195864276930346 0.15243093676773123
873 0.13102663054036334 0.6878512363896628
874 0.6975617672808816 0.10005465750701892
875 0.5434586680120891 0.5939630217572817
876 0.6241003809671571 0.4586519069147589
877 0.6594984519063336 0.7285022655895951
878 0.5644419150120095 0.1078036769771139
879 0.6658712303475072 0.9656191643046595
880 0.7883733955130631 0.20371241550837904
881 0.8130244855920771 0.8717195803812836
882 0.5776987188809294 0.565490381496887
883 0.07859365491556602 0.22428120373893978
884 0.9364181731712226 0.4391768526975004
885 0.9575085577595873 0.33824172507984884
886 0.8641686606705443 0.37314058401265193
887 0.6370652545267713 0.8036353643461717
888 0.9571739439374038 0.7407975911932576
889 0.7779851003887708 0.8357925171354804
890 0.7039261274298266 0.08438762948861833
891 0.7355084771484773 0.5909578064911218
892 0.393655448177359 0.3470538932783257
893 0.23125631918222644 0.0749000262309436
894 0.2715483950352444 0.8511814694509394
895 0.7263455609268795 0.087610220311934
896 0.9657055580602768 0.041780929427396085
897 0.7702363695533376 0.2793259654035619
898 0.9911664593784811 0.3761001461863167
899 0.7989770482539502 0.5822311555233767
900 0.1762062387608775 0.29471465218928317
901 0.8140734149142537 0.9946786582757401
902 0.9202784953529963 0.8249450368458794
903 0.060830522501923556 0.7018106173227509
904 0.4867852381515638 0.15534810615758188
905 0.8577198120332858 0.8079058945453258
906 0.3035402241588897 0.3432371312672393
907 0.5467000300620736 0.2093375468554629
908 0.3256882858234308 0.5401376313032574
909 0.6001336496302433 0.1955207630725906
910 0.32797228829752445 0.6475130692633185
911 0.3323726773702521 0.0037980888154548476
912 0.46963179097104235 0.22546502941913948
913 0.8288962311718162 0.10834781229736012
914 0.6989705896112435 0.7554197925526676
915 0.21704465085508806 0.22449177995337288
916 0.6254850771660266 0.602780734164685
917 0.22503027308777157 0.2880235448981019
918 0.07160024861815661 0.20290768545439086
919 0.34256950571405786 0.7561240241202019
920 0.9738510643997657 0.2764429456533022
921 0.023174342407572435 0.5746629169182291
922 0.15663549145688538 0.6249113416723485
923 0.0050237839303743925 0.6236665554645924
924 0.2993592384664543 0.3880053283549536
925 0.8013250136042862 0.3276318169851591
926 0.33316944917132163 0.751843621278418
927 0.508100350691695 0.8397954707695153
928 0.4593964955155615 0.9557824337896409
929 0.11562691195824737 0.018950741553486306
930 0.7447376850284574 0.6377793553082792
931 0.4813918477612342 0.9823402352437882
932 0.5258246268443989 0.4834629938909877
933 0.016790460919837713 0.9041675380273776
934 0.6768337830002683 0.8324627046209477
935 0.7380965392536171 0.7195191188421863
936 0.4116681870109935 0.2926784321394491
937 0.6186783435043157 0.820074129974309
938 0.2526765797010939 0.21476191154198387
939 0.055380432996199436 0.46100685867828584
940 0.958585070098322 0.30184660372330063
941 0.961342548439563 0.570462946443041
942 0.7933667068804436 0.021585824833645684
943 0.3615797543720658 0.59882038651337
944 0.6438583671441448 0.8848973533677208
945 0.8871340540748062 0.4547229199030651
946 0.7257075020645951 0.9671334664418787
947 0.5458413837947603 0.6215912168714733
948 0.7777215630915405 0.7149630857857109
949 0.356354101180668 0.4020104399908494
950 0.05670606365590547 0.00608950003053188
951 0.7829763157120837 0.17177403076360764
952 0.9548863532162377 0.4713912789005539
953 0.5928273113232172 0.2308700611014851
954 0.9975242205859937 0.6349538803312668
955 0.82892027425614 0.30965687541358256
956 0.4482281136418276 0.502475272373326
957 0.7749940766941088 0.879503380463605
958 0.45526981912666786 0.6586093219700583
959 0.38259192647911366 0.2878649527114986
960 0.4178560430518703 0.0429218756748746
961 0.8555295739629373 0.9531177650725917
962 0.39163491955632357 0.3460055885515596
963 0.2310640376183366 0.948870640697278
964 0.06902293605406185 0.4621796965945848
965 0.3889522538865966 0.09754260767867362
966 0.5762844869569057 0.8541780912064484
967 0.7929832808137556 0.5008462137516864
968 0.3235450270991269 0.02869058575683614
969 0.9617525912099646 0.0555108338525343
970 0.55810428854487 0.30622802736393895
971 0.9039115520241207 0.9105385807689594
972 0.8623635326490516 0.9749816791431344
973 0.18696843695820475 0.5017056066525665
974 0.5178642795576712 0.2051487761142119
975 0.6614896317842451 0.6843786701902979
976 0.8290823516962967 0.6845368846396347
977 0.4982182814498548 0.2101271535191057
978 0.4262338569114351 0.8399578718799819
979 0.9980771096014013 0.024581438199611783
980 0.1086116147158872 0.9765026797771235
981 0.5601452399097051 0.755599178810222
982 0.0889887143553516 0.10081810089936571
983 0.19301424781734267 0.8626105336268909
984 0.8225599709005641 0.5271762509782658
985 0.905329971755287 0.4971710644139986
986 0.5646976185028784 0.7807544949523055
987 0.6210750250648935 0.7728814636526506
988 0.02217320078571483 0.9992645914800361
989 0.5815703118401183 0.81182027453409
990 0.9973631407635882 0.5683046708783402
991 0.5059772836819312 0.20587683885077301
992 0.9818567675377387 0.07177765834850791
993 0.8278071592942369 0.6488076999551192
994 0.2209499051137318 0.12889381253540932
995 0.8065378609281157 0.010349794297398685
996 0.6382969613586831 0.4493805466116858
997 0.5689373235219739 0.9869360412257849
998 0.7775859615462598 0.28577590107096573
999 0.9774744449066208 0.9481802717891965
1000 0.8496904008844733 0.20300599894131433
1001 0.9251133943804857 0.8255850230875391
1002 0.02391685947468658 0.6133407773670889
1003 0.444208453374067 0.6054991071191252
1004 0.5613916490610963 0.8558644678925211
1005 0.6708643208943094 0.19460492970215792
1006 0.18936884439219714 0.673543630097167
1007 0.11815513598970606 0.634050028701777
1008 0.8244588148877295 0.43187544436744696
1009 0.43581188625678524 0.27965069268878096
1010 0.16083004408694046 0.728586119645058
1011 0.6370961833500065 0.22386650228804073
1012 0.19593651264134337 0.8451527850614434
1013 0.15102645752418553 0.6320720104909997
1014 0.5289311826311217 0.16403750137830764
1015 0.7690739222421211 0.7151372354726278
1016 0.870676710642906 0.008758879327606661
1017 0.239515679173964 0.34747354443915524
1018 0.083166805349834 0.8944095149375544
1019 0.8601242977957394 0.3459145214626028
1020 0.740165767666028 0.303510829331628
1021 0.8286295257197754 0.7340694500381448
1022 0.13626186637282633 0.16181777610873582
1023 0.7129457991338156 0.9520949509059684
1024 0.5875637432632199 0.6661752267156666
1025 0.27369794919846335 0.008580617019557701
1026 0.10234195574048366 0.16183203504074106
1027 0.8366561391880358 0.2681364310996457
1028 0.4347835591305018 0.6810805091666652
1029 0.1813027265166668 0.9150111683991085
1030 0.2533498674024258 0.7018088045804739
1031 0.14366815229078833 0.8229376734078585
1032 0.9623617964930711 0.9628693061681362
1033 0.7257565351361067 0.41000831224125167
1034 0.5706577831132156 0.6347110211068292
1035 0.0073647420725113655 0.14601484738151915
1036 0.3573753567278528 0.04990765845633782
1037 0.397257593838126 0.5320216036087053
1038 0.1503457988922724 0.5715592916262907
1039 0.3260305854328457 0.2941349314035917
1040 0.2889614213112396 0.2566813279943039
1041 0.47986057616251987 0.1884392127727681
1042 0.9816351431862556 0.32158535285363454
1043 0.7698398539630353 0.6207463744911472
1044 0.19061394783542907 0.7286284566758878
1045 0.287736938539487 0.6998779806498777
1046 0.7978797949776072 0.5205226426743422
1047 0.2629751547267094 0.7526667303638267
1048 0.8752133848049436 0.29946686622605123
1049 0.5485247736393841 0.7636393998887798
1050 0.14708253172317487 0.8081391386443254
1051 0.8727978553380096 0.6518185062112415
1052 0.7316297227573465 0.5390749620504672
1053 0.11684322003881986 0.5306526575270141
1054 0.10944228259202593 0.7435037421085275
1055 0.4546521040811783 0.07126559143293454
1056 0.5011182801134131 0.36254034406047153
1057 0.05371665697348016 0.8466804770853823
1058 0.9039064778465971 0.817463879059915
1059 0.2032339445321102 0.5293080534127568
1060 0.13913381769845368 0.6208381509642552
1061 0.8871740756435553 0.26513036952071156
1062 0.35105245455157263 0.29614107912138776
1063 0.19777013698779888 0.0022351235527776625
1064 0.35271508963118114 0.2978467623342438
1065 0.10972343166384702 0.44604793781399676
1066 0.4938762980878436 0.6738139068314734
1067 0.6411909104168486 0.27041471889213275
1068 0.7642635686823938 0.28869445381471337
1069 0.7637203079350794 0.5301857911689002
1070 0.24890625698918944 0.3588447023704976
1071 0.012087487944305475 0.8207737799646703
1072 0.4667241025163472 0.10750082403255368
1073 0.2253181589939557 0.2705633435516537
1074 0.8879691991305011 0.514565746109268
1075 0.8033396415017615 0.48744881424528497
1076 0.3408765421101958 0.30186160218564495
1077 0.21311364061896898 0.023699351553613912
1078 0.7674750457463243 0.7208429662704068
1079 0.9057831601918657 0.07757385708119902
1080 0.359572385953578 0.7279334377219152
1081 0.11376519897056936 0.8985968429471807
1082 0.9055581499637456 0.13396353974586805
1083 0.6771994680557023 0.097172619686833
1084 0.19457153720579345 0.44471991541716316
1085 0.8220071721875613 0.4327549855476521
1086 0.8607917937660154 0.4278101488953774
1087 0.8996678019272679 0.5195876221785551
1088 0.0647673409273507 0.5122405118018664
1089 0.39863305329709964 0.8300511743853217
1090 0.31741924230623764 0.6941032762536078
1091 0.998473770538589 0.25972198736301366
1092 0.34652654562350294 0.2738084599177901
1093 0.9565407241870287 0.3015603851450096
1094 0.860943817113372 0.9921620349243936
1095 0.7201454303756472 0.990345055846044
1096 0.03621988701853851 0.09707318295315215
1097 0.2651447867667823 0.1751781630581154
1098 0.1463092899756585 0.6892204682102676
1099 0.12669167259833103 0.7362670411563934
1100 0.2512336303804712 0.09056779172992269
1101 0.2977086004883628 0.015191659647935118
1102 0.28197717500475816 0.5552623388411021
1103 0.8640762364697213 0.7678346205020552
1104 0.6807384881990866 0.6746905320390945
1105 0.7031055074137063 0.8019934080006721
1106 0.42037181387606126 0.17249085277961085
1107 0.24071564828187264 0.03525981678817702
1108 0.4283117135118064 0.5619776122332603
1109 0.5067998404236523 0.15742903861451374
1110 0.7944228868516147 0.007222332003829268
1111 0.22164955237743034 0.4522044387041738
1112 0.5787327199622732 0.6710920356497496
1113 0.4694263338475625 0.17529194950301263
1114 0.4098765751147446 0.5840816169523286
1115 0.8640657921607962 0.801870336296748
1116 0.1982903873911699 0.8941604254929421
1117 0.7354921731132368 0.7354177131976904
1118 0.17863047480454297 0.1368569864351955
1119 0.025959821123535343 0.10659231161946892
1120 0.4934122730075554 0.6482318988532411
1121 0.08647677352895744 0.4724901831051086
1122 0.46753158482761215 0.11952007225720263
1123 0.1646478636722385 0.317995549117149
1124 0.11634930086333917 0.5496473692637383
1125 0.5438822706845009 0.6494143383414653
1126 0.6496976282989056 0.8967864137769151
1127 0.5451860078787775 0.6210845893974377
1128 0.19240104146784887 0.9563229425196805
1129 0.788197212866256 0.8361841844474646
1130 0.5940708798904628 0.30832903054061955
1131 0.21610232567475074 0.33481793533279325
1132 0.4287008744256049 0.5771444704338058
1133 0.21250654591081963 0.03659272673041014
1134 0.1647430966898018 0.3189887832012862
1135 0.8248950226192387 0.672581392459745
1136 0.625024757294504 0.865844401005551
1137 0.762367830361408 0.4922794148028834
1138 0.6400615047510576 0.45732937678745944
1139 0.8227613388900021 0.049094135002731853
1140 0.7955249064771894 0.2575398000186677
1141 0.4844965034033183 0.33818420083694545
1142 0.7348083583500362 0.23659132549125939
1143 0.3079210663631726 0.28821933706843084
1144 0.9666796052206736 0.24419825283636987
1145 0.5193594187549456 0.7714475975733781
1146 0.19539538060677275 0.20883152601863442
1147 0.49708332916068 0.4986178214718173
1148 0.6927741897619173 0.4860332236708885
1149 0.6328952237852548 0.5341587227367423
1150 0.5476534420312599 0.11131390573949118
1151 0.22332026426188079 0.0026235382951493857
1152 0.7781995081740102 0.8855947815642967
1153 0.6049984148034503 0.4655341387068377
1154 0.7493336066646447 0.13954221612965645
1155 0.6562649329557054 0.19073702492997346
1156 0.006228916800568585 0.30137089396934436
1157 0.5868846099282953 0.7271510742826918
1158 0.5096220485370655 0.8530913201172245
1159 0.8401845856047092 0.579381383772143
1160 0.6461788766245448 0.6412485859490864
1161 0.701219210251193 0.8767569895828979
1162 0.9955882631685095 0.34170007079792075
1163 0.7035425635478176 0.23609647857058136
1164 0.29759012087178394 0.03726859705942276
1165 0.05899870225906867 0.4918023715192038
1166 0.1478408628040182 0.17433609768485347
1167 0.5645279032461514 0.6262483336204842
1168 0.9204149245164563 0.17345233496105272
1169 0.16858246556457201 0.413960920942287
1170 0.184887819506535 0.4322987633082299
1171 0.9518274901761214 0.5881133681146081
1172 0.019229804485792257 0.8909394110580503
1173 0.09499832773893213 0.2643233083065134
1174 0.33602107035676865 0.967888585075835
1175 0.38440682720810504 0.3207751681158536
1176 0.5901860630559801 0.9574932687923049
1177 0.12825681439320025 0.8886683875968715
1178 0.602708400270657 0.6025286698605697
1179 0.13509415780787593 0.1631294452729639
1180 0.6832041322344591 0.3908793439540942
1181 0.5425400128403597 0.8520907671578812
1182 0.286872540760441 0.32917050709594564
1183 0.689496376615434 0.9381705940386024
1184 0.7888375802844881 0.5840022294868124
1185 0.028517373228279186 0.2728951472561969
1186 0.48811312339961743 0.8649986509449288
1187 0.9900455856208011 0.9877306702761357
1188 0.14747607938305118 0.3499220292074978
1189 0.047186041884655694 0.2005059053478755
1190 0.8899140758833616 0.20619568704590563
1191 0.32361634927431593 0.7779595416889927
1192 0.4416184902986454 0.4489063880894856
1193 0.7275408050900077 0.8323339705351039
1194 0.6121766574239158 0.23209593775307458
1195 0.7834201475662989 0.9162518974856475
1196 0.11479344915502987 0.5817918017144139
1197 0.49050932344708564 0.07871101425517568
1198 0.6899699108608164 0.2581528043943484
1199 0.34643838384385484 0.0545175933485782
1200 0.8982825253611926 0.3638977598755737
1201 0.039979819600783006 0.1256911596989959
1202 0.23002359537565364 0.26955033317550536
1203 0.5188922632109951 0.8592328015655231
1204 0.04049090020154744 0.4475987556035771
1205 0.04797479099029012 0.6201216272729904
1206 0.5109615770862662 0.7158117777120075
1207 0.8590565538804988 0.21238846796190958
1208 0.872320285780152 0.964728757705928
1209 0.47668163263706054 0.8325300981485417
1210 0.7475745028631582 0.1930927909881448
1211 0.6343879506452068 0.702374389917711
1212 0.5241117872543953 0.884636564546214
1213 0.9251447227996692 0.0656261370391037
1214 0.4262561449881286 0.7568971659622789
1215 0.9189152726091019 0.613360487672183
1216 0.9853148771179375 0.7217496485310425
1217 0.4068324481373633 0.7228419883235785
1218 0.3798694407817508 0.3062462072246863
1219 0.983965009376691 0.7448532101466389
1220 0.10151712476010799 0.09331484638798104
1221 0.5750560218360532 0.10034401749743527
1222 0.14679056846031324 0.10748250934106685
1223 0.05882364691840858 0.4927163028473993
1224 0.4549078360711213 0.21286438891324622
1225 0.3294383547697919 0.4531500622894875
1226 0.3155811610997572 0.363714892475804
1227 0.6074474565075396 0.6875643522479956
1228 0.44340999037333806 0.14308527717643582
1229 0.2803389038476657 0.23066939669859432
1230 0.3282348132143419 0.3114387376510779
1231 0.8498949489589915 0.8500419720711154
1232 0.1853008543723662 0.8634522784027897
1233 0.7320321707409657 0.6675107881587633
1234 0.9639290118654321 0.49211284178976233
1235 0.047286244543080835 0.42292009232677386
1236 0.06637742207100672 0.4673324765100657
1237 0.7919338229313666 0.8622281709971698
1238 0.5699248455320179 0.8388275671201677
1239 0.3480228755198226 0.9586765619660926
1240 0.2621807866396233 0.36151519992612147
1241 0.36427230390039644 0.6959858356181313
1242 0.761798020647556 0.4930306612696307
1243 0.017504763024693726 0.1316689815162969
1244 0.5022558250762161 0.5836090150361297
1245 0.06101200171807164 0.021056094689766658
1246 0.7695997027525259 0.5155206674810038
1247 0.7906148589931131 0.6593827206043091
1248 0.37232706793887216 0.4368639348742671
1249 0.07743822641078346 0.0327624156662738
1250 0.5208618774976955 0.27980852698140946
1251 0.051795199559863 0.20189775513532415
1252 0.9636829481156963 0.2462761525261855
1253 0.4914744189062594 0.4872180107775821
1254 0.24208644619955677 0.7682054318385044
1255 0.6211776154890605 0.6944092460715782
1256 0.9962481112775652 0.021112906517138486
1257 0.14317449286381168 0.7623861918780376
1258 0.9577982328078024 0.042126542583102555
1259 0.35284231967181345 0.719882302232829
1260 0.6961703532742979 0.3927568677928147
1261 0.3783113694707937 0.33798686676066436
1262 0.856930362512355 0.39941841053330196
1263 0.9443949603079428 0.67094622200996
1264 0.5379123959331576 0.5239515812318578
1265 0.12102243892415632 0.5323838539130571
1266 0.2833479483360868 0.6322742583087905
1267 0.33916416795711835 0.773345724722362
1268 0.6537339097060785 0.9593580208522938
1269 0.6690211155317011 0.4372586568803225
1270 0.5261745104808865 0.22063150466950643
1271 0.14803106055971083 0.5760589621887365
1272 0.22714881935800846 0.07174078413152685
1273 0.6344968958805443 0.4862926403926823
1274 0.00022196023048348668 0.05084656658378173
1275 0.660711630713886 0.5015511036462839
1276 0.5978900246159228 0.005890279741972426
1277 0.5079078641261415 0.7531137838342388
1278 0.4420680363111751 0.01153817609394936
1279 0.36386762327655553 0.9075331077775425
1280 0.8619702959917003 0.5349469197003605
1281 0.5217168491420716 0.4868347389981754
1282 0.29805559871398113 0.20162186897291545
1283 0.8772836243794009 0.34692142111903357
1284 0.6139428811294037 0.6471454635579298
1285 0.14188145579807232 0.47705481856770215
1286 0.7286472240646154 0.5451140094889132
1287 0.7159452964516136 0.5201018218115395
1288 0.21235587371144493 0.055979708677268314
1289 0.7328868374450414 0.9143368822261498
1290 0.5260154110486943 0.43313777049830093
1291 0.9052156783852919 0.16303005380228297
1292 0.2625380297002262 0.6301290962163159
1293 0.36590061504496574 0.11522274392168119
1294 0.8407800842444654 0.14407970008874216
1295 0.15110293207725223 0.42952085352473834
1296 0.8261192472080267 0.5873518521685267
1297 0.4512666870182973 0.8797115267193812
1298 0.6264976864337023 0.18385370792791245
1299 0.30003232880832986 0.9139029639281074
1300 0.6832482775273477 0.5169560678344123
1301 0.9986789540277873 0.29137675801601404
1302 0.8356602106228844 0.6462536053287322
1303 0.02953960235215458 0.369212284596938
1304 0.13583257679813676 0.6295978728716901
1305 0.06353868961883535 0.006853694361876106
1306 0.5505912231432223 0.6025620483175783
1307 0.9208682668944651 0.27207749818075855
1308 0.869678245807741 0.41081292817534665
1309 0.09140512621376284 0.1535049462504937
1310 0.07006858157782103 0.22576687025011766
1311 0.13294259883960913 0.1958518864014811
1312 0.0663457982758342 0.7620165207752269
1313 0.0012265651259889543 0.8350062519548404
1314 0.6786235945659469 0.5257454176978088
1315 0.8178266222770539 0.6890936249773502
1316 0.7246557882708443 0.0637072634883662
1317 0.0646923835990959 0.8328854799530317
1318 0.31775573778770605 0.6459923304880317
1319 0.95784954228999 0.6878626462333505
1320 0.8277495387618162 0.7760792842079153
1321 0.38515436354768184 0.6240244765653316
1322 0.2204944599341212 0.8753482594230959
1323 0.1379875532604561 0.7130439404628897
1324 0.31735082074722254 0.36867896663546873
1325 0.9614704565020674 0.5348361449984596
1326 0.6742227905910204 0.3270985924044665
1327 0.39604363484764593 0.49864571054460916
1328 0.31351661523405905 0.6908544994586542
1329 0.2726051254029934 0.07927615806023025
1330 0.3079742090482793 0.6914541775639608
1331 0.008075079408551677 0.0732508532414834
1332 0.5469400156397375 0.6846232618406299
1333 0.5771096434193608 0.3046759547268193
1334 0.00432214062561076 0.39326064794772075
1335 0.2381732748093376 0.5492221322681254
1336 0.04115044999728257 0.07553544137896606
1337 0.9231680251578269 0.3943199100563368
1338 0.8829162093384888 0.17020017518992248
1339 0.7016018892610326 0.6276842117508622
1340 0.391794962725182 0.7064003333027026
1341 0.44942085476303684 0.8196434432457825
1342 0.30660320584034995 0.8000052098032975
1343 0.12456574606748239 0.9764417408181763
1344 0.2764365936579183 0.8954437838892225
1345 0.8491436360655664 0.761829460071731
1346 0.5547862326512637 0.1510559479946707
1347 0.8998042495556804 0.6571530369267171
1348 0.6480802804630184 0.5264399936188144
1349 0.7451372391102795 0.3945948937172543
1350 0.26764723272453994 0.4233896625343896
1351 0.2608505714682896 0.22624469229027555
1352 0.9497010279703929 0.8550637740707905
1353 0.7637161324342279 0.9919949800332384
1354 0.9605968335386633 0.8116989470496517
1355 0.03611397149329043 0.2980947707028032
1356 0.596630188077021 0.5248537272211271
1357 0.226534952763625 0.9208105068099108
1358 0.06674260924173991 0.21239390904274913
1359 0.7955782121333691 0.7357912857851799
1360 0.7169890406890004 0.9126451967208111
1361 0.11543753884174934 0.7664393609510007
1362 0.08658979657652999 0.8979525356141362
1363 0.8761119299153696 0.5395600816200891
1364 0.1869379968711541 0.5389512643337991
1365 0.3085254336896718 0.7012700304918921
1366 0.6935347956853191 0.9140061055129991
1367 0.6257320280728653 0.013100462217067399
1368 0.40601490712954647 0.8843970045031355
1369 0.22353527775379167 0.593975009692338
1370 0.6814679422792278 0.895190290733265
1371 0.4410739569945201 0.015873070352644292
1372 0.2627245153029658 0.6911443251932015
1373 0.05326357321234054 0.6756876704886906
1374 0.5433196164997364 0.7874612388619356
1375 0.46625252442054965 0.198026317196889
1376 0.8520585458902648 0.3477037388764288
1377 0.7118454515607365 0.7754238116696406
1378 0.38039728882111334 0.07657681446819964
1379 0.6669673649564181 0.7791438561515757
1380 0.15293435687833856 0.43115875993681096
1381 0.3341306535762776 0.6125685884166061
1382 0.843112636401848 0.3315495457601174
1383 0.5156238207753167 0.4676874173972535
1384 0.07630278544425462 0.5488884065065821
1385 0.9946517535973554 0.9401168282288456
1386 0.37114980462025493 0.48762144625187154
1387 0.9008591989042517 0.37337548466560866
1388 0.3968393781428444 0.21646518766912692
1389 0.9694929542428643 0.9205018750060775
1390 0.09684900875970903 0.28877619313647795
1391 0.7736649113144294 0.6206593341206206
1392 0.8395157098946783 0.6834597719780736
1393 0.6253378169653935 0.8434229829389395
1394 0.5000408496565657 0.8212345382863352
1395 0.7536423843935013 0.5962856617757717
1396 0.5977611114088606 0.4272206709100622
1397 0.004977444797214847 0.4817073535290879
1398 0.5622685401364703 0.7500402903252847
1399 0.0479016458138698 0.19243059769901338
1400 0.6062786001587257 0.7703718240367526
1401 0.9450500064968914 0.32625131877760327
1402 0.9229475491847513 0.9145039544484896
1403 0.046992877634960295 0.8386469134137733
1404 0.9473973909232983 0.6646482888456002
1405 0.25906662246577417 0.7438767886778024
1406 0.7454233431097068 0.6581492044831226
1407 0.17510207298717073 0.4228937452316308
1408 0.8054218756276822 0.3484318269418206
1409 0.6956256107219748 0.07838416809452453
1410 0.6220698618539842 0.15685862811833806
1411 0.08868041915229463 0.20516445503092262
1412 0.6092199320366848 0.786178864891291
1413 0.6137807154564385 0.8952508850267322
1414 0.8917209667164704 0.5418663653205897
1415 0.96209848071658 0.20664702130901935
1416 0.23331691280084632 0.7683017665000694
1417 0.38713548550879495 0.829072068990256
1418 0.4619334543984097 0.27886008779057014
1419 0.20894024974466208 0.19954742508816603
1420 0.14840827908822352 0.8558983184399046
1421 0.3678663433059193 0.13757970121662322
1422 0.9641024986175203 0.4534971997144954
1423 0.18986634168347005 0.1124436072987357
1424 0.02415673385888273 0.42249568279927163
1425 0.25118236581145914 0.9840466666715408
1426 0.33998063539215617 0.8241990757258497
1427 0.04248786166985463 0.15842993118149962
1428 0.4352860958060216 0.29487543936692917
1429 0.6856519463960078 0.5265367851158824
1430 0.4868946392626651 0.6038067612499689
1431 0.4214456690232249 0.76069546240518
1432 0.40595775854162863 0.20799544338052223
1433 0.1571114601992285 0.37492760220452914
1434 0.09236096915056258 0.4386721488150097
1435 0.5066235327394543 0.3362758761551725
1436 0.48067190642377755 0.8599665290018803
1437 0.25439750891056034 0.5310579096395222
1438 0.9172908768304295 0.7156011970937847
1439 0.032648556934316675 0.10934562416523563
1440 0.20584079832693947 0.49308451065483594
1441 0.6042865248559197 0.11901270969146527
1442 0.40487815827699936 0.7778354739650228
1443 0.4488882616404838 0.058409177496709486
1444 0.9693273154875794 0.642512627786381
1445 0.24256941453194614 0.437311489737612
1446 0.7892139179492533 0.3599421181266852
1447 0.544542454004481 0.17197804743068323
1448 0.061496155029001076 0.18118128403094014
1449 0.8531411198803568 0.9929328909038192
1450 0.8758698034892022 0.6999795952086767
1451 0.736200153980254 0.13603436883294673
1452 0.2672760718099678 0.2916355907982606
1453 0.018435395004450017 0.0026472887821227253
1454 0.8995397260070602 0.22985019334090062
1455 0.05149015755964803 0.6299465073693126
1456 0.5316904604730093 0.8333147787234753
1457 0.8478541505580505 0.8908592548510107
1458 0.135432646553996 0.8079879166670285
1459 0.01855522653084951 0.9507924117640811
1460 0.26781827226219357 0.29221728116820467
1461 0.5086950959659867 0.3361987087088809
1462 0.1410794381887217 0.5120599991187077
1463 0.4610216567971164 0.9953435343471491
1464 0.23878125911126946 0.4080662478751452
1465 0.5529667227898546 0.0690358125523296
1466 0.78413785849888 0.9251961513820003
1467 0.12174852730798269 0.23399373532905798
1468 0.7015596343162558 0.3104285489674148
1469 0.7925996331442536 0.8637378996797376
1470 0.1158255172512529 0.144859249277269
1471 0.1408858607064405 0.6875320355859822
1472 0.5354507798275739 0.9164980121208547
1473 0.8929746172840872 0.45978706403835035
1474 0.6945923134719199 0.6044520749906812
1475 0.5381459425512255 0.09552491783944461
1476 0.08187347699312075 0.9514277013574995
1477 0.3964486269334011 0.15811089265248512
1478 0.9893100303218081 0.9834146509940678
1479 0.4300361530281118 0.32214891293319414
1480 0.5198485520929633 0.6281627358073673
1481 0.7995270023369916 0.35608916753195163
1482 0.08565731378362884 0.19456226549605715
1483 0.8073276494823549 0.3360061390364508
1484 0.7131683748623574 0.12118639364067785
1485 0.05214599012751164 0.7633048151083249
1486 0.3182962264541951 0.8038597413737625
1487 0.5837663975396605 0.8386087346499976
1488 0.009190507373231793 0.9337667044332487
1489 0.09155536424776134 0.3318238517708715
1490 0.3655583689352081 0.754089704188169
1491 0.4664337588073896 0.43314862000258014
1492 0.8554240238567055 0.4855128404346739
1493 0.03206749778721907 0.9246334791137512
1494 0.5864981883681694 0.6820898282225686
1495 0.8164613305718822 0.1449182123067999
1496 0.6266870985616074 0.10985456609325406
1497 0.9114680101187208 0.9291354667589168
1498 0.8954031858230324 0.006995909137119005
1499 0.6534211223183517 0.1508032636703429
1500 0.391017427425537 0.7136764538920254
1501 0.9050351606472478 0.22112240422981377
1502 0.6209081857348037 0.8988644446244298
1503 0.8856204708755073 0.8936220192744614
1504 0.9546175195670067 0.908266868881865
1505 0.8076816922441877 0.394810340927668
1506 0.21725609877274632 0.5887255574185197
1507 0.4157902003084546 0.15112599300678053
1508 0.7366327938098507 0.007478140989312987
1509 0.8035960983410682 0.9410390039284796
1510 0.5632093400623517 0.05961426861230745
1511 0.8669638650968058 0.4591596786285731
1512 0.2967252856671272 0.9086236228554991
1513 0.5567692075159961 0.8025129433739311
1514 0.622082063141039 0.6037698184129531
1515 0.31851804072464285 0.49921859348733055
1516 0.27005404571811176 0.823654028976039
1517 0.18837659783537264 0.557577163085194
1518 0.5147978874541717 0.08350537089795829
1519 0.04311765632370146 0.859063725748468
1520 0.24213575282445965 0.21800895330070524
1521 0.7176958613370732 0.041901384333059566
1522 0.12082958877002703 0.38969990654280073
1523 0.9937049275584511 0.5332318970081975
1524 0.12024164398471682 0.680467746755661
1525 0.15129884405533855 0.06624898797936996
1526 0.52554831061117 0.19913772768292692
1527 0.9583819729075966 0.29825829826278916
1528 0.6246943313415856 0.8351650531167722
1529 0.2478204152016953 0.6216411060337922
1530 0.14123230978169365 0.7619926746605872
1531 0.6606585955719108 0.2656527687470871
1532 0.664305536051651 0.7880426724915427
1533 0.324359258068462 0.889750903224022
1534 0.515133112496718 0.03903828220622241
1535 0.8931555799224489 0.3061993888437621
1536 0.1373711938467702 0.6874244695016
1537 0.2534535022382305 0.5382315713116697
1538 0.767223077570936 0.9646912716349271
1539 0.7415978919843161 0.5933888922785014
1540 0.37860475595294285 0.5627204563643239
1541 0.9407182727789297 0.3032388422416642
1542 0.7906233375992736 0.6988924235362881
1543 0.4850234321907757 0.8425829919403515
1544 0.5759599179666923 0.8463903806266174
1545 0.7594771425035646 0.9982592712134833
1546 0.6795143720272457 0.235213631285645
1547 0.18003544690704698 0.8671758930615896
1548 0.12075855915710154 0.08155660992974001
1549 0.0807671413822274 0.05343548485790617
1550 0.9287070626511694 0.1845324469166001
1551 0.5698571538658368 0.5437929004242553
1552 0.055732581478233345 0.5088778730306855
1553 0.46930611321630833 0.25104076926788754
1554 0.6683690414745062 0.8784015613243714
1555 0.8099634563958225 0.13754222889358603
1556 0.010536699544480777 0.6284839201573951
1557 0.6034301079706114 0.8183051688549552
1558 0.9199732902973079 0.4604829898500098
1559 0.5213211265007279 0.40304725567127275
1560 0.30969720867239725 0.36792517367457367
1561 0.4597145589115803 0.021425385057485813
1562 0.86015154013521 0.16705056928549367
1563 0.8220905933979984 0.4093741918352911
1564 0.8082924489980096 0.4598409645642264
1565 0.4781832320774021 0.7236302443012178
1566 0.9622021676060504 0.05863268855945036
1567 0.8925104257337408 0.43905790883893336
1568 0.540504427987188 0.2767884855296079
1569 0.8848971976109001 0.4727437335184006
1570 0.0729547036570456 0.183441503738781
1571 0.33645162833784314 0.3419818361464637
1572 0.6787854757311643 0.2152833610967746
1573 0.6252111708531412 0.1496085466197392
1574 0.25175556055940385 0.47121421770533667
1575 0.17325083880529224 0.43168636266437144
1576 0.6657704399551191 0.3413177465318238
1577 0.34082068565843615 0.27568677839727307
1578 0.9397403147698368 0.06880988877354521
1579 0.40419303970805776 0.928888580601925
1580 0.9902498800745538 0.485113970815892
1581 0.2060683066997142 0.7123776440785118
1582 0.5238703132046004 0.14428582344670104
1583 0.3689523816197092 0.13306236144808714
1584 0.10843644446186962 0.09426177761192123
1585 0.9314147986355598 0.06395612691220298
1586 0.8612872959176239 0.13067064035983356
1587 0.9181608735500814 0.26441331713915794
1588 0.4458107993072288 0.4895155443058764
1589 0.9067883669604129 0.11994538180899161
1590 0.8215112716296639 0.9257067712279181
1591 0.020773916621064648 0.9971102698546179
1592 0.7927307720191111 0.5917868680859908
1593 0.5632604123640675 0.5819109585508232
1594 0.18716243915845354 0.8710361768949627
1595 0.5777891810867947 0.8025306037637444
1596 0.4233161581805299 0.044088870500439636
1597 0.6231109536901508 0.14703592471568305
1598 0.3431696838625258 0.2418837734662721
1599 0.166951917339614 0.5115571443561738
1600 0.3050076089900482 0.19368137039533717
1601 0.2526057158793359 0.8042599634044869
1602 0.4293615811464748 0.3822140031575968
1603 0.33939682350307365 0.49705863795966176
1604 0.133861693764331 0.30924179534942686
1605 0.3804484402816902 0.7182306022173864
1606 0.48571903142421935 0.6932502683782068
1607 0.8342989743869824 0.44271808168934745
1608 0.277848614884766 0.9094976614583677
1609 0.990249234024479 0.8373102127189413
1610 0.7777401990700623 0.698567276064386
1611 0.5698689356864183 0.6132079903253773
1612 0.8615659440802216 0.5458388555379774
1613 0.9933246911804979 0.32207170965867016
1614 0.3480336747467385 0.09121745529280167
1615 0.5197358102182319 0.7612048401644363
1616 0.2617680078485921 0.9147661341974691
1617 0.8344001873046236 0.48025868292342466
1618 0.332247112976343 0.6075076302381638
1619 0.6230753247761893 0.3539222930890422
1620 0.6177008743869118 0.8335676336625253
1621 0.5522053282194005 0.6247848745190657
1622 0.12928125270775714 0.5221581052304765
1623 0.44591246764044334 0.6506858969723976
1624 0.6228748872512783 0.21675241641715604
1625 0.5268380719049952 0.3932807340790013
1626 0.9050092017640654 0.3719408428879448
1627 0.537627719559496 0.791026880381338
1628 0.5807370998512434 0.253830119728918
1629 0.07622550198720834 0.6776907434859386
1630 0.5723808615128573 0.7064582897173167
1631 0.7891830790450222 0.7923422194853277
1632 0.14467745206137816 0.41655157936519205
1633 0.8467551120166126 0.4019503528024707
1634 0.878973893760938 0.666922336711033
1635 0.7782029219581093 0.5663725471565921
1636 0.26220477981565726 0.2880920249626795
1637 0.45510884158056575 0.007896840531570581
1638 0.9211429964150335 0.7322478774278873
1639 0.8546549104302554 0.523282850274427
1640 0.5442085818765487 0.854111844056796
1641 0.28576841259300734 0.19875672003121314
1642 0.9443522879545694 0.05287938064207787
1643 0.9602365491555002 0.6489269649408427
1644 0.6825579955114379 0.3126177043385727
1645 0.7727556218223446 0.51241717677585
1646 0.2464546766425788 0.910886301949426
1647 0.8077957493070936 0.9769695914034242
1648 0.42070341471874384 0.12016434295196232
1649 0.486692384746255 0.1643326468125471
1650 0.7978569869788898 0.5860072698562344
1651 0.12464660466666155 0.6980105175618698
1652 0.9477605033233267 0.4838700485329054
1653 0.645306594176252 0.33652377008119616
1654 0.0823942071027266 0.7919119863173436
1655 0.4830698768060421 0.5457724003331597
1656 0.4076595026160065 0.3322171690023399
1657 0.6613914613847379 0.014578323255311387
1658 0.6379921919919731 0.8579910215139263
1659 0.28671505166336453 0.034595227684983354
1660 0.9266666004052516 0.9447047860555945
1661 0.23833815833302585 0.6932450979539064
1662 0.5483015049306275 0.16026098581521175
1663 0.42345795611988957 0.8044264351154656
1664 0.5713797037324267 0.6558824833772697
1665 0.16599860674443812 0.19405075265584448
1666 0.03158188058609368 0.6017023074980415
1667 0.1194137770646837 0.7347378388833928
1668 0.88175154750758 0.8836549863001165
1669 0.3153332901228374 0.380080647678276
1670 0.8620898705542679 0.4472839078208424
1671 0.2863598775301781 0.06850260864555424
1672 0.9725090836935286 0.5690042745457631
1673 0.8947776261508605 0.6504500651571531
1674 0.7394413276724484 0.4486334194482119
1675 0.12550882353111614 0.6927664800420245
1676 0.5135311753026109 0.6927119134794157
1677 0.5773496725363165 0.35917462283581414
1678 0.7734168178091445 0.5787031150160847
1679 0.20725484286082807 0.4528075629547139
1680 0.7285829348138141 0.5731757849818995
1681 0.5495450361440373 0.97792873422882
1682 0.09851760449689528 0.443227336426813
1683 0.5294181042125128 0.8790414268138012
1684 0.7418058120182599 0.35274261196605006
1685 0.24506647816421412 0.8984471034139742
1686 0.0008348828867631441 0.13640360144349772
1687 0.9412180626558123 0.6602830066788146
1688 0.034711514172750646 0.326833687856778
1689 0.9784437899491549 0.5074192755883185
1690 0.25334406905597195 0.5883439536135266
1691 0.08260959380822863 0.0076101594338586764
1692 0.812197275665154 0.9730340208527583
1693 0.9330109718667537 0.22042548059027578
1694 0.9193832413845304 0.24871636442948697
1695 0.9465754489362669 0.8837246344181802
1696 0.11888744020358022 0.5948789546612103
1697 0.9663187321651961 0.7695911657825312
1698 0.1448011414156335 0.23749665483270876
1699 0.17207188802752027 0.28830443379508597
1700 0.07733809839534678 0.7375124505289787
1701 0.20780541535880948 0.0741439842767081
1702 0.7077817093656433 0.2630087851098192
1703 0.7722399961568958 0.3154157293851999
1704 0.6542632138419213 0.26671991333861833
1705 0.7600981984433365 0.4734817458304117
1706 0.495160043945547 0.35087513327608577
1707 0.5357184253377922 0.5850783551768457
1708 0.45908578869176964 0.8481268511924939
1709 0.8177681522328948 0.22198215210389227
1710 0.7762579015776235 0.8822452871103544
1711 0.25543330544395304 0.6600600904440621
1712 0.6517199591255124 0.3332271746691913
1713 0.22227410035229767 0.20805933485362094
1714 0.8816370763815986 0.9461680306349604
1715 0.3683311251809088 0.7853504540114209
1716 0.8694129814238609 0.3844405185227229
1717 0.09104816408774685 0.6356470010487735
1718 0.7335250825275809 0.3138477345121635
1719 0.6920132523577672 0.9355035801812009
1720 0.13154791909834873 0.9661240569841278
1721 0.2523111386211514 0.6034753032959653
1722 0.3398962671902278 0.8414384404828834
1723 0.421580259365419 0.339515951624065
1724 0.22472978427848178 0.921102714861783
1725 0.5213844181290384 0.7321142916318025
1726 0.40542758100765264 0.7491382939028856
1727 0.4643699185895477 0.6341374619067635
1728 0.2861581647387983 0.1703011396266697
1729 0.1000406117760857 0.3842154505081138
1730 0.8276916715922388 0.420756329488188
1731 0.9639272107626731 0.08153363586820894
1732 0.6304183026934552 0.8723272173309465
1733 0.6655098723628614 0.6630909339253336
1734 0.4088207960393915 0.744265934510351
1735 0.6418790525247197 0.6628335602691223
1736 0.4821354425233354 0.9116412480163211
1737 0.44059627468118756 0.7276936463213681
1738 0.8082377393315312 0.6540729814127973
1739 0.5411623406310007 0.14888938403888907
1740 0.6306746230278487 0.8206500923064968
1741 0.4644625004647349 0.9273710348150629
1742 0.4097827440218711 0.9510311508379893
1743 0.43430065842360766 0.9235676021548885
1744 0.6021816631622063 0.23079420066340184
1745 0.25548291334944895 0.024121474069844995
1746 0.13668673177789759 0.20710928526734695
1747 0.48249982152041104 0.4771441581482303
1748 0.23520660207958322 0.5556057307285421
1749 0.7219871800688336 0.7726060313831012
1750 0.452896601398178 0.2957495226996434
1751 0.3953447218461955 0.47257422744851085
1752 0.1595717813369869 0.4734217051675562
1753 0.8064375770546497 0.8430622952575333
1754 0.1501616755642643 0.2007107961839557
1755 0.36050996922699263 0.045923713367755914
1756 0.5909943155231501 0.7680601468877629
1757 0.908829074972561 0.07789039789211372
1758 0.782348008605481 0.9550554785508512
1759 0.959580436814708 0.407724455311374
1760 0.3233910706350639 0.1656229876319516
1761 0.8113914389826182 0.04807105812852608
1762 0.34588941059865674 0.359586128460477
1763 0.5339076582974637 0.30802471638394113
1764 0.538918126008364 0.09536366111022987
1765 0.003961303153571238 0.7177680713303932
1766 0.07280033885388904 0.5022170877602185
1767 0.7140032798864862 0.13964153100304966
1768 0.0449156606231913 0.46903116345230833
1769 0.2728225729574316 0.15188139745201945
1770 0.898580664609125 0.2678281212187018
1771 0.8438066465687718 0.12799233964735846
1772 0.6695137731742956 0.5427698217305097
1773 0.2973762689747118 0.6645430184753051
1774 0.5862848570188223 0.8975095186908845
1775 0.5862306461326394 0.5911311323673142
1776 0.7076035514627265 0.872693202077957
1777 0.9064061106953132 0.05732106356088695
1778 0.2783492375880593 0.5282518416670968
1779 0.16209741176857695 0.8723331008042414
1780 0.9731022096012893 0.5435474551593286
1781 0.3625942747021079 0.28628564385519184
1782 0.5274641715440902 0.8382874627605529
1783 0.682611106325877 0.288729911445615
1784 0.19918802975549676 0.9535262618380744
1785 0.8251834924499061 0.07783950125885963
1786 0.09087618229335337 0.26070601879299804
1787 0.6270171283147488 0.7301609814109183
1788 0.23058635172700026 0.5427829901016903
1789 0.7922728194667307 0.9164674089550713
1790 0.08168215497902898 0.009426427908722501
1791 0.8053892136624753 0.13587123205241225
1792 0.9310476551917547 0.03402576926105405
1793 0.8458720755708504 0.2930652101487202
1794 0.205965454039861 0.4952100836508012
1795 0.12034872337790958 0.743031102351278
1796 0.669800428021041 0.9539995990657497
1797 0.3057599606770709 0.6418537298417336
1798 0.05147281791928604 0.8779437323169592
1799 0.1629731832563983 0.4995240806548942
1800 0.7187525416076808 0.12445062857540079
1801 0.09292828767655936 0.2615469556136706
1802 0.7457387020089778 0.41005348419837384
1803 0.3714368944116767 0.9861083099004649
1804 0.3492221421638132 0.5360698938325271
1805 0.9601246470905566 0.8419304073816986
1806 0.7852194046832702 0.7026790810072533
1807 0.5859978654194972 0.5972106195951488
1808 0.04879561009926825 0.1073945479372711
1809 0.6084185405320796 0.08467276226085518
1810 0.04352955573127426 0.641771266704693
1811 0.7447187949337931 0.907633350740233
1812 0.17793640735943284 0.06480028769770274
1813 0.36993689613404723 0.2978741031874811
1814 0.42232840535097715 0.789034180521894
1815 0.5395345131279459 0.48200965118298156
1816 0.7072193933935921 0.770925250184796
1817 0.09718561367598877 0.9504947209264514
1818 0.8380868437311638 0.27375548749002043
1819 0.615839174696156 0.17992792995793205
1820 0.5053613611772667 0.8923040600015711
1821 0.9881842418021115 0.3713191810035086
1822 0.458916358190105 0.7824856347025265
1823 0.6155741031328432 0.45120014616289295
1824 0.6099525600044684 0.35637455967264864
1825 0.5732129942412727 0.9693668079610939
1826 0.04221971166871219 0.5807658819732522
1827 0.22976911957969237 0.8979152311621198
1828 0.9295601312371092 0.1306162551525737
1829 0.522845705458094 0.5296924832545492
1830 0.707889570081342 0.5948817356395306
1831 0.29813427998404884 0.7134594872307691
1832 0.4812427487390376 0.13189483686805037
1833 0.24414361414294994 0.7343334872131223
1834 0.2563448444858223 0.004756225212082077
1835 0.02102045975587208 0.9568412821687899
1836 0.9385586519410755 0.09118966636618864
1837 0.5819802075368402 0.7126512189145695
1838 0.28871304106297535 0.1697239795621397
1839 0.43947909018244347 0.26014887931281927
1840 0.2066985239302611 0.8518816758754214
1841 0.700347332923811 0.800399107192405
1842 0.9004747701128967 0.6917500035465474
1843 0.5473936620280959 0.9270518635685007
1844 0.9208505591052062 0.3626290896106019
1845 0.4273958053608795 0.8951722729917941
1846 0.8168841914104548 0.4674882092629098
1847 0.7891862339610298 0.2330865275602927
1848 0.240273926233595 0.5284373084415833
1849 0.5456861996271333 0.1809461000118674
1850 0.8617821834023727 0.47964684187130935
1851 0.6852463458400725 0.7301544084396779
1852 0.669086008799206 0.41271833306773387
1853 0.8312956681301004 0.7444826791556143
1854 0.21812515368065777 0.6185308976451175
1855 0.6267040661490998 0.9378585726683597
1856 0.4747548776372359 0.8243322511730663
1857 0.9641508380479183 0.002361787424181694
1858 0.9368578951082913 0.48549873746886896
1859 0.02393770742898116 0.845148824644556
1860 0.6799395659899401 0.769527858306458
1861 0.7306133825297788 0.5536240402043885
1862 0.13547265306968836 0.42967184190975294
1863 0.7519906253273326 0.014962504436567214
1864 0.7820376365286854 0.9427704686811158
1865 0.8986370779715641 0.23217140863001318
1866 0.10917682893027103 0.10376897672511054
1867 0.37054747277571676 0.5649705245537674
1868 0.6059679272597304 0.020099329902500185
1869 0.4094425437598994 0.3772723523504946
1870 0.7192236504782368 0.24674029179692547
1871 0.6851732192982308 0.394230608467682
1872 0.3314689764648926 0.3928371785900081
1873 0.12931798251005588 0.8028748258039853
1874 0.4506015663095875 0.09290814135356862
1875 0.46484915649026304 0.9841359758292119
1876 0.8932813664989261 0.6479438567804026
1877 0.9307421874966749 0.03442722875738158
1878 0.24820024582869948 0.06543493813735979
1879 0.8957913213531545 0.08665367444797167
1880 0.6491096684471053 0.4246978560757364
1881 0.3448211658432957 0.9207548887018842
1882 0.7976689043558569 0.028556518981831647
1883 0.12836279239911486 0.7097297127748073
1884 0.4707034710904736 0.07432168512663162
1885 0.5246772139691471 0.6986325849114507
1886 0.11172255800510678 0.1654951137442252
1887 0.13070998664546962 0.2464213175387504
1888 0.33968979311009695 0.3509846361594676
1889 0.6420253559813934 0.2590518410974114
1890 0.5249172551598971 0.8432350067475971
1891 0.9474550162772115 0.13843697726235782
1892 0.5824295211971029 0.8717895882801132
1893 0.26581961554541844 0.12898604123923718
1894 0.39491605047217104 0.2541595581677639
1895 0.4542702346037675 0.19836493224457308
1896 0.024384571607666494 0.3187978423250364
1897 0.21560934359035433 0.01278822284939718
1898 0.5509368964400286 0.6857867355173892
1899 0.37131846928181167 0.7731075967473293
1900 0.6559115421742707 0.5386421314396764
1901 0.6115649421727148 0.43113903883868554
1902 0.6041628332729098 0.8065972161914196
1903 0.7010967035036862 0.5554315675619951
1904 0.2829829131928454 0.22028631504820761
1905 0.9120512187101781 0.5079063786957927
1906 0.27975827398297604 0.4936472115999605
1907 0.01918383610857244 0.5909964629431439
1908 0.3739905245810784 0.7845384914658139
1909 0.6103048267696275 0.16180632575953646
1910 0.10292302467367498 0.26082802000853444
1911 0.2795948411692537 0.08214124738443118
1912 0.38310667359796113 0.8246911451166532
1913 0.7120743541640648 0.9660435144145455
1914 0.6643227331162396 0.0813392899512444
1915 0.8997491555837676 0.28066204772315195
1916 0.4778792936838878 0.5126737741214441
1917 0.1731140867390879 0.5698562134258177
1918 0.08668336613180694 0.590660490595511
1919 0.9342223265610885 0.7035442085930861
1920 0.7766220872011993 0.8614627415139947
1921 0.0806025173867263 0.90913062108064
1922 0.33591634606379894 0.4211389156324662
1923 0.40012524338182787 0.1438295821953316
1924 0.5625531892437887 0.8646737116712941
1925 0.2676653430239242 0.6258915508444319
1926 0.5657836752681717 0.16758348859347083
1927 0.6661540685165006 0.9692741640296475
1928 0.07631282162010433 0.19008387363909707
1929 0.5007427548029292 0.2584514749421247
1930 0.3098205143354201 0.6697964624899062
1931 0.11888120131492386 0.632143979736204
1932 0.18079535384713485 0.616225580696616
1933 0.40525713783931416 0.18727371263947767
1934 0.287454466990434 0.914063324807267
1935 0.3849602844036021 0.6618732551846981
1936 0.5853300563418488 0.3347804952031499
1937 0.1669347566524545 0.03715034336913037
1938 0.25725748657128733 0.23041140641645153
1939 0.45917970797127816 0.3496303114194981
1940 0.8298886478462671 0.3921212521360369
1941 0.6561323142004338 0.384141700228952
1942 0.9239547865767482 0.7943601628745123
1943 0.3383661635243991 0.9738806361817541
1944 0.6281138379284767 0.8351074349380574
1945 0.4106706067721867 0.21084154167576918
1946 0.7424195316389761 0.3818368996556293
1947 0.771658629715119 0.2168617332488053
1948 0.7798108825034782 0.8818077102856284
1949 0.13753863298622515 0.5843452116857636
1950 0.4911300409096455 0.6761494835707215
1951 0.3457618133359862 0.1798376633922345
1952 0.3362374196307468 0.6199738035934522
1953 0.6848911388971132 0.37675820475957167
1954 0.9499460021795111 0.49115242855724883
1955 0.9406071142739447 0.9442355222829643
1956 0.03606344547143392 0.14712499158074765
1957 0.8324191169577222 0.48628816434825195
1958 0.8894705075263264 0.8405659942814593
1959 0.10704872549572064 0.5975144428556266
1960 0.03570296921630056 0.2885299398521409
1961 0.7285026747880243 0.38240126364208127
1962 0.49822380166092173 0.7881138989638894
1963 0.27979505777814473 0.18707731382337855
1964 0.2821329872074271 0.574778202501812
1965 0.033939966123601395 0.9436370708688495
1966 0.4736698417807601 0.6543571146519019
1967 0.6905603679728562 0.5523662459385316
1968 0.8816513381496599 0.80469797231336
1969 0.20358531474293695 0.011729055813248679
1970 0.9525865724666842 0.7468625346444928
1971 0.2531430783123263 0.08087084229828145
1972 0.22103770308004234 0.7956968702426045
1973 0.5453382987798234 0.3610539427250805
1974 0.9698972117858177 0.49864786773772773
1975 0.5729470189926037 0.3353916944226619
1976 0.17337990407290393 0.26023482299036804
1977 0.4407342093676736 0.5030752466260254
1978 0.8448915025093932 0.6668016012461001
1979 0.9909239195154349 0.014490379861510583
1980 0.4025627543772152 0.9446575732043143
1981 0.09309949526196837 0.7114514536359178
1982 0.754503332131756 0.6421348371364484
1983 0.5447098023192842 0.9404520889909974
1984 0.8196517489696408 0.18754106386059088
1985 0.5144307471533858 0.5750205958631265
1986 0.22827553551574997 0.0426440760953295
1987 0.11801636748616273 0.6001875867828733
1988 0.8018850609925305 0.1520444911624086
1989 0.2782893483894615 0.5997807466210222
1990 0.0997964718433183 0.3089235292640722
1991 0.9869961676544857 0.508201246204553
1992 0.1684675037993788 0.7173219961217746
1993 0.5648387514304392 0.3579339817552487
1994 0.09460217908211854 0.7304897585558913
1995 0.9272723239937429 0.9609951714072232
1996 0.19829395586568532 0.9497035329301414
1997 0.7988624853877407 0.34796603540573323
1998 0.26303135223586527 0.08829703020823998
1999 0.08316394858551823 0.8820282315913565
2000 0.6062703519238795 0.32875266888018484
2001 0.9217121393506855 0.7400848148840671
DEMAND_SECTION
1 0
2 5
3 2
4 9
5 9
6 5
7 6
8 7
9 2
10 6
11 5
12 1
13 1
14 8
15 1
16 8
17 5
18 1
19 4
20 9
21 4
22 6
23 4
24 5
25 9
26 3
27 6
28 2
29 5
30 4
31 4
32 4
33 5
34 1
35 6
36 5
37 4
38 3
39 2
40 2
41 8
42 8
43 5
44 7
45 1
46 5
47 4
48 8
49 6
50 9
51 3
52 3
53 6
54 8
55 8
56 3
57 8
58 4
59 9
60 7
61 9
62 7
63 7
64 1
65 2
66 6
67 2
68 1
69 4
70 6
71 3
72 3
73 1
74 2
75 6
76 8
77 2
78 5
79 3
80 2
81 3
82 1
83 1
84 3
85 8
86 8
87 9
88 4
89 7
90 5
91 4
92 6
93 2
94 2
95 8
96 7
97 5
98 8
99 4
100 3
101 7
102 8
103 4
104 5
105 6
106 1
107 4
108 1
109 6
110 6
111 4
112 9
113 4
114 2
115 4
116 4
117 4
118 2
119 1
120 6
121 6
122 6
123 2
124 5
125 1
126 7
127 4
128 5
129 1
130 2
131 7
132 6
133 8
134 8
135 8
136 8
137 3
138 6
139 5
140 2
141 3
142 9
143 3
144 9
145 2
146 3
147 5
148 3
149 8
150 7
151 8
152 7
153 5
154 9
155 6
156 8
157 8
158 4
159 6
160 4
161 2
162 4
163 9
164 4
165 2
166 9
167 5
168 6
169 6
170 3
171 3
172 3
173 1
174 4
175 9
176 6
177 8
178 3
179 5
180 1
181 2
182 5
183 3
184 1
185 6
186 7
187 7
188 8
189 3
190 8
191 1
192 8
193 2
194 9
195 2
196 6
197 3
198 6
199 9
200 4
201 3
202 6
203 9
204 1
205 5
206 7
207 3
208 2
209 7
210 9
211 9
212 9
213 5
214 9
215 8
216 2
217 6
218 3
219 2
220 2
221 6
222 5
223 9
224 7
225 9
226 3
227 2
228 4
229 3
230 3
231 2
232 1
233 8
234 3
235 2
236 1
237 2
238 5
239 9
240 8
241 5
242 6
243 9
244 7
245 5
246 5
247 6
248 7
249 9
250 3
251 6
252 2
253 7
254 9
255 6
256 6
257 6
258 9
259 1
260 6
261 9
262 9
263 2
264 8
265 3
266 1
267 5
268 3
269 2
270 2
271 4
272 3
273 3
274 9
275 9
276 5
277 5
278 3
279 4
280 7
281 9
282 4
283 7
284 3
285 2
286 6
287 4
288 8
289 4
290 1
291 9
292 6
293 5
294 3
295 7
296 6
297 6
298 3
299 1
300 2
301 2
302 9
303 4
304 3
305 6
306 3
307 1
308 3
309 9
310 8
311 5
312 8
313 4
314 5
315 6
316 1
317 4
318 3
319 5
320 8
321 7
322 7
323 8
324 1
325 2
326 6
327 6
328 7
329 3
330 4
331 4
332 1
333 3
334 1
335 6
336 9
337 3
338 1
339 3
340 4
341 3
342 8
343 8
344 2
345 9
346 3
347 7
348 8
349 4
350 2
351 7
352 5
353 6
354 7
355 6
356 6
357 7
358 6
359 2
360 2
361 2
362 3
363 7
364 7
365 1
366 9
367 4
368 1
369 1
370 3
371 5
372 3
373 2
374 8
375 1
376 7
377 3
378 8
379 4
380 8
381 3
382 8
383 2
384 2
385 2
386 3
387 4
388 6
389 9
390 8
391 5
392 8
393 5
394 2
395 6
396 9
397 8
398 7
399 5
400 4
401 6
402 5
403 5
404 5
405 2
406 8
407 4
408 6
409 6
410 1
411 5
412 3
413 6
414 4
415 1
416 3
417 9
418 1
419 9
420 3
421 4
422 8
423 7
424 1
425 2
426 2
427 4
428 6
429 3
430 1
431 9
432 9
433 7
434 5
435 6
436 8
437 6
438 4
439 5
440 8
441 8
442 7
443 5
444 4
445 2
446 6
447 3
448 3
449 5
450 4
451 6
452 4
453 4
454 7
455 4
456 2
457 6
458 3
459 6
460 4
461 8
462 4
463 9
464 7
465 8
466 3
467 5
468 6
469 7
470 1
471 5
472 3
473 4
474 9
475 8
476 8
477 4
478 3
479 7
480 5
481 9
482 9
483 6
484 9
485 1
486 9
487 4
488 7
489 4
490 9
491 3
492 6
493 3
494 7
495 1
496 4
497 9
498 9
499 7
500 2
501 2
502 4
503 6
504 6
505 2
506 3
507 3
508 9
509 3
510 9
511 5
512 9
513 4
514 8
515 2
516 5
517 6
518 6
519 4
520 3
521 8
522 6
523 1
524 7
525 1
526 8
527 5
528 6
529 5
530 6
531 6
532 3
533 7
534 9
535 4
536 1
537 8
538 3
539 3
540 8
541 5
542 1
543 8
544 8
545 2
546 8
547 9
548 2
549 9
550 7
551 5
552 4
553 9
554 5
555 6
556 7
557 2
558 7
559 4
560 9
561 8
562 8
563 9
564 8
565 5
566 7
567 4
568 3
569 3
570 2
571 5
572 1
573 3
574 3
575 1
576 7
577 9
578 6
579 8
580 1
581 7
582 9
583 7
584 2
585 4
586 5
587 9
588 6
589 7
590 1
591 9
592 6
593 8
594 5
595 9
596 8
597 9
598 2
599 1
600 5
601 3
602 9
603 2
604 5
605 4
606 4
607 7
608 4
609 1
610 2
611 3
612 1
613 4
614 8
615 5
616 7
617 2
618 4
619 4
620 8
621 7
622 9
623 6
624 8
625 4
626 6
627 6
628 6
629 3
630 2
631 4
632 6
633 2
634 2
635 8
636 4
637 3
638 7
639 7
640 3
641 3
642 2
643 4
644 2
645 3
646 4
647 5
648 4
649 8
650 6
651 6
652 8
653 5
654 9
655 7
656 9
657 3
658 9
659 1
660 3
661 6
662 8
663 5
664 6
665 3
666 1
667 3
668 3
669 8
670 3
671 3
672 6
673 9
674 8
675 5
676 7
677 3
678 7
679 1
680 8
681 1
682 1
683 3
684 3
685 6
686 4
687 1
688 6
689 3
690 9
691 3
692 9
693 8
694 2
695 1
696 4
697 8
698 8
699 4
700 5
701 9
702 6
703 6
704 3
705 2
706 5
707 3
708 3
709 5
710 1
711 1
712 7
713 4
714 4
715 6
716 3
717 6
718 7
719 7
720 9
721 9
722 7
723 7
724 8
725 9
726 3
727 1
728 3
729 6
730 1
731 7
732 8
733 9
734 6
735 8
736 8
737 9
738 7
739 9
740 7
741 3
742 4
743 3
744 7
745 6
746 5
747 1
748 5
749 1
750 1
751 6
752 8
753 9
754 3
755 4
756 5
757 3
758 5
759 5
760 9
761 7
762 2
763 8
764 7
765 8
766 1
767 6
768 6
769 8
770 3
771 2
772 1
773 1
774 5
775 9
776 5
777 7
778 4
779 2
780 3
781 4
782 4
783 3
784 2
785 5
786 7
787 6
788 9
789 9
790 6
791 8
792 8
793 9
794 8
795 9
796 3
797 7
798 7
799 8
800 5
801 7
802 3
803 6
804 7
805 4
806 7
807 8
808 9
809 5
810 1
811 6
812 4
813 2
814 3
815 6
816 8
817 5
818 7
819 5
820 6
821 4
822 1
823 6
824 3
825 2
826 5
827 3
828 9
829 5
830 8
831 6
832 7
833 7
834 9
835 8
836 5
837 9
838 2
839 2
840 8
841 4
842 3
843 5
844 7
845 9
846 5
847 3
848 9
849 3
850 3
851 3
852 1
853 2
854 9
855 6
856 4
857 7
858 1
859 3
860 5
861 2
862 5
863 3
864 9
865 9
866 3
867 9
868 6
869 8
870 6
871 4
872 6
873 5
874 4
875 6
876 8
877 5
878 7
879 9
880 4
881 8
882 6
883 7
884 1
885 2
886 1
887 7
888 3
889 2
890 5
891 7
892 8
893 5
894 7
895 7
896 1
897 7
898 3
899 4
900 3
901 4
902 7
903 4
904 7
905 1
906 2
907 3
908 5
909 3
910 6
911 5
912 9
913 5
914 7
915 3
916 9
917 2
918 8
919 6
920 5
921 5
922 8
923 6
924 3
925 2
926 3
927 1
928 3
929 3
930 9
931 4
932 4
933 4
934 4
935 2
936 2
937 4
938 3
939 3
940 6
941 9
942 5
943 7
944 9
945 4
946 4
947 6
948 7
949 6
950 8
951 2
952 6
953 4
954 1
955 1
956 4
957 2
958 2
959 8
960 1
961 7
962 7
963 2
964 6
965 8
966 7
967 4
968 9
969 6
970 4
971 9
972 5
973 3
974 2
975 4
976 8
977 7
978 6
979 8
980 3
981 9
982 9
983 1
984 6
985 2
986 2
987 3
988 4
989 2
990 4
991 9
992 9
993 1
994 1
995 6
996 6
997 7
998 7
999 7
1000 2
1001 2
1002 7
1003 3
1004 5
1005 8
1006 7
1007 8
1008 3
1009 4
1010 5
1011 2
1012 1
1013 3
1014 1
1015 4
1016 7
1017 6
1018 2
1019 9
1020 6
1021 7
1022 2
1023 3
1024 3
1025 4
1026 2
1027 1
1028 3
1029 8
1030 2
1031 3
1032 1
1033 7
1034 1
1035 4
1036 1
1037 4
1038 8
1039 5
1040 5
1041 4
1042 1
1043 4
1044 4
1045 3
1046 6
1047 2
1048 7
1049 1
1050 7
1051 4
1052 5
1053 1
1054 1
1055 8
1056 1
1057 5
1058 8
1059 1
1060 6
1061 5
1062 2
1063 4
1064 6
1065 3
1066 8
1067 1
1068 1
1069 9
1070 9
1071 9
1072 1
1073 6
1074 5
1075 7
1076 1
1077 1
1078 7
1079 8
1080 2
1081 7
1082 6
1083 5
1084 6
1085 7
1086 9
1087 8
1088 1
1089 9
1090 1
1091 7
1092 7
1093 5
1094 1
1095 4
1096 1
1097 4
1098 4
1099 5
1100 9
1101 5
1102 9
1103 4
1104 6
1105 2
1106 3
1107 6
1108 8
1109 3
1110 4
1111 6
1112 9
1113 8
1114 9
1115 3
1116 2
1117 1
1118 3
1119 1
1120 9
1121 2
1122 1
1123 7
1124 4
1125 6
1126 3
1127 7
1128 9
1129 3
1130 7
1131 7
1132 2
1133 4
1134 1
1135 3
1136 3
1137 9
1138 2
1139 6
1140 4
1141 4
1142 1
1143 4
1144 9
1145 8
1146 7
1147 7
1148 7
1149 5
1150 8
1151 5
1152 1
1153 4
1154 4
1155 5
1156 8
1157 6
1158 5
1159 3
1160 2
1161 8
1162 4
1163 3
1164 4
1165 6
1166 4
1167 1
1168 6
1169 8
1170 8
1171 2
1172 6
1173 4
1174 1
1175 7
1176 8
1177 7
1178 8
1179 1
1180 2
1181 3
1182 4
1183 6
1184 2
1185 5
1186 9
1187 4
1188 9
1189 5
1190 8
1191 9
1192 2
1193 8
1194 9
1195 1
1196 5
1197 9
1198 8
1199 3
1200 2
1201 1
1202 9
1203 1
1204 6
1205 4
1206 3
1207 7
1208 6
1209 1
1210 1
1211 6
1212 2
1213 4
1214 4
1215 3
1216 3
1217 1
1218 5
1219 8
1220 7
1221 8
1222 5
1223 8
1224 1
1225 8
1226 4
1227 6
1228 2
1229 4
1230 6
1231 1
1232 3
1233 4
1234 8
1235 8
1236 9
1237 5
1238 7
1239 9
1240 9
1241 9
1242 4
1243 5
1244 6
1245 9
1246 6
1247 3
1248 1
1249 6
1250 8
1251 4
1252 9
1253 4
1254 2
1255 9
1256 9
1257 7
1258 1
1259 4
1260 6
1261 2
1262 2
1263 5
1264 1
1265 7
1266 6
1267 5
1268 4
1269 3
1270 3
1271 9
1272 4
1273 2
1274 8
1275 5
1276 9
1277 2
1278 4
1279 9
1280 7
1281 1
1282 2
1283 8
1284 6
1285 5
1286 5
1287 8
1288 5
1289 4
1290 3
1291 7
1292 8
1293 6
1294 9
1295 2
1296 8
1297 7
1298 6
1299 3
1300 5
1301 3
1302 9
1303 2
1304 7
1305 2
1306 5
1307 2
1308 3
1309 4
1310 9
1311 7
1312 5
1313 2
1314 4
1315 8
1316 9
1317 5
1318 1
1319 9
1320 4
1321 2
1322 1
1323 5
1324 1
1325 5
1326 1
1327 2
1328 7
1329 3
1330 9
1331 5
1332 2
1333 4
1334 5
1335 2
1336 5
1337 1
1338 2
1339 4
1340 4
1341 7
1342 2
1343 5
1344 8
1345 5
1346 5
1347 4
1348 1
1349 4
1350 7
1351 7
1352 4
1353 2
1354 3
1355 5
1356 9
1357 9
1358 4
1359 7
1360 4
1361 3
1362 9
1363 4
1364 7
1365 2
1366 5
1367 9
1368 7
1369 5
1370 1
1371 7
1372 8
1373 3
1374 4
1375 8
1376 5
1377 9
1378 7
1379 5
1380 5
1381 3
1382 9
1383 8
1384 2
1385 6
1386 8
1387 5
1388 6
1389 2
1390 5
1391 8
1392 7
1393 8
1394 1
1395 9
1396 9
1397 7
1398 7
1399 4
1400 3
1401 9
1402 9
1403 1
1404 6
1405 4
1406 7
1407 3
1408 3
1409 8
1410 7
1411 2
1412 2
1413 6
1414 4
1415 5
1416 3
1417 8
1418 8
1419 1
1420 8
1421 7
1422 6
1423 3
1424 6
1425 5
1426 6
1427 9
1428 3
1429 8
1430 4
1431 6
1432 2
1433 5
1434 1
1435 9
1436 4
1437 5
1438 6
1439 1
1440 5
1441 6
1442 3
1443 5
1444 2
1445 7
1446 3
1447 8
1448 6
1449 9
1450 3
1451 5
1452 9
1453 7
1454 8
1455 8
1456 3
1457 4
1458 9
1459 6
1460 9
1461 2
1462 2
1463 9
1464 7
1465 9
1466 4
1467 2
1468 2
1469 9
1470 8
1471 1
1472 4
1473 5
1474 6
1475 5
1476 7
1477 1
1478 4
1479 1
1480 2
1481 2
1482 8
1483 3
1484 2
1485 4
1486 9
1487 4
1488 9
1489 7
1490 6
1491 1
1492 7
1493 3
1494 4
1495 2
1496 4
1497 7
1498 5
1499 1
1500 1
1501 3
1502 9
1503 6
1504 9
1505 7
1506 9
1507 4
1508 1
1509 5
1510 4
1511 8
1512 4
1513 7
1514 6
1515 3
1516 8
1517 1
1518 8
1519 2
1520 2
1521 6
1522 3
1523 3
1524 1
1525 1
1526 1
1527 8
1528 6
1529 9
1530 3
1531 3
1532 8
1533 4
1534 8
1535 7
1536 8
1537 9
1538 7
1539 2
1540 6
1541 2
1542 8
1543 8
1544 6
1545 4
1546 2
1547 8
1548 3
1549 1
1550 9
1551 7
1552 5
1553 8
1554 4
1555 1
1556 9
1557 6
1558 8
1559 1
1560 7
1561 9
1562 3
1563 8
1564 3
1565 5
1566 2
1567 5
1568 6
1569 3
1570 1
1571 9
1572 3
1573 2
1574 3
1575 6
1576 6
1577 1
1578 6
1579 1
1580 1
1581 1
1582 6
1583 2
1584 6
1585 4
1586 6
1587 9
1588 3
1589 9
1590 9
1591 7
1592 3
1593 3
1594 9
1595 5
1596 2
1597 6
1598 4
1599 4
1600 8
1601 2
1602 9
1603 2
1604 2
1605 4
1606 5
1607 9
1608 3
1609 6
1610 8
1611 8
1612 1
1613 5
1614 9
1615 4
1616 9
1617 2
1618 5
1619 5
1620 4
1621 1
1622 5
1623 2
1624 6
1625 5
1626 9
1627 7
1628 7
1629 7
1630 5
1631 4
1632 9
1633 3
1634 8
1635 2
1636 5
1637 2
1638 3
1639 2
1640 9
1641 1
1642 7
1643 3
1644 4
1645 5
1646 1
1647 2
1648 7
1649 3
1650 5
1651 5
1652 3
1653 1
1654 8
1655 7
1656 6
1657 7
1658 8
1659 3
1660 4
1661 8
1662 4
1663 1
1664 5
1665 1
1666 1
1667 4
1668 7
1669 9
1670 4
1671 8
1672 5
1673 1
1674 7
1675 5
1676 5
1677 5
1678 4
1679 8
1680 1
1681 7
1682 8
1683 8
1684 9
1685 1
1686 5
1687 1
1688 2
1689 8
1690 3
1691 8
1692 7
1693 4
1694 9
1695 1
1696 2
1697 6
1698 1
1699 2
1700 6
1701 3
1702 7
1703 2
1704 5
1705 1
1706 7
1707 5
1708 5
1709 7
1710 9
1711 8
1712 3
1713 1
1714 8
1715 8
1716 5
1717 8
1718 5
1719 2
1720 5
1721 8
1722 9
1723 6
1724 6
1725 8
1726 5
1727 2
1728 7
1729 3
1730 8
1731 1
1732 6
1733 5
1734 4
1735 6
1736 8
1737 5
1738 8
1739 5
1740 7
1741 3
1742 4
1743 3
1744 7
1745 4
1746 6
1747 1
1748 5
1749 4
1750 3
1751 2
1752 6
1753 8
1754 4
1755 5
1756 8
1757 9
1758 8
1759 2
1760 2
1761 6
1762 2
1763 8
1764 5
1765 7
1766 7
1767 3
1768 2
1769 3
1770 6
1771 7
1772 8
1773 7
1774 9
1775 6
1776 2
1777 8
1778 4
1779 3
1780 9
1781 2
1782 4
1783 8
1784 6
1785 9
1786 3
1787 1
1788 6
1789 6
1790 3
1791 3
1792 6
1793 2
1794 7
1795 5
1796 3
1797 5
1798 4
1799 5
1800 5
1801 2
1802 3
1803 2
1804 3
1805 3
1806 6
1807 9
1808 5
1809 1
1810 6
1811 8
1812 8
1813 1
1814 9
1815 2
1816 5
1817 3
1818 1
1819 7
1820 7
1821 3
1822 9
1823 3
1824 1
1825 7
1826 7
1827 8
1828 4
1829 8
1830 6
1831 2
1832 6
1833 5
1834 8
1835 7
1836 1
1837 5
1838 7
1839 7
1840 5
1841 5
1842 2
1843 8
1844 6
1845 6
1846 9
1847 7
1848 4
1849 1
1850 9
1851 5
1852 1
1853 4
1854 2
1855 9
1856 4
1857 1
1858 6
1859 5
1860 4
1861 5
1862 9
1863 5
1864 3
1865 2
1866 8
1867 3
1868 8
1869 7
1870 3
1871 7
1872 4
1873 7
1874 9
1875 2
1876 5
1877 3
1878 9
1879 5
1880 5
1881 6
1882 2
1883 4
1884 9
1885 5
1886 6
1887 6
1888 7
1889 8
1890 4
1891 4
1892 1
1893 7
1894 6
1895 8
1896 4
1897 1
1898 4
1899 1
1900 1
1901 6
1902 9
1903 8
1904 4
1905 9
1906 3
1907 5
1908 4
1909 9
1910 3
1911 4
1912 1
1913 2
1914 4
1915 7
1916 3
1917 7
1918 7
1919 5
1920 1
1921 8
1922 9
1923 9
1924 9
1925 9
1926 2
1927 6
1928 6
1929 2
1930 8
1931 6
1932 6
1933 3
1934 6
1935 1
1936 6
1937 5
1938 6
1939 1
1940 7
1941 6
1942 7
1943 9
1944 8
1945 3
1946 5
1947 9
1948 9
1949 2
1950 3
1951 1
1952 5
1953 6
1954 9
1955 8
1956 9
1957 9
1958 9
1959 6
1960 5
1961 9
1962 7
1963 7
1964 3
1965 1
1966 3
1967 3
1968 6
1969 4
1970 6
1971 2
1972 7
1973 8
1974 9
1975 3
1976 6
1977 3
1978 8
1979 9
1980 9
1981 3
1982 9
1983 3
1984 9
1985 3
1986 4
1987 4
1988 6
1989 4
1990 8
1991 5
1992 9
1993 8
1994 7
1995 4
1996 2
1997 3
1998 1
1999 6
2000 5
2001 9
DEPOT_SECTION
1
-1
EOF
