NAME : gen2000_001
COMMENT : uniform customers, demands 1..9, generated by bench/make_tuning_set.py
TYPE : CVRP
DIMENSION : 2001
EDGE_WEIGHT_TYPE : EUC_2D
CAPACITY : 300
NODE_COORD_SECTION
1 0.9489731756584341 0.011720075231636873
2 0.39281647001076747 0.6932190809603995
3 0.13454499790375052 0.8675569957210681
4 0.07244131471621251 0.8030573136386434
5 0.4036529710444722 0.5794969573242096
6 0.0547616879594407 0.9305508313365481
7 0.03187895172639821 0.42836442584946544
8 0.3024124945492763 0.5170253775087212
9 0.8472189689223018 0.6800530018762309
10 0.5520897974157793 0.9573940848633038
11 0.14321984892646022 0.20570220555345653
12 0.2847671083457849 0.8433005971171367
13 0.5124407504941041 0.017616352122927337
14 0.8057818608416096 0.014168422018182358
15 0.1399200574571493 0.08815301998229885
16 0.027233588590682367 0.5593514390271186
17 0.5804329231075859 0.7871366588896861
18 0.11296681869206826 0.13205692894798482
19 0.5792454001814709 0.6963675080788606
20 0.40174482652866017 0.258859111606355
21 0.05875622160724825 0.06373844976335408
22 0.5594899835040057 0.646251239472632
23 0.4468371848157484 0.22388980756543275
24 0.6157297056446246 0.18139861296137338
25 0.29479137489542084 0.49407217958947824
26 0.2871565002816773 0.7649968308590146
27 0.757339309788493 0.9201949340864071
28 0.12618538223429843 0.8216504662265012
29 0.5311633928934251 0.5541975814943693
30 0.9764651627913017 0.7929164827184506
31 0.9690997155482031 0.523910372472448
32 0.9596249110663925 0.9617999940054436
33 0.9269924925924161 0.6580143474195035
34 0.0050005331406604014 0.429947230793013
35 0.7639261770569877 0.8131595000342599
36 0.05593288011158526 0.31758003246854805
37 0.5973055007997345 0.2569713954939947
38 0.7559436172656495 0.25601837899967994
39 0.8056233935873448 0.6186060087983538
40 0.6821250633027458 0.5734537454633883
41 0.29234673737994 0.7596033556950611
42 0.7349057452272212 0.5046181074533469
43 0.4739598740365737 0.6049353768667044
44 0.7549170212543164 0.19647445128487573
45 0.47795994636168093 0.7166029386560139
46 0.9664472884690599 0.7213917599630427
47 0.914647344672897 0.4445690585376101
48 0.7542614474596918 0.5176308579226547
49 0.46331778815190106 0.12848299522129858
50 0.8684160121203187 0.28459836201860655
51 0.9997561157325947 0.6756177117342572
52 0.30859486556916504 0.9786531650241984
53 0.39114107337344317 0.753955503670568
54 0.15425248176823547 0.7603350037519774
55 0.07706393539681233 0.7659195722576605
56 0.9208350491873237 0.6605137703233994
57 0.1746567854025678 0.8569120490278178
58 0.40313460335018425 0.8480864644131988
59 0.48026557375763534 0.7268792434698607
60 0.22754656966350806 0.21798864599466794
61 0.8064408636745248 0.5031987479705785
62 0.7220399326708112 0.8765656302714445
63 0.9034524669388461 0.03318029806178935
64 0.14830994247754536 0.00374964890170959
65 0.5058670890921194 0.8828611288484345
66 0.11765092197994043 0.1051198585686236
67 0.219523544966981 0.24523448283468563
68 0.9129952065572318 0.6524434415602831
69 0.5731420384329478 0.7514055214111883
70 0.9150186480557758 0.5597295797738547
71 0.7311279613367444 0.987236104744658
72 0.26728892692652395 0.2601801753368821
73 0.0724809545276266 0.714928012357451
74 0.3104776517814076 0.7706620893430782
75 0.5055971025618411 0.12076374530532918
76 0.10465658424805913 0.13415418534873846
77 0.8898860810470349 0.4722009910593389
78 0.6753847758716486 0.8452174851436637
79 0.5236063787232779 0.4073913097852331
80 0.8584952809097668 0.16088229487630235
81 0.7695714860603787 0.05319337795028001
82 0.40843340374862425 0.8360109459543198
83 0.8890347444582811 0.38899524356820936
84 0.655670161534979 0.8104443447915277
85 0.8288857570569035 0.09105933259995791
86 0.6803231089775412 0.4003192431605299
87 0.11492816555517482 0.33927782941075013
88 0.294916956293098 0.7247322964742724
89 0.24386347765951666 0.6054748518364315
90 0.8104773884640266 0.6477260478923267
91 0.4237432689731768 0.03884415130743002
92 0.11045423661029596 0.612286834437983
93 0.925526472193158 0.4653678991742787
94 0.7473473771276458 0.1363728353570035
95 0.5799775392309969 0.6088923223292194
96 0.37663645184552863 0.025501894452180984
97 0.3027114128261754 0.9042840540111379
98 0.8198042957396424 0.8021872339653141
99 0.0963456984950698 0.5384338434583782
100 0.4076171578890988 0.6343901972802691
101 0.6456544012006937 0.20249865007914636
102 0.46608332430782473 0.8376350683549543
103 0.5318142243694021 0.569349432101201
104 0.5493460027839969 0.13721934748502063
105 0.37712257080687817 0.7669818039431967
106 0.19793476219259099 0.9950819953533929
107 0.39779790433007667 0.9526864350447867
108 0.5735466673049329 0.3823798489227439
109 0.4304741737485527 0.5153923935172625
110 0.26021271133612567 0.40838287719835464
111 0.5245068696759213 0.015960508054486344
112 0.958970610724173 0.47225162077465144
113 0.24441999161189487 0.9729735005878253
114 0.16483196194769034 0.8809781651211088
115 0.9506155112390717 0.6711767963756133
116 0.08293819653548107 0.4741889872422306
117 0.9589048678962488 0.09311723047702469
118 0.7709741685049398 0.6108799818571915
119 0.4122022632896406 0.6115048882067791
120 0.46798992047065247 0.6851694471603276
121 0.2413043134878361 0.3029483263782873
122 0.4241884407999299 0.6592358605004135
123 0.6201532910958036 0.7673488874405804
124 0.3962699049143922 0.7742977676053755
125 0.6016587831136372 0.8171642866338882
126 0.1320451617670393 0.2708682338908154
127 0.6818769954226462 0.03128505604913501
128 0.23685830556732257 0.05724326735179064
129 0.9555262181021247 0.23297040394479396
130 0.3798993190740636 0.43582267146571496
131 0.9549904333473241 0.092334334828302
132 0.8950639477131812 0.8629356798841586
133 0.08479863023184331 0.2665012556989492
134 0.4642829367757222 0.4015988053328725
135 0.784526747927078 0.09524575491082832
136 0.20031839075923386 0.9293787828294958
137 0.014827096095261227 0.479546324402225
138 0.07821410671127038 0.4011416232835494
139 0.037565168247469694 0.6461198805435212
140 0.7278513194287697 0.7273511711908257
141 0.5965501606363177 0.4310658392800538
142 0.2868484563611542 0.004439942686314091
143 0.8257149799793881 0.21028349912223043
144 0.6529741215507575 0.7721003827282181
145 0.19130206514416404 0.3549902440108055
146 0.10441925263444285 0.21063785899971388
147 0.8247989011234783 0.36262720470399035
148 0.40881054799098027 0.016097505127684153
149 0.613215199704882 0.959533794593036
150 0.6231959454530952 0.7838840766533258
151 0.5656011905263076 0.7166143644962131
152 0.2877412435107968 0.8788969767616579
153 0.0907631210044686 0.033182500947952054
154 0.2298263582195147 0.20049910509340607
155 0.48655718276450544 0.20299869712958618
156 0.9048104463509995 0.8474759212057641
157 0.8547076406009882 0.531467502002657
158 0.21450260010651978 0.36770250282067063
159 0.4727589193462295 0.5651399082537566
160 0.4470767059388986 0.04986393826034852
161 0.8881175953692891 0.34923123232909514
162 0.9117516583652508 0.3498232183887985
163 0.7891587015562065 0.8462914792420916
164 0.48592644166178045 0.2859274118382331
165 0.1750292322179534 0.5614685910351753
166 0.36668839860872904 0.24579133243587037
167 0.05465822717269231 0.6008983130230497
168 0.13940965169690933 0.5127335868076988
169 0.7752903228576573 0.3323866166797457
170 0.9882859218914366 0.9496451720655231
171 0.3176610317754086 0.6132763792849428
172 0.24269373660337834 0.9647675878841973
173 0.09565043672655005 0.7780819584145918
174 0.661667445171473 0.16377441132309
175 0.8710251701478857 0.7362126552506777
176 0.9634952452643909 0.2707747441026541
177 0.5772165240445163 0.34324455189998304
178 0.17645009789301946 0.6932420567688815
179 0.7144247168208694 0.9114409159343911
180 0.5853944636942299 0.9724647702974328
181 0.8965385149922079 0.8790508347374301
182 0.697560777798813 0.2891945390821976
183 0.7643372462248501 0.908485505909263
184 0.09453740931971633 0.022931132946463095
185 0.798229908456404 0.8398813129259937
186 0.07326994660658426 0.5845835068252753
187 0.3030888639669057 0.20320504439035247
188 0.8067598153335945 0.5525265957787093
189 0.8495368552091681 0.33827426580849207
190 0.2706759809569974 0.396646052040878
191 0.9988674043632936 0.31595322903855716
192 0.6875431153255823 0.410899079137125
193 0.2969515249457686 0.9914831913608914
194 0.8490571687334074 0.41080778631011483
195 0.0014592087844020885 0.6236063223217284
196 0.7952584970109668 0.2570754286346719
197 0.06652295492640214 0.22530172299659246
198 0.29856588211427804 0.8734833138317081
199 0.31831714320175075 0.8980520912691093
200 0.8368516870314008 0.3196028255982847
201 0.7624769346179698 0.6040383901833577
202 0.5101677410800378 0.10060114313754398
203 0.4874350660204192 0.3606676236325229
204 0.014028097665045203 0.1787647361477943
205 0.7504886656611439 0.9520263999971174
206 0.5132299129470548 0.47708726164331605
207 0.9506597609512787 0.471380647750571
208 0.3273391043745225 0.7455466684778986
209 0.2618561181581155 0.5954229685941241
210 0.76663020563889 0.10925701953801592
211 0.330168537907947 0.07455988813081915
212 0.23035753163024364 0.03432501486270678
213 0.9156368653438082 0.003243337579890815
214 0.9483657663279595 0.3876803993781449
215 0.6842818590305825 0.6913676078376074
216 0.40933078505449594 0.035649828483387935
217 0.5875307615558556 0.03770756818579435
218 0.7437101403196241 0.1266034123910199
219 0.34917078945977886 0.895439469140719
220 0.05691757178900525 0.4094787611724984
221 0.07510801735795292 0.7413099830356259
222 0.42840850562646127 0.089349475609934
223 0.40201183304544386 0.6740390612878574
224 0.7769866529125106 0.4603108657422099
225 0.9295867641299103 0.8763196800845243
226 0.6882493016332554 0.4781268839676963
227 0.14688404631348628 0.5797277567085989
228 0.5337268662248391 0.29400002288585725
229 0.6433985501330978 0.4789456585035099
230 0.06321842548367174 0.8449858276501488
231 0.48199079122915733 0.48912368780173754
232 0.4318278576051815 0.2360041103965418
233 0.9310274659575998 0.7842836644820359
234 0.7873375593633081 0.09325026695014837
235 0.9404094791558394 0.3046797992933087
236 0.8680033122703564 0.557488009364356
237 0.7128120756101163 0.07747116637793883
238 0.0021311105315283685 0.7389910685593238
239 0.6019726820483101 0.9906302973094734
240 0.6016383210573465 0.9709455774601037
241 0.7818074071780741 0.38812945700762036
242 0.17888783123713614 0.8473886925533882
243 0.6670216885376116 0.13740826271456508
244 0.9083906521482907 0.8679540510191782
245 0.0894512138115644 0.0403763420660016
246 0.11065899821291225 0.9577159297147212
247 0.12706356233808724 0.40111376061687176
248 0.8967127847943891 0.22884618715198846
249 0.11553712323911158 0.7475641341065402
250 0.42324290699282874 0.9488648783194139
251 0.9661959510801159 0.18988359038124158
252 0.6951318712095195 0.9387273577883263
253 0.1001580289960351 0.8785904762059126
254 0.6885975007543322 0.5012861808544311
255 0.8071398095711888 0.3824195556357207
256 0.11728057740652453 0.4852203911218681
257 0.5547307107902646 0.03661740747990905
258 0.08024805569698346 0.2415632103619373
259 0.3568753569706311 0.017039364583945282
260 0.705972145306513 0.7690155556881584
261 0.21952582421846778 0.7524423420623435
262 0.33800038454314785 0.2682341074578518
263 0.8328635265991168 0.01545784438902087
264 0.7303641204277265 0.40789435494442994
265 0.801332258801695 0.08295210877622594
266 0.22016777296201362 0.4482341801524474
267 0.3139454580233638 0.03360240601165698
268 0.5725757486985258 0.8287698749480386
269 0.44820849062407864 0.9876056455602222
270 0.12059828890175339 0.019142396098542402
271 0.03450510386526173 0.34804675872106083
272 0.56144316160977 0.6894676324753726
273 0.35760795775706744 0.1018929126469933
274 0.23846044247267206 0.7964342800139554
275 0.058602600806061944 0.331784419334612
276 0.2504645301889301 0.6851296999632482
277 0.3963341825776452 0.05515946303217145
278 0.17514763771168285 0.0031397934613678347
279 0.6578228709410066 0.5918824613216767
280 0.9673744403268728 0.027043638279112714
281 0.3854191776173037 0.6886386798034048
282 0.8649047597388402 0.8183365229537176
283 0.5320350703015992 0.9385804883514154
284 0.5143669269381229 0.21007716920805852
285 0.2576788918641021 0.46808966335113733
286 0.4058275379664986 0.9433818019257367
287 0.8443618848001696 0.3915863140577519
288 0.6600007943802902 0.9369091054937774
289 0.6554364882134424 0.8284457986881233
290 0.8494148256596578 0.8694157198852249
291 0.23716081600159922 0.6560416786628962
292 0.8027263303371793 0.7291205792146586
293 0.1717999105700243 0.39545852457999076
294 0.06664615014299036 0.9853105974985694
295 0.5257625411094908 0.07534314285628041
296 0.9458964446959437 0.6070157820411317
297 0.45541595906094445 0.17982230518294928
298 0.9857628066089767 0.7615098798785235
299 0.96505830712537 0.7604160590291779
300 0.35182119605214934 0.6999987779271902
301 0.4752727388537522 0.008910998695238148
302 0.6846050135244519 0.2800169796367834
303 0.8917938539090328 0.3022536494755703
304 0.9627590238025208 0.1335323452404602
305 0.27860084835680743 0.26870930699964046
306 0.01693765796825608 0.11361100271006475
307 0.6193919828552273 0.631094360453686
308 0.560639714166108 0.26691753432969123
309 0.7579399887723411 0.5466477337295181
310 0.7735870441498106 0.701338054433285
311 0.02992013846832997 0.13440314837913114
312 0.526846883896604 0.48597739675087726
313 0.07741788444351871 0.07606142474194677
314 0.7975856103958915 0.625644998145114
315 0.47348599046708884 0.5838735202955395
316 0.5798647102150547 0.19113675462100477
317 0.6417838907875497 0.34860574341436723
318 0.8905200682983656 0.9314829604289685
319 0.6628477941724358 0.5919357542072292
320 0.06399567429336717 0.5981046382290792
321 0.8988399614605164 0.43125590543370296
322 0.10772476763627692 0.10786727020369491
323 0.45509100502818245 0.9351717431957993
324 0.8168374753214612 0.1014054906699079
325 0.44424662224433265 0.6670365548780152
326 0.24539521743924042 0.9386019564589584
327 0.9230213077944422 0.7478800297741629
328 0.8812794464723687 0.3349932840821226
329 0.6272035075042347 0.7458937982431807
330 0.049197861486276806 0.31700822659183925
331 0.8266810494295704 0.012684047774106366
332 0.8623180627473833 0.23005935502009867
333 0.9630867501339715 0.6792302563586968
334 0.8685118012151518 0.3368928639568477
335 0.8890266312038984 0.896791056254862
336 0.9391032467660266 0.3434728213295858
337 0.07561680288301076 0.9644253403111656
338 0.9664256972355064 0.28484851666714117
339 0.4552821170153053 0.06898560583245805
340 0.5911677161967327 0.10016638881406059
341 0.95287176217061 0.5111032127080379
342 0.48498593678716073 0.1030521049417722
343 0.21941435906629914 0.38307631846593904
344 0.06332956941440948 0.7642975493733697
345 0.7089596104146514 0.23452998326169583
346 0.8055231728749572 0.8579152372150625
347 0.042594591352708155 0.2254716098178332
348 0.14644574056522663 0.9536217772786311
349 0.023807728357126412 0.73591767780139
350 0.5057745157016496 0.5800311726887069
351 0.03805635656374995 0.9271067959251189
352 0.11257002920750447 0.4332832365201643
353 0.2665802580017973 0.08609365736315899
354 0.9521376940955711 0.23625904002218612
355 0.040869959998276806 0.7251164443765856
356 0.6939986246076324 0.0887349921336964
357 0.6814779850686602 0.44007120762753293
358 0.8938203416339491 0.4015316364252266
359 0.47029826372716876 0.7203920778580993
360 0.4602568886302807 0.6695185805120113
361 0.13439382592858218 0.24940459332719767
362 0.80293352371902 0.9974357187589014
363 0.24810525192961985 0.3397767216005039
364 0.8173630340498281 0.777226629677463
365 0.3984254380668516 0.4033262036194655
366 0.8800863816135858 0.2705777860447277
367 0.7809203537668816 0.9577698191389152
368 0.2136262375722866 0.11492102334982812
369 0.30744304587687854 0.7646026413685217
370 0.38312247698158897 0.8450875083366614
371 0.6515442124493379 0.5881282919128832
372 0.7260784985488131 0.5422858062123805
373 0.4558286715084492 0.34631632257689504
374 0.9272390158155908 0.7857982193175503
375 0.05982452897069468 0.19405874187056926
376 0.7375880399176973 0.33224236911805927
377 0.5393521925801065 0.5717182952276927
378 0.6405090071336418 0.40938250584138824
379 0.010450448255406308 0.07931627618161874
380 0.7331062299345773 0.4870376258551352
381 0.14088198716275702 0.8813488041867517
382 0.728899063605067 0.1598343189984761
383 0.24416463334480787 0.2604085711384748
384 0.3432543571109945 0.8186681861209083
385 0.14359674327077376 0.2363923510672329
386 0.30195898692036416 0.28002145606900997
387 0.8300999485192578 0.49820710934009904
388 0.0696768887399638 0.6814621927881498
389 0.2299846521434189 0.30743888590189583
390 0.30314959379060524 0.37024144879635357
391 0.6244401866362475 0.918925723934902
392 0.3501120401736709 0.5862387946058119
393 0.2861674166819882 0.9333014929468393
394 0.2008814158871307 0.16688224123198692
395 0.712549093262964 0.023999368720263092
396 0.29638578434566676 0.6119537059425914
397 0.3972701060171495 0.36096050486277176
398 0.1975798185808998 0.05926687353686255
399 0.613286535917148 0.6450523316211578
400 0.34506995300436594 0.30051913090846716
401 0.8451533753854745 0.3004183719450918
402 0.5007275605911311 0.7104952134942704
403 0.7377784229687341 0.354384198360868
404 0.3787968731497281 0.08997537898660823
405 0.7692542702710643 0.829683786562345
406 0.09845546109544612 0.10935179873659495
407 0.29133911889746067 0.3450070877447704
408 0.9460604770717774 0.5443296673715705
409 0.1119964516061519 0.7385379106399808
410 0.2315711388689372 0.3731050252330377
411 0.991609769421112 0.4299835401169123
412 0.20488697670508615 0.18699571434917017
413 0.08016337369254845 0.015391082109968757
414 0.6421169964401408 0.4303954876697177
415 0.722544064918111 0.7263604612154181
416 0.9037388613111671 0.8490896822971747
417 0.7067229597824876 0.471922511049247
418 0.23775799139757303 0.20458983683426513
419 0.8262589805604804 0.5998341700485783
420 0.28240434398311054 0.694356343200175
421 0.1364300882094973 0.007951448218105006
422 0.6242351321804214 0.014981561454042502
423 0.8299044093653606 0.796590890180673
424 0.6969154097460575 0.5088689523580686
425 0.8729393793099655 0.8803213137584294
426 0.09575337242747461 0.10903452658473167
427 0.14278037079209627 0.3448550229232623
428 0.8666525057663089 0.9965860052338816
429 0.11366876703240059 0.1632388608938553
430 0.3176364176156391 0.0643497240910802
431 0.3828134115693894 0.09468510522693818
432 0.09423023760028792 0.1856599607433157
433 0.5370551313716959 0.7573603501454214
434 0.977437027726061 0.1601940554799962
435 0.6535167049494578 0.7654395677980244
436 0.9286669063292786 0.5954663909609197
437 0.11251917607878725 0.08479073702852291
438 0.8975265411099532 0.9413813096846452
439 0.21011218157182565 0.717591624573025
440 0.4652019275520134 0.24258579856456908
441 0.1744293416028878 0.5983184852377642
442 0.559608428715086 0.6930923059404899
443 0.8084092318889641 0.021987946582218032
444 0.48514125158405796 0.019953311295641263
445 0.94395328899832 0.12453361195896762
446 0.11979696235357429 0.21876254646202475
447 0.9148191228275476 0.39745861155480877
448 0.9367708573047745 0.3244350777928817
449 0.661098545900902 0.7299900997247658
450 0.4203013270536503 0.25747369843458245
451 0.09483084407423881 0.6733849761019365
452 0.40070929046144 0.45323956382221364
453 0.9083463491630364 0.4956540806703902
454 0.5982189248869068 0.7587694816361357
455 0.386840808925906 0.12665437698726412
456 0.6018071417928124 0.6407971217536647
457 0.36209551952268426 0.4349930605434015
458 0.9763090224311606 0.994757826159145
459 0.6318600783735766 0.056772334233470834
460 0.14489206340098193 0.08373192130038665
461 0.8572318565339863 0.4190977349448868
462 0.15229594632833732 0.5761203166280087
463 0.95516200011246 0.14471888319854698
464 0.2419968536870074 0.2625937859967973
465 0.7052849273922566 0.7922040815652694
466 0.5180219475225102 0.17816874821880258
467 0.7465115038903158 0.15607815574768547
468 0.40437600301164556 0.7717705040497731
469 0.6854676691364202 0.20437321126678765
470 0.6797584593808081 0.46007397776228764
471 0.3923915034925797 0.9835960633777917
472 0.8891626618480819 0.8642635243416292
473 0.9022637832483875 0.23352805540065402
474 0.07158754808148893 0.9864011072747408
475 0.4228784978490624 0.24505828027148635
476 0.29994809165314673 0.7238279315360195
477 0.04695613455795489 0.9604994721664342
478 0.3960629903456926 0.7041584682380124
479 0.16780432594459904 0.8098437143811005
480 0.7184167346495968 0.1540313944700782
481 0.72091068024894 0.47012504784102027
482 0.7084677642259997 0.9793925731792847
483 0.28593209887632254 0.456024084665528
484 0.8677461048299543 0.25145478636944685
485 0.01364510834509658 0.1572402223865823
486 0.9665403926192648 0.9446391909829379
487 0.32029036154893953 0.12514497982009742
488 0.06496394555947049 0.9156322351808907
489 0.7360903157130889 0.5630517536253883
490 0.5964307624020292 0.7418450235788749
491 0.11201909327304749 0.8142753234753753
492 0.870463049652385 0.8734367924306898
493 0.7466273882511708 0.22067489774234605
494 0.03611803135475178 0.16317893659451266
495 0.4432408441763195 0.738359442248843
496 0.1257015390719457 0.444401283467871
497 0.510223897320005 0.2239379420131441
498 0.2882272278569773 0.16108849151097282
499 0.351397405980015 0.04745343688969661
500 0.05776040088682621 0.6838067555651831
501 0.5734679689318973 0.7628462788406285
502 0.40196752995251694 0.6588451427486011
503 0.5282455846658978 0.34061314533412457
504 0.08667647758362063 0.48884904907304494
505 0.9470214908949058 0.6406368340585892
506 0.4319915436699505 0.9392812276185323
507 0.2728850261652779 0.06642763078373093
508 0.6443430583001855 0.9071340732649252
509 0.20944823884704722 0.7148688438289498
510 0.03441222112405684 0.10978177066896533
511 0.2243929753303504 0.8760236560839275
512 0.6207677216215614 0.19957559957245552
513 0.18216275884933963 0.799088602592317
514 0.28036797034159855 0.9580716960900961
515 0.4050571918529152 0.5192965378807494
516 0.27452262305586106 0.23192439902877005
517 0.8626405452024853 0.5258450056694589
518 0.0068336287652576155 0.8336755040371207
519 0.6420666184719406 0.20204020565001268
520 0.503824848426977 0.28922940273508246
521 0.851462127004359 0.6743289626986225
522 0.18375885774021816 0.6774213543371372
523 0.9599484600224013 0.4220966283445272
524 0.635043175622465 0.1934943258854187
525 0.27170248691837506 0.45386112815451374
526 0.38252210684261234 0.24167017331087504
527 0.2303534450753747 0.29545191451262465
528 0.21772279592071264 0.6960963127002533
529 0.282476791168231 0.9633528991916135
530 0.2988757973640932 0.8166152634898806
531 0.20210827936981346 0.2818719761329467
532 0.811537377111079 0.7344286143460301
533 0.42662417474874825 0.8216518273738017
534 0.9724952401444094 0.38889259536745313
535 0.4133894578038314 0.2276432541713157
536 0.3878638276724551 0.431045741505769
537 0.4552402201314387 0.5531185350120845
538 0.7900566069766216 0.48269297845837333
539 0.4950815966252031 0.04544599057802756
540 0.42855359694752704 0.5975300470593348
541 0.8182322263359082 0.6991942415617916
542 0.7616847081435305 0.6617066767467255
543 0.5122277157176826 0.3530363094445993
544 0.45591266568829303 0.7669269929013016
545 0.2938508211474181 0.9682887008487613
546 0.8579742157013858 0.15703307257942545
547 0.05079703477675823 0.927114733118457
548 0.5806562881644597 0.6667059748669376
549 0.23460802825118532 0.23467562767454542
550 0.8720700651633198 0.8654492652435475
551 0.4088427243151389 0.6232888971937482
552 0.5628674579080761 0.15424308160919908
553 0.8998245039485419 0.08753088882654558
554 0.724983932150904 0.5945969732119456
555 0.013526739260917409 0.14790757429487988
556 0.21844637886047968 0.2973830997715702
557 0.8153237381600896 0.8795560653128034
558 0.11814881973598002 0.5099725650815133
559 0.820161970633871 0.706938645617796
560 0.7103917073170628 0.4231652982042935
561 0.43067692777172495 0.3439253501109424
562 0.9866080226307211 0.47844380274291665
563 0.06684489310285158 0.6769605243051828
564 0.7293588875173613 0.17022422425944472
565 0.05954605200139429 0.6742506139015715
566 0.11648313044821046 0.4036253771334972
567 0.5202826418523706 0.2884199673484805
568 0.09178780815387044 0.8670477399198515
569 0.3303717179161697 0.5503965336265446
570 0.4652794990720903 0.3199058977245004
571 0.8411326959928118 0.023487520442987853
572 0.38874558718060437 0.11287964609598533
573 0.1778705743895751 0.5001457220873827
574 0.10150788832472413 0.9256709581898234
575 0.22479855426614515 0.4146277767918992
576 0.6933534021396545 0.472311468393794
577 0.8207450336537304 0.36406807296772337
578 0.9501871094925021 0.5085184531629189
579 0.7257434337739413 0.053837643153826664
580 0.08563962727753582 0.3877460477070931
581 0.07155126273192058 0.2895959631897529
582 0.8042397744692444 0.8758216386948743
583 0.1869741031343234 0.7554976197661707
584 0.10220823493107212 0.85526128569978
585 0.31297561612528224 0.392889307182123
586 0.16769681281921078 0.8880366887884875
587 0.09923927974139812 0.636963389231409
588 0.19296488672672907 0.34152386793419975
589 0.6519584132574603 0.8437159546371398
590 0.6676228257583704 0.4009259254946813
591 0.6515804113893667 0.7888104953440566
592 0.4966580420031683 0.7917154883598931
593 0.08990377387390835 0.5190729608005118
594 0.6139418764480944 0.2445325954114962
595 0.09268675721781994 0.6809567837541466
596 0.8832191679136826 0.018434581406117312
597 0.19567838484747713 0.8749281078523045
598 0.8733629633162588 0.199222660815211
599 0.4812913298557353 0.7809583789282476
600 0.17396055260840582 0.9068609964612129
601 0.0979736264021277 0.6089403342100677
602 0.14559508402242027 0.6014469146669322
603 0.47612069175755034 0.9567140717579942
604 0.662125143297393 0.6657602407784937
605 0.8734601717172416 0.8353574011886893
606 0.8565573743743348 0.8394919278603807
607 0.8531515886579852 0.20441257804343405
608 0.8318577560813195 0.9433227080342181
609 0.8935860335310283 0.5927452548985621
610 0.9554676400655392 0.8762416183125229
611 0.6590288544123397 0.5294185181370993
612 0.14209051949430163 0.24743888419221882
613 0.5541666069947309 0.23659415682163776
614 0.4760234349596326 0.5909410838512033
615 0.08250721251220361 0.6668454342150695
616 0.5646293542076309 0.5254704040720714
617 0.6998538370458556 0.9753600873077342
618 0.526546324088534 0.09587897626043584
619 0.24139157096070285 0.9488387941064551
620 0.8664375767309307 0.6748002836273775
621 0.15882425377141207 0.433827242461162
622 0.6161681733436851 0.09775415736433046
623 0.25192447094270753 0.920245691310979
624 0.5687193906425625 0.6573384757624662
625 0.8824066867734602 0.2283544785905155
626 0.552005708280067 0.01025910555205134
627 0.4825194887026907 0.9280324100487758
628 0.9993726459162449 0.2117520122186589
629 0.49901553103877117 0.07212145000274639
630 0.6702001960039506 0.3124102724589981
631 0.7175297114056483 0.025321164293595877
632 0.265994531236615 0.3933823712911394
633 0.1266010857487868 0.758162217410866
634 0.7306976222026306 0.39823304271748927
635 0.26994574893244117 0.3662156962063392
636 0.1268439041322853 0.5750604446941731
637 0.984638472743938 0.86381807251166
638 0.7535546026668223 0.2099970039545047
639 0.7247556475519074 0.47863638739286096
640 0.4028589556889649 0.48419479015446565
641 0.28443389269292396 0.33305583788212734
642 0.4817692028177055 0.05519547863474539
643 0.22647156268193913 0.7018689060999002
644 0.1032885486306393 0.9166335781249767
645 0.028604844838980847 0.6255390301473275
646 0.8912916916689936 0.4601672745506161
647 0.8919589904378119 0.7274028445297048
648 0.9123036009076594 0.3339616453936126
649 0.5618600731062373 0.44022047289851607
650 0.319756953802242 0.3644099750161103
651 0.9446802129782288 0.09069963488959354
652 0.0440441861822104 0.3914469799036445
653 0.2701714147618287 0.4470411241416199
654 0.6393918653325067 0.3779922837346128
655 0.03224533321159262 0.9413427312554482
656 0.5040557399113832 0.1218607519818734
657 0.09570880878483679 0.7460147838323151
658 0.10985141164091916 0.15896432780494096
659 0.48082150773067045 0.894550619412125
660 0.02704633590165828 0.46062388289337974
661 0.2644445114186301 0.869486356517579
662 0.9166870926743363 0.6321526180571114
663 0.8835377897228804 0.028822946535787874
664 0.5584136945570067 0.19993852755894226
665 0.18874943761960417 0.39108968676825007
666 0.9256438392219231 0.7712152095771778
667 0.66948057468058 0.5260554858087102
668 0.2931615002090229 0.25209208923452964
669 0.643409166788994 0.4838405000047644
670 0.09841009140205736 0.025472659225022176
671 0.811805677147449 0.7494728578245913
672 0.402239333959278 0.9825567194036847
673 0.5035883333076853 0.47698115052902335
674 0.6302789398607265 0.845262984638518
675 0.9591050794680718 0.3642821572880587
676 0.2955264395672216 0.9270596924454921
677 0.32272362100719365 0.5614238603805177
678 0.6640240793174486 0.49048906680133053
679 0.31526739437246776 0.46129713538937345
680 0.3748293126823381 0.20626154040175437
681 0.41173266860309365 0.01040412700418114
682 0.7173940716765239 0.5025583711304883
683 0.5276509245634654 0.10785977667869129
684 0.578770689291738 0.19672184336712162
685 0.11012026510289707 0.523951554044505
686 0.8364555241064461 0.9504474294761157
687 0.8381035711851904 0.058009671222420844
688 0.13513219713533609 0.5099719741634264
689 0.5257722021339433 0.46032286709355075
690 0.8265615027899991 0.06183798341506219
691 0.4298659030465781 0.03293704051082191
692 0.9992587669748316 0.490137122717447
693 0.160855811789282 0.5056706465076662
694 0.1633283124811632 0.9396230532450682
695 0.19519049895447393 0.8321397097209673
696 0.22042804079596567 0.5100008819199198
697 0.8716136791905645 0.3463600023034612
698 0.017241476455128968 0.27720682927103524
699 0.43167819987185974 0.1047343194019652
700 0.27473604382846806 0.7301680017510367
701 0.42051645965550455 0.3214077068768669
702 0.024942087552880854 0.519406991986222
703 0.9554099342012656 0.6142196120077177
704 0.21894531945002305 0.5906284404041716
705 0.1001608431896327 0.2569741023575972
706 0.026104915661567696 0.05428394803668957
707 0.6873674060778706 0.001912828681596479
708 0.737276045589243 0.34744396927580057
709 0.327161976458188 0.6531924612063207
710 0.3925866770426577 0.907130636990012
711 0.13031977170707254 0.8055316991737586
712 0.2568419392932557 0.6751763778019797
713 0.8171613523301025 0.7646449162065512
714 0.9612696310730775 0.26424975900401804
715 0.35719257028397056 0.2195226879923753
716 0.8405780899463817 0.9218818015768548
717 0.22175469312927687 0.5312151263716434
718 0.456551870420024 0.45042756872211376
719 0.2709757539491524 0.16935208760173492
720 0.5552515080637833 0.42509870824941354
721 0.798137748156954 0.4324250099067254
722 0.5216494474944866 0.9154680634386712
723 0.28453458420431366 0.46379826922211054
724 0.5789833934029138 0.387119336755942
725 0.20688356305264266 0.6990847253311566
726 0.33736726330004896 0.09136056201112364
727 0.7953540641109577 0.28557935362084097
728 0.004744823991693736 0.24460266377329531
729 0.5868361625962728 0.08534938157480543
730 0.8519943991538603 0.18435067342743072
731 0.17953366861016606 0.9607950701128924
732 0.718920189325458 0.1556397483357581
733 0.4694244124590965 0.38612079069187444
734 0.6094546098898856 0.49210957869704475
735 0.45826356375031685 0.8124552567817028
736 0.7671389966754185 0.6046934427175967
737 0.5892201886511693 0.6065593924975786
738 0.3740718074337259 0.9060998092347196
739 0.6868741052889141 0.6765797173517762
740 0.7714661193696914 0.5039501074750332
741 0.312883295228888 0.442500396355739
742 0.9900276612749072 0.693108199171827
743 0.6556422927892618 0.9265431223253907
744 0.17518542995907893 0.9694873802383877
745 0.6268493982197142 0.7687016241316765
746 0.1683599691131319 0.8255045948229869
747 0.537699829740464 0.5399225706889429
748 0.8600333614281125 0.5240925853584346
749 0.2696521708028532 0.6484669268081296
750 0.06711720156064171 0.19655141812126142
751 0.8635753336359313 0.17456706157380153
752 0.12524774716931442 0.8009002387676034
753 0.042063057487266575 0.2255727543597731
754 0.6579044370775333 0.3460736974150881
755 0.1353581144649474 0.15810060105666013
756 0.9582068942896468 0.2992884917732187
757 0.41602310933040243 0.3029534283083687
758 0.13317869667974347 0.37604334880734114
759 0.29328930853781165 0.687657326158034
760 0.49742175279034406 0.43066520007603315
761 0.014663658186580109 0.8451332805154845
762 0.34044687038114896 0.19413157328491204
763 0.5453944350947976 0.7140244207808226
764 0.07691962052509549 0.2090509406960087
765 0.051226608529780004 0.10887299203133272
766 0.4543474399138768 0.6526787941408554
767 0.1371793600565716 0.8785021655668404
768 0.5605975724536465 0.1264215906981161
769 0.28290819780500653 0.8182998481124956
770 0.04354826585441729 0.5621791763069366
771 0.6606092779262386 0.25631194588148054
772 0.3890474326760428 0.6812365637404751
773 0.21588430295916272 0.9208095573534002
774 0.24722451450381255 0.05080618235391088
775 0.5124542402307999 0.9602350740417446
776 0.0046821725757343335 0.29557058736966735
777 0.12123038440835054 0.6991904544342129
778 0.68056019312602 0.181840399811508
779 0.7876276639553763 0.7164830939820847
780 0.12132577168968106 0.9991561513987424
781 0.8289348983361255 0.9828042118317915
782 0.18882167378918835 0.6904477064333041
783 0.33764083954846147 0.2120942747323794
784 0.2960000018078076 0.48709823785814677
785 0.6016446122282078 0.6025243393740009
786 0.7788621895345298 0.7045392541647931
787 0.9095141707620357 0.5336525910512192
788 0.9152905573425297 0.6100980370945632
789 0.6561692764353612 0.5104060409217567
790 0.07700348597664552 0.18304852418074025
791 0.8543657370587836 0.48435313247507483
792 0.5472112923039402 0.7799783348690402
793 0.6368513013854048 0.17034676064238496
794 0.5745186082124023 0.7729250505986694
795 0.4421689392825461 0.27748597625447435
796 0.04371267905652387 0.9688826227540734
797 0.7579829126403111 0.49726612651911284
798 0.5462407878890527 0.2771149452489501
799 0.13829333479032202 0.6624001890792587
800 0.244627279150597 0.21188935068543047
801 0.8843707614300933 0.4975530432215919
802 0.915646516916916 0.029526993518127043
803 0.591307620988973 0.24137517404113584
804 0.7963973345157084 0.598967208411826
805 0.07902458818115154 0.8947303728589543
806 0.79570993448171 0.07054692388092665
807 0.11302478681190198 0.8292167659723277
808 0.26592221020770945 0.56223177765309
809 0.33872948214555587 0.8625096251492953
810 0.29871832655191155 0.662259159048876
811 0.2506338390391196 0.2048856405088172
812 0.17092071895964556 0.7258545360141564
813 0.7901950299634544 0.8101991559822681
814 0.02281311081198556 0.42436675076557595
815 0.36785852943415054 0.5364411233017293
816 0.37929289253757015 0.6513839877243568
817 0.6853011229221035 0.1461972567490899
818 0.979166914892504 0.2525967760267738
819 0.1027552065077767 0.8340180044121271
820 0.2280188206430791 0.09219364561115817
821 0.3002218839100511 0.5080112867246335
822 0.44679574117919596 0.22214180710652953
823 0.1385827066867934 0.686120785912061
824 0.15321223225299352 0.5407233359843804
825 0.3507084990487386 0.5641162385897551
826 0.18517985643604595 0.9289860362555333
827 0.8887228744886013 0.6621778660479728
828 0.13979149981388028 0.620036389742915
829 0.015370195472472759 0.9425772045759441
830 0.8297766948008486 0.9933289465009283
831 0.9564205944936078 0.1783866123299096
832 0.0471628216034915 0.40027609297172295
833 0.07612485247046774 0.10125814814870804
834 0.4297797691425238 0.09664580192796235
835 0.868056175337279 0.038093346453843324
836 0.8442766185347695 0.48255506274571325
837 0.036492434775623916 0.956180911692176
838 0.9577724309795421 0.21998298331354427
839 0.6247833291899081 0.35432733202286026
840 0.3490629524726375 0.7239789514351573
841 0.48991385002643384 0.6063236238823546
842 0.28404466170167186 0.500411592025942
843 0.23551528816597478 0.4077624348634825
844 0.09678100092379827 0.1640771911412532
845 0.6670906109867875 0.8325415655003767
846 0.9062275684642728 0.32986961415006466
847 0.9757685766976884 0.9345323863794772
848 0.3690161165608503 0.5619829454230143
849 0.9390417518225538 0.7209313875141622
850 0.2939458242355043 0.7790337325190995
851 0.10561952161615162 0.5352738387740352
852 0.695540902952372 0.7595065845320488
853 0.25373720565845603 0.3832348276587507
854 0.3670369868596075 0.144771485994438
855 0.4426462802644512 0.24246995006194227
856 0.5137869195407567 0.15301781482499788
857 0.3736204334082408 0.6987525540779522
858 0.13326219075094392 0.24082796472338908
859 0.17660848200488688 0.9188123053218986
860 0.7092300747703874 0.5917064140368212
861 0.3080733589561141 0.2879015587522188
862 0.8438567602634691 0.5989110189950014
863 0.34417612441842005 0.6289254857150517
864 0.8509139930395538 0.5450272060992897
865 0.9844720565920372 0.48349972661622065
866 0.29473532716870166 0.9594482402601932
867 0.9107505921487126 0.14713619482265472
868 0.9963943674545893 0.4259047402540346
869 0.4473749645121087 0.03313368905880343
870 0.9404639706174 0.4174108233121757
871 0.5958337219842152 0.4664553495318199
872 0.7695073037072045 0.19444900898707407
873 0.3917111260008017 0.18897428204042566
874 0.2102995524228518 0.4938560093931461
875 0.5451606583604576 0.9586276026783016
876 0.5385480016354739 0.07250284597194956
877 0.13753534626167008 0.4128844858429791
878 0.4218156008481603 0.5228289611017394
879 0.02830699933476577 0.9481291904346599
880 0.7843927097565216 0.4056049853214646
881 0.48617295109151326 0.28103264272105255
882 0.1421481451891744 0.1627217456543304
883 0.8298077722119147 0.8595069805774482
884 0.3877339383994717 0.1267247766006968
885 0.4904007443332359 0.1255781623767236
886 0.8876294396196114 0.54760196174015
887 0.9637157726658268 0.20711522984527098
888 0.2519315687946688 0.24273599252869904
889 0.2179370516124043 0.7986763033909476
890 0.8460107237486695 0.3021608663774479
891 0.27819762844058415 0.9879448045404988
892 0.02745389555109856 0.06789639536874448
893 0.5123888770000771 0.48623739152452006
894 0.3982798568359298 0.06575259126617583
895 0.8021311987965435 0.6010025012262152
896 0.4950325082437238 0.2951192879831238
897 0.447472733194729 0.646654321109833
898 0.9501989732046217 0.45378637441486436
899 0.12946206430320573 0.7435497339840899
900 0.8023460674264409 0.20910832633184584
901 0.783963317691827 0.1489671745644392
902 0.03474825969499262 0.15788195414141126
903 0.007342418351085733 0.639902695087492
904 0.7510661337746106 0.11409856932874307
905 0.14064174208853608 0.8841697576170667
906 0.7690108177208469 0.36206321395767915
907 0.7208233588909181 0.04594056720148332
908 0.1964256350322795 0.5054868671458028
909 0.6770256635509221 0.6911644494674668
910 0.12600216056829194 0.9703606388223557
911 0.24208703594449388 0.7465323384558121
912 0.21739648178638027 0.7772153367566971
913 0.7009682506976249 0.7358503319133943
914 0.8204927831551291 0.8506481375937823
915 0.34638992382711786 0.6507516541709046
916 0.5515072860079088 0.4792724190865024
917 0.4536233892015453 0.09233996284133439
918 0.38888330184007536 0.11833583514762891
919 0.6635079403276618 0.9205942312715796
920 0.4011888806644628 0.37828968149819175
921 0.8255036651502935 0.17971764549331737
922 0.5382970833415105 0.5093625031487622
923 0.3454864637312737 0.6865609462829579
924 0.42859295701534783 0.7503794359141216
925 0.6363688112674601 0.29193313179009006
926 0.5326516828601453 0.04005340384611844
927 0.6258669208987521 0.5743943568128008
928 0.30315824523053336 0.8481586499096655
929 0.7955870550055096 0.05717758698283015
930 0.6319614311147649 0.3697519496845083
931 0.2112424991015348 0.8547728266128126
932 0.4628683704967276 0.658982464405264
933 0.44344479852756014 0.7780945956775184
934 0.8033269633327862 0.2655368198883581
935 0.8573320233258364 0.8979415710901845
936 0.7216667362751715 0.5620934051744129
937 0.08412061018003891 0.6548226856781882
938 0.5528928098916152 0.7811170835595562
939 0.5355977487394298 0.015930721272388704
940 0.904932923936307 0.4273019566341053
941 0.7006423297181955 0.3816479940445646
942 0.11237865051910567 0.2588496759903788
943 0.2892788646587833 0.7066941797175239
944 0.5179176503639011 0.9036361367879379
945 0.015144421712665834 0.9540712106555962
946 0.3038768388966804 0.9611686596566588
947 0.6944845314723241 0.7464841232301097
948 0.822094904401562 0.2578466208355291
949 0.025883866971346037 0.6520299987785673
950 0.9192201032918873 0.3532353182720499
951 0.2555578220168515 0.6491425846309586
952 0.6673574131308876 0.9860623013103704
953 0.9445905032695837 0.2343597020179934
954 0.6570680160338972 0.8872364865718888
955 0.558108437872377 0.9291601931670764
956 0.7512965931324667 0.6233462038241238
957 0.4620916579548654 0.6096250858187502
958 0.3603039992430742 0.4502884474567923
959 0.38643285930951243 0.4027014622846069
960 0.26197051962045803 0.4461912639348402
961 0.3477492200168397 0.25366552397660613
962 0.2885345806069797 0.6279252754887475
963 0.661307530346284 0.9766794617322787
964 0.1016564445584891 0.663374228260106
965 0.5301062061726738 0.91624954559368
966 0.23942383841060855 0.5457330809113188
967 0.8777075452237482 0.18694790158518804
968 0.7128028304977723 0.2188395370334839
969 0.07966215875051708 0.6473094891634409
970 0.0656573232426132 0.5010316639503405
971 0.43214657927202804 0.5129678931456213
972 0.3633328314846237 0.7143469271845692
973 0.6552528912914065 0.38185419004888943
974 0.9711896909478314 0.8790793301804855
975 0.6525413071477174 0.19475119996504264
976 0.08747154402707713 0.7755698133537624
977 0.5700798476284692 0.6160469675145523
978 0.1842818015957941 0.8958886587707223
979 0.36662156967312576 0.46409869313210705
980 0.5592965552571242 0.20898898158777923
981 0.20814079283823028 0.3623814881772658
982 0.24592401362095195 0.8249569479821591
983 0.6589307656161717 0.7900566715684721
984 0.5994527805436912 0.9075739108661509
985 0.4984294207332045 0.2672957695431726
986 0.9991990590854583 0.11882148049442842
987 0.2317499882653562 0.04552306425908248
988 0.5439063830790649 0.8935939665266447
989 0.9384590470786763 0.641803912367846
990 0.3544302292527388 0.8511979410715681
991 0.5063598871734755 0.18117073018682617
992 0.6274493924139214 0.8936304534258206
993 0.6314211091497004 0.43051302796426894
994 0.3079740062238556 0.9789480221452652
995 0.894544377734949 0.08986971304690339
996 0.9094356035295763 0.2175539327355357
997 0.8775787918064533 0.25651367260046865
998 0.37726237960735276 0.3247388172672764
999 0.5952683821854347 0.018268123415085324
1000 0.04316124254040643 0.47466997964165003
1001 0.23120727875144487 0.4992962265567069
1002 0.4804738777828348 0.07914019217144275
1003 0.353181782094791 0.18203458515621107
1004 0.2821823379494669 0.6988685223954468
1005 0.03357934329456469 0.26254942543668214
1006 0.7608962004359728 0.21256510444479892
1007 0.9745730649439358 0.45836606306068417
1008 0.30209327005184516 0.7316231880867925
1009 0.48206784234595534 0.8907730073936946
1010 0.8710960407320404 0.2740726776577287
1011 0.07034760572755006 0.15351291765030506
1012 0.24030107861368666 0.22302186661638712
1013 0.5094441285402612 0.7101090123447995
1014 0.9847950968091886 0.37558517296666083
1015 0.4746683069353582 0.41499506154897525
1016 0.11393105932408665 0.08571034794612464
1017 0.7033605371644714 0.012856581025731173
1018 0.8054469575623665 0.3188143536254858
1019 0.6878392178003815 0.48633338047961683
1020 0.439662463845776 0.29213306034848174
1021 0.7301973254955993 0.21606186612029188
1022 0.25524213649408045 0.28310352640846304
1023 0.570609704719123 0.9661025970831152
1024 0.1352070904159396 0.5633070085262116
1025 0.6572759960394292 0.7499268233004742
1026 0.5793825728613698 0.53959056735438
1027 0.6088837202595206 0.8751632319579852
1028 0.4206664722910807 0.19653041798994286
1029 0.3161026557789872 0.8074116798630996
1030 0.7532406322427128 0.9737507822132004
1031 0.17522881708115157 0.6804908582750671
1032 0.8425154512045241 0.3636813652426726
1033 0.451564025959574 0.8797459619591711
1034 0.6245705831648455 0.8446577950485087
1035 0.35291248774859263 0.14578010969003896
1036 0.8153729306135918 0.2360036131668014
1037 0.9812184459265478 0.8417087325207988
1038 0.6718743977270172 0.9695452282594778
1039 0.5437563176638186 0.36567066063602227
1040 0.0389576963080247 0.1662986199648242
1041 0.5893047410427987 0.901990145832262
1042 0.9353599695050396 0.831997951206938
1043 0.1079384322154674 0.49970634067894903
1044 0.9259043204547173 0.19333605250979635
1045 0.596353038088169 0.33792125265018724
1046 0.8763365330270924 0.18753133534744415
1047 0.48142653414930947 0.9506800853102537
1048 0.7250816806350439 0.18766775027108507
1049 0.7393752775122627 0.8268188047066679
1050 0.08343060510941369 0.14931951458811676
1051 0.7569181266298246 0.3504573541278252
1052 0.5188937036293934 0.6812246254819431
1053 0.3125559091647807 0.3653514205522149
1054 0.2510693298194848 0.5277559826841449
1055 0.7977008431350904 0.17443160218727205
1056 0.967993778826633 0.6007596604084823
1057 0.6324429585877894 0.863325259004843
1058 0.21897281508500266 0.7902452089916122
1059 0.2818919590297396 0.5674280402911721
1060 0.06509987803559514 0.36083488657479046
1061 0.42279002939317956 0.3867402616794674
1062 0.2982765803949462 0.6706666685423013
1063 0.5817695566131096 0.769549259869891
1064 0.273253277396027 0.31542197081255896
1065 0.13670478316034995 0.7206734945844061
1066 0.5930898610791893 0.36395864690594626
1067 0.4169258405308637 0.6608985985495253
1068 0.5649978406648382 0.12731304214510264
1069 0.30959973883590985 0.2850189029274357
1070 0.26460196761164145 0.011769326763759858
1071 0.8543857988683404 0.2774263957336971
1072 0.04656647357748778 0.9752931460384376
1073 0.6599927393353776 0.44146995021080837
1074 0.65391143536386 0.9156143365896653
1075 0.4878506624739657 0.32011099650387975
1076 0.6092162541556566 0.5169351973973276
1077 0.527360814253992 0.026325804454802038
1078 0.1778774761972619 0.7518432436093201
1079 0.5410484543609474 0.007905040471220426
1080 0.921785322927632 0.5188230261943578
1081 0.7026917275175109 0.8342336182351642
1082 0.5450802098137963 0.5294214143375586
1083 0.24567933105487638 0.45689339794124517
1084 0.656818207709061 0.7480014473132073
1085 0.8577558452884328 0.10443800685806914
1086 0.8696453553717658 0.2669782156925682
1087 0.7431446706670113 0.5391650568505253
1088 0.7909926348139433 0.049838662825445246
1089 0.5318053735903965 0.7974054359853321
1090 0.7867609465411395 0.7211899804550445
1091 0.41980485608231377 0.009153344438462496
1092 0.6632696280701004 0.1479120291282301
1093 0.8945760672466756 0.5923873398699252
1094 0.00815888437045198 0.948737373005499
1095 0.38752865058510144 0.22599703128386417
1096 0.6916461045990978 0.9469264149742899
1097 0.3638748628427695 0.015620478874735277
1098 0.8961106175268515 0.7163651525084812
1099 0.7527519499487506 0.08396439340822737
1100 0.827077579233356 0.8612282290412094
1101 0.8656816307403168 0.9716283487091179
1102 0.9638485845290001 0.2895388392000914
1103 0.4524018991472406 0.4566478849704405
1104 0.633762221070606 0.13319307864020058
1105 0.31500754080426197 0.8474448580191282
1106 0.28507316649374215 0.7738599950688109
1107 0.22374406846966888 0.0010494770808510134
1108 0.8239601371072884 0.8629608766908778
1109 0.6152823693011367 0.24525978151480066
1110 0.8423423306694271 0.4850014758696527
1111 0.6086199953846607 0.14067351882100565
1112 0.9269694732866774 0.4203019845463688
1113 0.8772668382525778 0.6519920291074413
1114 0.6165332543025754 0.9898510900079185
1115 0.5423280675193469 0.07350238717505941
1116 0.6202140935143494 0.2254143211205205
1117 0.06376589013225442 0.257679683489313
1118 0.43094766265787865 0.21749139484135738
1119 0.8666378941039921 0.04893966051290488
1120 0.42582230796573817 0.8996706412808432
1121 0.20980556061950917 0.16334056724114343
1122 0.16748780109136474 0.3597249562207784
1123 0.9731110088736972 0.7050556726133449
1124 0.6763709690138467 0.7118186293697222
1125 0.8464442921737482 0.49252601928389705
1126 0.3115990857398361 0.9169206961483892
1127 0.24050749567631624 0.2660079023443971
1128 0.6505451813817383 0.6637684112685965
1129 0.31333447974978657 0.8111451285672093
1130 0.35295148873509696 0.7196055360915459
1131 0.6241511161790007 0.029801959281599344
1132 0.8118983966313267 0.28506427259450307
1133 0.691369626388228 0.9846290210350341
1134 0.6054558053690652 0.79829213915683
1135 0.25130349867918644 0.41086909152380835
1136 0.08353154555994835 0.5177896522253038
1137 0.20198066804122727 0.3810199286339263
1138 0.6361340583519062 0.8425248589633396
1139 0.2962219032654265 0.6114334199566587
1140 0.035396622150820733 0.42924588249922146
1141 0.14720129917818736 0.5519299392077147
1142 0.18855277295261508 0.05815194079626418
1143 0.4650709377522565 0.6615334428169273
1144 0.45221104095759723 0.03575627831395578
1145 0.8833940682197767 0.9463717179395338
1146 0.398736853451258 0.7609655500297545
1147 0.21903008790170897 0.7863414523645151
1148 0.7153456460339399 0.4853366807361672
1149 0.8712789583556845 0.48646788468697577
1150 0.879562608156595 0.3924245419442812
1151 0.6355499623811838 0.31289302286138576
1152 0.4932365202276382 0.3274086951675794
1153 0.33494983424179725 0.48330680464708
1154 0.13383686684907292 0.24853206386369797
1155 0.7835987766973956 0.6890365026012196
1156 0.04009386001691295 0.35706948962789375
1157 0.9478691589820821 0.7986407835411488
1158 0.6920208694457778 0.026866689111925912
1159 0.4274348343645913 0.4776163170857838
1160 0.8722301888398065 0.6117371722054435
1161 0.07132592748845545 0.7498672894443241
1162 0.22292672167511096 0.9966619438679052
1163 0.3697550681673579 0.16220543906058638
1164 0.5881998754950286 0.4918484927951019
1165 0.008401462688419792 0.5159845978798164
1166 0.5754178132259676 0.39355125760213083
1167 0.9723265221346962 0.6468923464046782
1168 0.9805892771354259 0.7366350962902147
1169 0.6111483663259505 0.6044269523967106
1170 0.3440800945016943 0.17754882479923906
1171 0.7588201393300251 0.4058416763012733
1172 0.03231769072446122 0.011483260979769705
1173 0.9744984914705104 0.43634192820716733
1174 0.9232708905807032 0.868944466551838
1175 0.30776678581666816 0.6553721393479996
1176 0.1629362598708245 0.6707821103382045
1177 0.8400865956863014 0.45860824085942664
1178 0.10298101150169392 0.18656433530228522
1179 0.027388386631440276 0.9124047302013956
1180 0.6287103527444428 0.4850576710343134
1181 0.2474990108804752 0.017137331418709545
1182 0.1274985391926008 0.30311602792603887
1183 0.6483852552416464 0.0565810671814273
1184 0.9883694438636126 0.7326443208880661
1185 0.03743248478563399 0.03147357952849594
1186 0.6384037391815205 0.2924298371657609
1187 0.1647963140667581 0.1298945031992942
1188 0.67391584524308 0.9572421635178391
1189 0.7121965068506336 0.8612613102977953
1190 0.6149185607653741 0.5008944198921211
1191 0.6330371783148304 0.685347900864164
1192 0.5326907253048354 0.987318438311896
1193 0.9023738635892735 0.6710340090561546
1194 0.8954209510373894 0.9663336941138553
1195 0.9491608917851466 0.0983343807628353
1196 0.6245133892483539 0.4810461330050929
1197 0.5310614318431492 0.15760965837005814
1198 0.5031437567718403 0.3196010097705607
1199 0.08209380308227421 0.5050296610821668
1200 0.32563075037542655 0.39670586018776943
1201 0.576735929144961 0.572222497245903
1202 0.17358439560704986 0.3938298618643853
1203 0.044728452641930816 0.6256793117033335
1204 0.44244948133359674 0.033294598669021624
1205 0.5227233631567345 0.5525831813616617
1206 0.8997557482737956 0.6055398694843185
1207 0.624120978707704 0.8001898619404034
1208 0.27485294249041625 0.5975104156873862
1209 0.8596925376399647 0.4434856478256256
1210 0.4684190337811579 0.5903189117939371
1211 0.9473261990242715 0.9202782601809647
1212 0.7660242206916894 0.26799536347982666
1213 0.2261724370902508 0.8481276729150441
1214 0.8482531843016808 0.7632974241528595
1215 0.3053543528193493 0.7796679998239228
1216 0.5414633159166639 0.5433200115989002
1217 0.25012770303653586 0.8612889290025892
1218 0.5569911977451604 0.17544024031289818
1219 0.3540753942357281 0.1250504547179183
1220 0.9092804237004258 0.24667448120536972
1221 0.6828605480130294 0.5261818926994114
1222 0.05504473123815423 0.5592303014324023
1223 0.42297470522574443 0.8744311360025256
1224 0.7705569211545711 0.347916776611514
1225 0.3423834972615132 0.13007612724501172
1226 0.4782271175779521 0.05391445298672948
1227 0.06394478213440224 0.8431941103328249
1228 0.2504632505663431 0.21873849564179215
1229 0.164922036202237 0.5149229518803301
1230 0.4513489051648222 0.8886401325140734
1231 0.826298187613758 0.978174951237732
1232 0.4180450023005059 0.9648060510278952
1233 0.6373662052183116 0.9360499320206503
1234 0.32758853337430616 0.39018306401057656
1235 0.8629776418533236 0.6322672120437407
1236 0.1489979776436201 0.31075597950435696
1237 0.8553836578967954 0.18340867536922645
1238 0.36789236955888327 0.6774584790195701
1239 0.46739233181737616 0.9906861794509434
1240 0.4337920157320502 0.25665001912036034
1241 0.8786605042152172 0.6229509056856665
1242 0.5600430115580818 0.7971990766951728
1243 0.7991195976713035 0.9159901668623776
1244 0.39481681172454963 0.3569935881852787
1245 0.4144521770439836 0.3668482724992498
1246 0.1302695759960909 0.28113782283829736
1247 0.2128157721101368 0.9990862936711582
1248 0.3361625967771015 0.6074415645390686
1249 0.49147599574157985 0.15594295056664564
1250 0.4090722342027767 0.7598276689720432
1251 0.950675302431597 0.923602503357464
1252 0.8517549067839999 0.807027956447578
1253 0.0007184778991762286 0.25511418000284924
1254 0.39908176718791255 0.3228995355047237
1255 0.8434601213046259 0.6064057031873618
1256 0.04772594413671616 0.7056731462434469
1257 0.5285990208871854 0.761614433552144
1258 0.13257588042151847 0.7055929618156349
1259 0.5166849861525965 0.839927536520279
1260 0.5499065772049303 0.5715686760138907
1261 0.9371560906573215 0.9339197293641742
1262 0.4295482623077861 0.9610428109857623
1263 0.006206797656964302 0.9907501182651253
1264 0.5834445484185935 0.6964326237836624
1265 0.22915093524963115 0.6864047669889761
1266 0.6835917413906414 0.39522191031203313
1267 0.8566320969824567 0.6283383900051773
1268 0.1966598312484269 0.11336733278188427
1269 0.06232776352624547 0.549277159159346
1270 0.7164866355650507 0.6696026861366091
1271 0.4771492665757301 0.9086960165817525
1272 0.3292845953972612 0.37327680119012585
1273 0.034498129757415175 0.06326639993166994
1274 0.8380099555002739 0.9241244354989434
1275 0.8956652274043125 0.48900891404059665
1276 0.35938792934210995 0.3831288789915438
1277 0.6567834384256468 0.1349657943299073
1278 0.22369718699136254 0.45769586904323334
1279 0.6332046745585166 0.5871207349435175
1280 0.2905077449502286 0.7754892874917463
1281 0.02512574327510919 0.6032998490781258
1282 0.4240859846027272 0.854281171809887
1283 0.6463664494611007 0.6102620033827123
1284 0.5593069412434257 0.5290794917026678
1285 0.6022701925425228 0.8084530681576855
1286 0.7612337555195637 0.17596022846306736
1287 0.5603740959586919 0.2779809742161353
1288 0.03231176834377958 0.4157795349249488
1289 0.13957077022509579 0.809020668098462
1290 0.4790263701493772 0.5032971694590797
1291 0.41184428679096907 0.6948211260167892
1292 0.6018640528665885 0.024329318888295037
1293 0.04608507928106276 0.7184033332473491
1294 0.8368101518124673 0.0018469972460837258
1295 0.06255951252232439 0.16225531394795112
1296 0.6197639537869841 0.06604380848939473
1297 0.29002702948653813 0.2438074390416054
1298 0.6205820878636971 0.31875858119600187
1299 0.2866564383031518 0.2016781822362188
1300 0.548852308627116 0.9344740763578565
1301 0.14735967510169812 0.749646155082168
1302 0.7833011687470778 0.8478278087208083
1303 0.3533171596226218 0.6154545278629513
1304 0.3240059650440341 0.6080658951300337
1305 0.6168252439163225 0.5964097522924251
1306 0.9031109962653687 0.3594924563999028
1307 0.8054906277380872 0.465845116583285
1308 0.6196062587905566 0.13371695014743235
1309 0.20038928619555896 0.0480108705885518
1310 0.5510403867986319 0.19874459390250698
1311 0.4794869911037041 0.7046512872393959
1312 0.16977735595081644 0.24470334040887864
1313 0.3376193468697448 0.8295330494267669
1314 0.8344566708439815 0.29569573465711374
1315 0.7719102905358326 0.9571538205946445
1316 0.6290418513129181 0.17122921458153417
1317 0.6677726922429235 0.11156049871214346
1318 0.05454541709752281 0.512222417358386
1319 0.9290968127744674 0.324848150667704
1320 0.846761565177251 0.5735898128833541
1321 0.014303818514138866 0.0353988121176384
1322 0.6223893016440801 0.20793938523609246
1323 0.14492262312394522 0.1771240219825999
1324 0.5758888029152527 0.5425558538639043
1325 0.33569555878384694 0.22450233868726854
1326 0.41882026449493104 0.3017852346289315
1327 0.3431821023846604 0.8609212062177011
1328 0.4912174128673217 0.8091531857381628
1329 0.6414305077672683 0.4915374717694222
1330 0.4004749282083643 0.7501103626487858
1331 0.2672560876813215 0.5176404322711987
1332 0.7444594130966049 0.8605858278111143
1333 0.2857221735526648 0.11791340422720586
1334 0.6779247723323477 0.5506246690829132
1335 0.2497858486542408 0.6697013751980218
1336 0.7505998807737178 0.9663389384038312
1337 0.8780537375779308 0.7097925041162246
1338 0.29616287681932274 0.32741864908380713
1339 0.8189456178282011 0.19866663057314693
1340 0.9251839807582004 0.4452218283132192
1341 0.6727382050957539 0.6984518497060139
1342 0.12696597516148533 0.036575220412788045
1343 0.07192553947497449 0.6977861712886388
1344 0.7570278996216158 0.1375732181150735
1345 0.363566492626322 0.6292280756362956
1346 0.7972437730503266 0.016799895179602897
1347 0.5718062813081846 0.4097446040785083
1348 0.7053850102576595 0.29291648706529605
1349 0.21262635084716675 0.94094978576051
1350 0.0610387814506379 0.6662201428834165
1351 0.005708887385615147 0.39383067890779755
1352 0.041392633601465056 0.44473570273697893
1353 0.3077732748986778 0.7581807119695754
1354 0.5268133166998588 0.4401241604014816
1355 0.30781636371769183 0.3570171305597484
1356 0.17828718885244577 0.18363143219575218
1357 0.28299271816724036 0.5575833562015087
1358 0.3517753951403111 0.5706298817602489
1359 0.33380536176901077 0.9824099222522928
1360 0.6748570076959296 0.9621270013797842
1361 0.4266774664431583 0.9100100765565758
1362 0.976390025307429 0.13248125185790138
1363 0.7073697732323307 0.2548603137700637
1364 0.13665250003711227 0.6933657985376053
1365 0.3603050933934364 0.5784890981117679
1366 0.9870753937532069 0.5115285866878517
1367 0.4455690858978454 0.4158859283120737
1368 0.0951132001314049 0.4526788566726577
1369 0.39872662659462266 0.9668511347460249
1370 0.34408003422393474 0.768825511367123
1371 0.5113032990729176 0.8032774222429057
1372 0.7755152144943068 0.43159525622743333
1373 0.19511719564276375 0.2380508293091994
1374 0.23427784350157865 0.20488471824241306
1375 0.08785843390447379 0.26371104936115264
1376 0.22559722489586032 0.23582499097055765
1377 0.5174123342505912 0.37662885757777453
1378 0.9171033388850541 0.43172194786643325
1379 0.9462217207612436 0.5673843091385854
1380 0.9574641212629416 0.07351843304432881
1381 0.5520622405228739 0.5832271509893937
1382 0.8320580357360459 0.5016674476451027
1383 0.22380367172353488 0.582761375771487
1384 0.5765244853796607 0.9837056072343858
1385 0.9415877016279421 0.47856128928267716
1386 0.6598628209916362 0.14920190426613134
1387 0.6213143327805573 0.7088346874393355
1388 0.5970135808223171 0.9164200307491558
1389 0.46864388080767827 0.10740806087523613
1390 0.010329809447926053 0.11301349212780687
1391 0.4609657195974728 0.47766342990289234
1392 0.4568441943977666 0.9646271682077144
1393 0.06158649342012268 0.28999166582878977
1394 0.40285019503306174 0.9946588575497484
1395 0.15832266764093839 0.4477226585114199
1396 0.7283421274950341 0.2022986037813027
1397 0.8861151932931953 0.1001400631355458
1398 0.07190603248266425 0.41710654462999364
1399 0.25344443526857596 0.991671138272234
1400 0.14280285335303156 0.6358836891547323
1401 0.5682481320631717 0.849086155871736
1402 0.4241687245928478 0.39222115934351576
1403 0.19780910305308308 0.18403839873875572
1404 0.7479220864958388 0.9192140433148163
1405 0.06709908297005152 0.025897040674717653
1406 0.4351981252613887 0.4636550373459384
1407 0.8319518503346992 0.22905837826801534
1408 0.3906789105978038 0.373402021796329
1409 0.8586563855137063 0.9476300089051197
1410 0.9918456265130517 0.5773180227918263
1411 0.7975853610483965 0.03318074348520339
1412 0.35081898837000636 0.3298166232424661
1413 0.9115543145716529 0.2662632626679494
1414 0.32574232549049964 0.11376708469671404
1415 0.5921832048356387 0.13807830801138143
1416 0.5032979939703941 0.28265533057272063
1417 0.7334055283709373 0.4275164033029212
1418 0.7899209734680458 0.6124528129032575
1419 0.5454882934085733 0.09020487813846967
1420 0.32184744729298354 0.5407159946687969
1421 0.5016993791455588 0.671286324239103
1422 0.27958882317586187 0.8549506364258572
1423 0.8715259640514247 0.6944207295391699
1424 0.055633893943758506 0.6184897225864127
1425 0.2663541534016787 0.7009888952103267
1426 0.1653542155531672 0.3850017391839432
1427 0.6149961797887972 0.5569846508509427
1428 0.831844934128587 0.25118539565086095
1429 0.40138340932199745 0.496915973502866
1430 0.6711060838353056 0.9584488296382953
1431 0.6891845795110694 0.30070620840145834
1432 0.37401916515864886 0.32933957904523303
1433 0.4751216031032114 0.9435053525689985
1434 0.34303486378068004 0.22457540306866708
1435 0.6027820972696406 0.4394196742146639
1436 0.8651459862803645 0.07793693145626746
1437 0.5067517971946178 0.9480190459432445
1438 0.2708362243972917 0.09928958520797004
1439 0.7569390665997966 0.3917879577234803
1440 0.2263083615428525 0.38138219200131696
1441 0.3937771263677239 0.9733235607280588
1442 0.8665162512439671 0.5637291988009563
1443 0.4909971391763941 0.8868317533950688
1444 0.6133192235002353 0.9458776775161972
1445 0.24474853724079426 0.8136435858071445
1446 0.40441712866304946 0.9966796679625824
1447 0.3238000279121668 0.19625359781609653
1448 0.8836124861803872 0.5963957976159511
1449 0.3621333343815838 0.5986687366699867
1450 0.03997816214075234 0.9597146748946013
1451 0.6654159994101048 0.9504559258221331
1452 0.5233005956290835 0.7467616098448566
1453 0.5641306698878644 0.20428630834595907
1454 0.38506989840792927 0.5828644324147237
1455 0.7933232306343734 0.05356245241670876
1456 0.17627405435749888 0.7169206611277497
1457 0.6611517825316934 0.8606756854952607
1458 0.972908786860851 0.14006366095746192
1459 0.5652827753861974 0.272821684214266
1460 0.8682069061334409 0.18473306790167587
1461 0.058842098422266065 0.8816604969628726
1462 0.9485725431432644 0.5430077142720027
1463 0.9676752060605093 0.28569861173973565
1464 0.005148377229992396 0.9828477017388267
1465 0.9795763557824161 0.04077369076616222
1466 0.23784118812274513 0.1724058246805621
1467 0.7268414432928757 0.5277379176894806
1468 0.3251421894615384 0.19267666059770983
1469 0.6306608033607568 0.647387899895296
1470 0.2463649251116765 0.7556144688136189
1471 0.2956684539478138 0.34594581980363903
1472 0.08995157130144138 0.10192174500929152
1473 0.05945022494681995 0.7816087320879586
1474 0.8679279872657498 0.1303267943067551
1475 0.572612651710043 0.14420746527450645
1476 0.26158138096769457 0.3387056044869342
1477 0.732036218726743 0.3817539650129702
1478 0.4617810586480511 0.394746162469921
1479 0.11694839565511983 0.7203484165870988
1480 0.1399755351346843 0.5816423660319651
1481 0.447642986603921 0.8009766141882382
1482 0.6695835589523524 0.053333663944527654
1483 0.5114619428045594 0.437278308163076
1484 0.4569836936090357 0.1274041497258389
1485 0.3754736357195103 0.9145626598134854
1486 0.5707368343522117 0.4381577612195665
1487 0.1547782927222533 0.9300854131885059
1488 0.7516160612826847 0.27538687436004505
1489 0.3161410526029227 0.7827593771976015
1490 0.798780275537897 0.4980753796022872
1491 0.28439836878838853 0.9651410497318886
1492 0.7555889660521713 0.7728127193590218
1493 0.21739778333487858 0.04050198929932469
1494 0.9349085465535908 0.7240891504879585
1495 0.39417429279614613 0.12450403801285692
1496 0.5401342130003575 0.0537071285395645
1497 0.7008012962894539 0.780649533276682
1498 0.2981838922904152 0.34996935866811263
1499 0.23748797138307964 0.3582932179090784
1500 0.46213656104452316 0.5440037093606633
1501 0.08841704154850372 0.2910159100817994
1502 0.3865322974602483 0.007362863231768602
1503 0.7958617532074076 0.8928465385100011
1504 0.34207842346646145 0.5831940009685623
1505 0.4409162290031994 0.43442240289528056
1506 0.6886062271930122 0.31882926754925267
1507 0.5619990363154318 0.1970539451170733
1508 0.9648047363372536 0.5358180089689072
1509 0.9339888559217749 0.1965234697667576
1510 0.1757314412826082 0.19293855014398287
1511 0.9152149930564994 0.568612711566492
1512 0.8274530712024881 0.13070846126963775
1513 0.7980045983398669 0.4282010908927226
1514 0.6315023881883357 0.7253997937214247
1515 0.2569270374813587 0.8531402956610249
1516 0.24892328938502817 0.7434388342916477
1517 0.19913238536696232 0.38796170664798124
1518 0.1779743695219903 0.6485882784926492
1519 0.3659972005818074 0.3219218418383766
1520 0.38380741886955694 0.22379271076167706
1521 0.06696911878226286 0.24519181000745993
1522 0.8503216622734552 0.6911746975830622
1523 0.5934620611426181 0.9015971787533382
1524 0.11737682242844139 0.43709588880498185
1525 0.6976094634094814 0.44453132334799983
1526 0.19339018214335935 0.6735596448814279
1527 0.9709293592588949 0.6230810042770852
1528 0.35113408767254195 0.9824218672619373
1529 0.18075499123129035 0.08997183058771563
1530 0.3392471904015609 0.6844512074842167
1531 0.8119363034937221 0.5046019250187498
1532 0.9009353866446709 0.8610342736775658
1533 0.8958230571363549 0.2493858398618165
1534 0.49608512593242693 0.16701539151446332
1535 0.282232658483212 0.44072327894244634
1536 0.30235833711988935 0.3709415290813092
1537 0.4486915684979227 0.8430614368747786
1538 0.04783291802756706 0.2063070834240016
1539 0.5012732811259227 0.57477562031918
1540 0.7729978680660227 0.5078975580320537
1541 0.1031890432412993 0.2321971242780999
1542 0.22329927088577417 0.5619408378140973
1543 0.4671385011934882 0.3610663533217775
1544 0.41010531678554274 0.7903616076679502
1545 0.8150875635875836 0.2023602545765858
1546 0.45718446215896835 0.773509469268746
1547 0.151429047991948 0.7016496873196763
1548 0.05362854848366405 0.04719068252159875
1549 0.15971588617436694 0.6356211529362955
1550 0.6698516893907779 0.6011866331685041
1551 0.6811943573825346 0.7809352486405123
1552 0.9999694671481121 0.6203602803969567
1553 0.8778830957865393 0.39384773548031393
1554 0.6753494595659144 0.20379585209864404
1555 0.9901231448263002 0.5532313856974949
1556 0.20634375772404612 0.8222918660878472
1557 0.2987187901195113 0.6548520052508189
1558 0.4100804297245628 0.9328106583702023
1559 0.490691326668491 0.6263678978654758
1560 0.8389692364753296 0.2562782816527974
1561 0.9808206454705576 0.755680595559884
1562 0.14812703567298913 0.9282819410841628
1563 0.756171150438807 0.9554996181513152
1564 0.5045477597081846 0.8463894889862321
1565 0.9255414929919431 0.4502631329967506
1566 0.011494832455722359 0.9691633436350958
1567 0.17516124501446373 0.027193977451335116
1568 0.1909335070833844 0.9060534846482485
1569 0.05352761817040175 0.2803557060488998
1570 0.1302190354126156 0.6114381766819105
1571 0.29835709830560353 0.6710346476057595
1572 0.989640337930341 0.6255368289682207
1573 0.4924602073900046 0.7421607069638032
1574 0.7608344533488065 0.9167417243709665
1575 0.0286594344513853 0.9927463410814035
1576 0.06569879195588813 0.9591709864363336
1577 0.8192262929144268 0.051238932984300156
1578 0.9056977992447263 0.7243838440915518
1579 0.49621093143053907 0.32853217532022727
1580 0.01805836551516493 0.19773409419654941
1581 0.7677077258458678 0.36125593243194176
1582 0.5919580452459396 0.21649394694765345
1583 0.8904606124772554 0.1603552609209864
1584 0.5590938998805832 0.038367813780888826
1585 0.8319932352706337 0.03645001200065179
1586 0.594621379782687 0.12487942248745687
1587 0.9013078310227094 0.3074097877880627
1588 0.32206737322032253 0.4539119273565948
1589 0.22287293835987954 0.319079380568952
1590 0.04625539693848535 0.8424478826941991
1591 0.3056738885015773 0.6378124189000997
1592 0.5098769907925278 0.4765239712217837
1593 0.33264734937047 0.8138753934392446
1594 0.9840984275284135 0.06099961489111183
1595 0.29475099288542683 0.35679169169341685
1596 0.9513619859004692 0.9906016917734948
1597 0.7214602546980822 0.9932235879765888
1598 0.5340306296704895 0.7003737921280919
1599 0.2645271174526569 0.9005670581421223
1600 0.6585882692312502 0.8242644218415852
1601 0.15266015852774584 0.35728273118959963
1602 0.11618503705665251 0.4507956128491676
1603 0.5278458192864116 0.7049422507822883
1604 0.590553799828071 0.822580519271304
1605 0.1482883344877367 0.05312938002169709
1606 0.01663525137101529 0.9523301442838922
1607 0.5054585308135524 0.26665247049191587
1608 0.3680068083595395 0.5789210012778878
1609 0.24274974678548322 0.23635860574662337
1610 0.2695374688466643 0.6322964054917488
1611 0.656080898271897 0.07751010020148064
1612 0.8935132843979241 0.6440369985635798
1613 0.316522754232077 0.9930683339418017
1614 0.060549642765713396 0.018213746543567222
1615 0.5545430750547395 0.7721374617588259
1616 0.4469831893247572 0.36667834527065224
1617 0.3758481419615807 0.2376049133672773
1618 0.4588398249036244 0.11088099455006095
1619 0.264522361681511 0.7876975406717537
1620 0.5893415081602194 0.12298713268517014
1621 0.6336676511486015 0.16468748446540338
1622 0.890720687259864 0.40636561588912057
1623 0.283077300677955 0.6460258871483132
1624 0.6666571414758186 0.787831088516116
1625 0.58408761288091 0.006912059106753521
1626 0.621669279027397 0.6628181810658188
1627 0.09689501158330693 0.3527777367139662
1628 0.4183819142858023 0.3139503427145931
1629 0.4365131743342937 0.6787863393915893
1630 0.08595453109836948 0.12976437566430177
1631 0.18413403585857813 0.6185593975940514
1632 0.6342274467237865 0.5568658109785225
1633 0.9494577113781283 0.23938283831608753
1634 0.21458303369853493 0.5274491515069339
1635 0.24066229343295364 0.47208358134563333
1636 0.020334729729300727 0.4014948475171727
1637 0.9141792373640456 0.2920131630168642
1638 0.9745350234147901 0.06698281608232404
1639 0.6534649811794386 0.7963916408086719
1640 0.011883163976437072 0.9829635707366221
1641 0.2025661212328892 0.35944147050186814
1642 0.4161355956899736 0.13602756634460544
1643 0.5603989456211442 0.22344186716848125
1644 0.34611168639005996 0.5153100894034416
1645 0.9449169865576172 0.3481141935587141
1646 0.903589754496587 0.15639296471287012
1647 0.910662983010111 0.4834246404235413
1648 0.8463829306193287 0.9105366831319291
1649 0.3613787525390577 0.9268478943851539
1650 0.7067509650803737 0.5531175438658538
1651 0.2770871920929491 0.9958066577222499
1652 0.9533999379286304 0.1096442701863638
1653 0.18602694511442097 0.9131281571529198
1654 0.25504813742612886 0.7125494688263866
1655 0.2338185501996699 0.9173881987077034
1656 0.16829669571422545 0.9688031265086555
1657 0.6165502385523606 0.1306948388336906
1658 0.8065484426634251 0.22408943559029793
1659 0.800207198286478 0.5827075562675657
1660 0.7595502339227753 0.005323483833901688
1661 0.2121516756193138 0.6840949594510387
1662 0.8131088329397897 0.3975045826511078
1663 0.3095699986854369 0.38030873444468105
1664 0.29588524156332974 0.47186298124184944
1665 0.12654768040193565 0.20464399798468136
1666 0.7954768360229394 0.8982287968480551
1667 0.21161332973684155 0.8689703077333171
1668 0.9020765676009949 0.5752854147047658
1669 0.8901882802029765 0.7584188717494996
1670 0.45614961848285085 0.03473455513870294
1671 0.08786095145664252 0.35322204982574
1672 0.5317385259549492 0.9416760169415844
1673 0.7650539370518835 0.10732689638688508
1674 0.40933655764765675 0.9706916017395208
1675 0.970314928878757 0.43052137777383426
1676 0.0649644744653215 0.6922387072032142
1677 0.28213679515162804 0.8660578126922897
1678 0.7646623288975024 0.3307189522513686
1679 0.9964413331937618 0.7783391734075847
1680 0.6903739563235043 0.5586893308214378
1681 0.5777026268839066 0.2573533394482648
1682 0.46571639674416676 0.5994453599111395
1683 0.5967907116742637 0.4403500979414303
1684 0.9258654354953718 0.1583396552499854
1685 0.832679764478511 0.192593212067119
1686 0.3876616056834632 0.002670649415032589
1687 0.5016108053356649 0.025919404661432943
1688 0.22091542489647797 0.6835890254558444
1689 0.7378356902960103 0.6517987031021717
1690 0.2087855974083107 0.5100953004454452
1691 0.3060216197022031 0.518715131170153
1692 0.8012662459015566 0.5803261612211524
1693 0.6333700611922349 0.9324658878552494
1694 0.15489209775665824 0.9360472350628767
1695 0.634952984471686 0.3944266861737544
1696 0.14604424115704673 0.5132570691782334
1697 0.1379260020150267 0.1274023933441586
1698 0.45380534016176055 0.3548723954932408
1699 0.7907616040718733 0.409590280696398
1700 0.7675014973560005 0.5580267473701259
1701 0.9012529039715794 0.22743384077024542
1702 0.7342349246724513 0.15294328297453674
1703 0.15221024878696643 0.8085677756516434
1704 0.3838560317021732 0.3130700395030438
1705 0.25129783583039744 0.6925568910765955
1706 0.46225269900015264 0.2518015605670315
1707 0.08429387499211283 0.6674423929015688
1708 0.9891672423116785 0.7432228628495762
1709 0.999300257278836 0.5435927530223852
1710 0.08043438944084069 0.8847564136550361
1711 0.6366478071812814 0.39812214344676555
1712 0.30867078618741695 0.09618203998171815
1713 0.016462226218237563 0.1723218923977602
1714 0.8392832110891432 0.7593205562748948
1715 0.6433367078861996 0.5397836250952511
1716 0.3262653307915827 0.44037139341833575
1717 0.4746890809783594 0.7349694490432808
1718 0.12878478099681967 0.06726622550650407
1719 0.6703391482716017 0.32847198295176894
1720 0.46342791134990935 0.6246874055247184
1721 0.5948182533054347 0.047852433807855865
1722 0.8584829267116117 0.6011044979927044
1723 0.19038350542136295 0.847004030367367
1724 0.8152753354158675 0.1779917907169234
1725 0.26767469260467724 0.06412920355071638
1726 0.5773850066462072 0.11108785878205729
1727 0.9071009316856232 0.04506113369197662
1728 0.23152342627801803 0.5164159120637076
1729 0.5601572180735933 0.7203969666268355
1730 0.9814443057239982 0.18181713776764707
1731 0.43867444342707484 0.991656269562485
1732 0.6320462208852099 0.6312058768264325
1733 0.49514544898186874 0.5961963226923478
1734 0.3860778402383658 0.9118753955915941
1735 0.8240201459862136 0.7004551147104828
1736 0.9185028052751062 0.08316753322006609
1737 0.22466488298944365 0.8797659046072867
1738 0.19196891291669826 0.19778717039255111
1739 0.09379039321011406 0.35523299482796844
1740 0.7576772976319213 0.9493238971212044
1741 0.7370648305801684 0.561866835722555
1742 0.751082124281386 0.10320994889894675
1743 0.7467611121756469 0.55922163399189
1744 0.5517478390354129 0.6820744869998139
1745 0.36072197269553585 0.3132576429405617
1746 0.9008895984522269 0.6544382017935058
1747 0.014645554508489367 0.5005856043065889
1748 0.3975375983521927 0.28560015349018286
1749 2.124047565355003e-05 0.17957039770231564
1750 0.0671763703778333 0.9093631895450361
1751 0.4898576304677277 0.5470424128788576
1752 0.4595138333988801 0.6696217257975615
1753 0.05847473812174264 0.8666595199977316
1754 0.8769193182529488 0.38989146687500953
1755 0.8800814820955374 0.4641389631247612
1756 0.34610390586195894 0.15952262826551455
1757 0.4746166305968015 0.544084163399896
1758 0.340766608385384 0.9498151624342417
1759 0.6970429296281213 0.6354196470948245
1760 0.6852373236488453 0.7113381743758665
1761 0.4320631572881076 0.005903713493793816
1762 0.73567701442626 0.3143419176436453
1763 0.4479220073994984 0.19701406482074546
1764 0.3568445628797702 0.9567005187604758
1765 0.034518399032097635 0.03736524732155677
1766 0.33385018752141515 0.9840003377488127
1767 0.7290839677804575 0.9149340781577456
1768 0.10779601767532698 0.05859005198677236
1769 0.29041620872294394 0.7543117158324693
1770 0.6388632560532689 0.6274020435792563
1771 0.568443098743962 0.3364654535480679
1772 0.7622320870602372 0.18447414603367274
1773 0.6807632557589761 0.2640482666244215
1774 0.6129551378831366 0.5169542765228667
1775 0.0949940305772482 0.44670144720028604
1776 0.5782013496764552 0.6901400427194493
1777 0.5268956706835308 0.1921348560388636
1778 0.7950518506123928 0.9244743817336546
1779 0.03847185279064802 0.6769296961935612
1780 0.2733205756164705 0.6471224174232153
1781 0.19789728597156353 0.5451853984714101
1782 0.9533487101734819 0.20583711262918947
1783 0.5039109930057906 0.5841985754834551
1784 0.2545376511943275 0.8751614169911109
1785 0.8649838438922057 0.13718657451420602
1786 0.08939571721922734 0.38336871854039367
1787 0.7148200415408499 0.8583171345806923
1788 0.8544347989414822 0.9647911115583849
1789 0.7425523641294164 0.19790239738911108
1790 0.5704131292835609 0.5603705731901388
1791 0.3374348398767526 0.624688213478608
1792 0.9991476790927235 0.891840119044378
1793 0.05990664012218139 0.3142363659621866
1794 0.032755702019516386 0.1786088424220803
1795 0.6622021494842554 0.5485015728810902
1796 0.23670194460994332 0.5586016095663883
1797 0.06397017493248414 0.7292376459369725
1798 0.27539314986560204 0.4095784375211683
1799 0.25090893733564157 0.0007954985217721866
1800 0.9902741169336724 0.6116323412367151
1801 0.9979000234308318 0.8663938947024187
1802 0.820940024072216 0.20189527754199543
1803 0.7073244507095438 0.2973321315281714
1804 0.5267112064444246 0.9167332018126158
1805 0.6321309830172988 0.9480125393263489
1806 0.5404419795190014 0.18425720037699977
1807 0.4525867591279016 0.4582924822757932
1808 0.747085815927028 0.4471571920787152
1809 0.6138073877630517 0.8085229568080345
1810 0.13454165053430278 0.502072968664965
1811 0.4637996945041494 0.7425242081564861
1812 0.7115622272784072 0.07633753977505653
1813 0.494356623326363 0.339976788858688
1814 0.8396887175293752 0.8460240760147764
1815 0.3834976703175811 0.016559033261934863
1816 0.8343284965490927 0.010766090787123428
1817 0.20476112744056474 0.2748183406605781
1818 0.4212396400622983 0.9629412605853482
1819 0.4162806317946782 0.12077012406969945
1820 0.6407759594842285 0.8259889014078039
1821 0.2716035628640431 0.6250599057261204
1822 0.648497538282244 0.903880998673798
1823 0.9871178473036996 0.9964353590417987
1824 0.9948658361837297 0.5768250605153438
1825 0.5235378640443166 0.21753577183834794
1826 0.6471002948619056 0.5038918487348294
1827 0.36782316964403816 0.15892544690767352
1828 0.47173156200978295 0.8065117836604034
1829 0.7693241709194588 0.27479372910141964
1830 0.4110514203632144 0.702189185050205
1831 0.13340854551170211 0.9084257338787634
1832 0.9291154716436879 0.8925865714142056
1833 0.5170352517038158 0.6989177590361374
1834 0.29081370051566346 0.13680001603234548
1835 0.370954443611739 0.48199910913882293
1836 0.14643452060577988 0.5913959332256644
1837 0.7002310835427298 0.30995062360323156
1838 0.5745120385851294 0.4847699980490213
1839 0.5559416059602481 0.32455986378372703
1840 0.20593761320068804 0.41033025820963687
1841 0.43888326490521123 0.7747162809373668
1842 0.17246558744223395 0.6645606415024118
1843 0.8938607625188165 0.03073556180965631
1844 0.2865468337397157 0.6445074751521633
1845 0.055530472934548936 0.19969721486336012
1846 0.07253685939922305 0.39562668949842916
1847 0.27171739459674116 0.443398977344155
1848 0.21332324029235517 0.7212305752498485
1849 0.06793738391578075 0.3509100934361814
1850 0.26251510083912444 0.4016668375061122
1851 0.11083415057824297 0.5193442308427625
1852 0.0016839452798205201 0.8697570708217672
1853 0.08688379699032867 0.8376833564787445
1854 0.610642202148645 0.8088612352161615
1855 0.6574735980861552 0.8333025418870167
1856 0.19337189182779968 0.17127743534245665
1857 0.8786547114170711 0.060968393192356696
1858 0.33702217276613955 0.5012243983047697
1859 0.857679745910584 0.8022656429983734
1860 0.22595223835106493 0.03407580496452389
1861 0.3475469221784776 0.06737169776478091
1862 0.8610851155653317 0.6645524643318171
1863 0.08301680827501667 0.8912257298336489
1864 0.5126708795548673 0.8767731541863913
1865 0.44613347989036145 0.69654830014586
1866 0.9512501872419218 0.23597271412854903
1867 0.7829880646629143 0.2429946727327139
1868 0.9973315603989162 0.4813657004607501
1869 0.9000499458753676 0.22059358051475464
1870 0.30428191789382464 0.02997963620784938
1871 0.7080646176726337 0.49628952638042945
1872 0.5952542948716164 0.7628488542481705
1873 0.6157534023089574 0.6138512947453674
1874 0.33922051783182017 0.017709239951023248
1875 0.024712313858311186 0.6759797145445444
1876 0.8689596518440413 0.13421057200536046
1877 0.3434244190816219 0.12604206909615656
1878 0.5969465150606752 0.4899354651369813
1879 0.017894992231850315 0.5993733088552273
1880 0.5628835087231584 0.9302687754938903
1881 0.7025439425838071 0.28624483381833044
1882 0.9920072147429913 0.3700859692914862
1883 0.007797423176709173 0.7039093297492183
1884 0.15008272245873255 0.42867916355437774
1885 0.22298891691745304 0.0008361146685257337
1886 0.4322497652305294 0.24039841856565602
1887 0.37206521472340504 0.45587162045503227
1888 0.7262026161296135 0.4165795175894962
1889 0.3202759205481921 0.9542788964598536
1890 0.47413626939183595 0.9275681991226881
1891 0.5569771581060805 0.7363509454749921
1892 0.020172298455750304 0.6683487880204114
1893 0.1694224241083212 0.2709768935076029
1894 0.12069150363363801 0.4954227490417079
1895 0.9255501993657635 0.4400818544301489
1896 0.05445096773099656 0.46653706646880777
1897 0.16168602633311624 0.4638426103531016
1898 0.5125117979793649 0.2693833883730633
1899 0.07588802852378296 0.9863109637981233
1900 0.5528000910182984 0.39622895558780624
1901 0.38967547909609135 0.7678976100883672
1902 0.09366910557122343 0.2519011119130671
1903 0.018690203696857588 0.2234997279435892
1904 0.1879489925008071 0.8027700909703822
1905 0.5328441489511231 0.9652515934688782
1906 0.1449544684720957 0.5138657587587167
1907 0.22220104735103874 0.5825577196521314
1908 0.36937216048924737 0.2265609666670403
1909 0.3920263055558222 0.30739688123955355
1910 0.8619570722915778 0.5215335686752863
1911 0.9756750882847643 0.15204180195731531
1912 0.7434323083689574 0.8471994260804369
1913 0.9609712847151343 0.2820215717187251
1914 0.7180586035515957 0.5313515882942038
1915 0.2740542679965703 0.8898420933795914
1916 0.008989153060674826 0.40842495550629965
1917 0.4527422648604468 0.05092306301641569
1918 0.5565422087688866 0.3485894046914023
1919 0.11283402108621887 0.39950974319898735
1920 0.35266562514235034 0.25571848836404043
1921 0.03317502403286443 0.3551273230087808
1922 0.351398902892595 0.4320382817077163
1923 0.5860849508369811 0.053541251393043554
1924 0.9646637825684746 0.7701639870179691
1925 0.08016605684115774 0.019919382114080064
1926 0.10094123698336133 0.9047860569467359
1927 0.9031144749748554 0.3247155137280414
1928 0.7890885322973856 0.79773894833036
1929 0.4801179056661119 0.8287543665455744
1930 0.8244968790300308 0.6740259392217373
1931 0.6732617191298943 0.10415985968800512
1932 0.2351267547512319 0.28911056662720647
1933 0.8830525897779878 0.09209884490105191
1934 0.4960249681625487 0.4581967410105984
1935 0.827162940916077 0.7382246839299856
1936 0.09825427156664379 0.4850523698725381
1937 0.5067094721613635 0.38406618851853414
1938 0.07713582340727176 0.4066118070013466
1939 0.8934607138878735 0.12686938137148562
1940 0.17049272045268848 0.3896718952310888
1941 0.2890626292952291 0.3734289753660468
1942 0.14951948967264583 0.05470017461631593
1943 0.923756294779559 0.4463517330644401
1944 0.5862894906418628 0.9329296912891107
1945 0.5899469938807992 0.700733905303062
1946 0.3922358124923683 0.13457389277144038
1947 0.8410605370641995 0.6500451493336015
1948 0.24725022090931859 0.16569607056357583
1949 0.7295414486779678 0.6868353739702517
1950 0.9357039486178054 0.38069745771847485
1951 0.7020458261752835 0.5761860685489634
1952 0.018888257309293333 0.931876631491572
1953 0.6433322312500335 0.05406844754289042
1954 0.5490944994121464 0.03868929070969074
1955 0.5250119844335812 0.1380368391691562
1956 0.4525852844493794 0.4071599803634395
1957 0.1968563326703494 0.2963629429927592
1958 0.3212320269428113 0.9789619720908488
1959 0.44752342829873804 0.8649640733804631
1960 0.9131337011198768 0.7705194465376215
1961 0.3357224063410673 0.3686516099714333
1962 0.513441052500881 0.43396448789638775
1963 0.6181110545243242 0.878708146228339
1964 0.4029703935117638 0.21179643370965195
1965 0.5496465575552101 0.7552573515790703
1966 0.321867946055135 0.9138382616540264
1967 0.6470512860331118 0.649012416902309
1968 0.38687237046360956 0.9448868788381388
1969 0.10413946207927427 0.6348677780142938
1970 0.36714377953750543 0.9416682853649724
1971 0.23971447080981179 0.6790155943894857
1972 0.9562603917159368 0.751008206157754
1973 0.42304068147063323 0.2296462408299209
1974 0.9181022153220826 0.963081242948885
1975 0.9266317332622401 0.5724597146312457
1976 0.8500780249191631 0.7423563188159349
1977 0.903328607879995 0.47718483893766994
1978 0.9245473428105231 0.30775115810825515
1979 0.3428762253200811 0.39284749562258037
1980 0.9917230236524831 0.9599433240787271
1981 0.4942058249776682 0.3696511083058158
1982 0.03826847061497751 0.3811241109641824
1983 0.7697738120823922 0.07803722470683017
1984 0.011288222248033053 0.49966281214301855
1985 0.34638678161113534 0.8744714402512059
1986 0.8855316092249695 0.039138155849073764
1987 0.954331888691325 0.5852595058307815
1988 0.6164274385436143 0.8323546121478467
1989 0.266427448094935 0.7258171937814021
1990 0.02924297024397149 0.03366920465157275
1991 0.6805923826558754 0.4150261884873908
1992 0.7957904974129861 0.9927903678675313
1993 0.4180037688509306 0.06744565892197185
1994 0.22617142464808315 0.4372634606894952
1995 0.14483602298189724 0.013731211062062765
1996 0.5023540282693588 0.26199824649324555
1997 0.652844993453823 0.5170114137843267
1998 0.21496488215767562 0.6284722758846298
1999 0.3704387125277516 0.048126952133710654
2000 0.3490541111032547 0.5888644491756058
2001 0.5417839974582745 0.25217640456190515
DEMAND_SECTION
1 0
2 5
3 1
4 2
5 8
6 1
7 7
8 6
9 8
10 8
11 5
12 2
13 4
14 3
15 5
16 2
17 7
18 2
19 5
20 3
21 9
22 7
23 8
24 8
25 9
26 8
27 5
28 9
29 9
30 3
31 1
32 4
33 2
34 9
35 8
36 4
37 3
38 3
39 7
40 2
41 1
42 2
43 4
44 1
45 1
46 8
47 7
48 4
49 6
50 1
51 8
52 2
53 5
54 8
55 2
56 1
57 8
58 4
59 5
60 6
61 9
62 5
63 2
64 5
65 7
66 3
67 5
68 7
69 1
70 7
71 8
72 8
73 5
74 4
75 4
76 4
77 6
78 1
79 8
80 9
81 1
82 9
83 4
84 1
85 7
86 3
87 8
88 7
89 8
90 1
91 7
92 1
93 9
94 2
95 7
96 8
97 4
98 6
99 1
100 7
101 3
102 7
103 2
104 9
105 5
106 1
107 4
108 6
109 9
110 2
111 9
112 9
113 1
114 4
115 7
116 6
117 5
118 7
119 1
120 9
121 4
122 3
123 1
124 8
125 6
126 7
127 1
128 4
129 4
130 1
131 4
132 2
133 1
134 2
135 5
136 1
137 4
138 7
139 2
140 9
141 4
142 2
143 5
144 7
145 7
146 7
147 5
148 1
149 3
150 9
151 4
152 8
153 3
154 6
155 7
156 4
157 8
158 8
159 9
160 9
161 1
162 8
163 1
164 2
165 4
166 6
167 6
168 2
169 5
170 5
171 9
172 6
173 4
174 7
175 3
176 5
177 5
178 6
179 1
180 4
181 3
182 5
183 8
184 1
185 6
186 7
187 6
188 9
189 5
190 3
191 2
192 9
193 7
194 5
195 2
196 6
197 9
198 4
199 5
200 2
201 7
202 8
203 2
204 1
205 5
206 7
207 5
208 9
209 4
210 4
211 5
212 9
213 6
214 3
215 3
216 6
217 1
218 7
219 9
220 5
221 8
222 2
223 4
224 3
225 7
226 5
227 3
228 1
229 1
230 8
231 2
232 5
233 5
234 1
235 8
236 8
237 8
238 9
239 9
240 4
241 9
242 4
243 1
244 2
245 8
246 7
247 6
248 4
249 8
250 9
251 7
252 2
253 3
254 5
255 8
256 4
257 6
258 7
259 7
260 2
261 6
262 4
263 2
264 3
265 5
266 3
267 8
268 9
269 3
270 8
271 3
272 8
273 5
274 1
275 8
276 7
277 5
278 9
279 1
280 6
281 6
282 2
283 8
284 7
285 8
286 2
287 9
288 7
289 2
290 7
291 2
292 2
293 9
294 8
295 5
296 8
297 2
298 8
299 7
300 8
301 6
302 7
303 3
304 8
305 2
306 1
307 2
308 5
309 1
310 4
311 1
312 3
313 3
314 9
315 6
316 2
317 5
318 2
319 4
320 7
321 5
322 8
323 1
324 9
325 8
326 4
327 8
328 3
329 8
330 6
331 6
332 6
333 9
334 3
335 1
336 3
337 3
338 9
339 2
340 3
341 7
342 9
343 1
344 5
345 3
346 9
347 9
348 9
349 7
350 5
351 4
352 3
353 8
354 5
355 6
356 2
357 9
358 7
359 2
360 2
361 9
362 1
363 7
364 6
365 5
366 3
367 8
368 2
369 2
370 3
371 2
372 6
373 8
374 2
375 2
376 1
377 7
378 6
379 9
380 2
381 6
382 2
383 3
384 7
385 4
386 5
387 5
388 5
389 7
390 7
391 3
392 6
393 7
394 4
395 3
396 5
397 1
398 3
399 8
400 2
401 2
402 6
403 2
404 4
405 6
406 1
407 5
408 5
409 6
410 4
411 5
412 9
413 4
414 3
415 7
416 2
417 6
418 9
419 3
420 5
421 9
422 7
423 7
424 7
425 1
426 7
427 3
428 7
429 4
430 4
431 2
432 6
433 2
434 7
435 4
436 4
437 1
438 5
439 7
440 9
441 9
442 4
443 9
444 8
445 7
446 9
447 6
448 9
449 9
450 7
451 6
452 1
453 2
454 2
455 9
456 6
457 1
458 4
459 1
460 1
461 6
462 5
463 7
464 1
465 2
466 8
467 2
468 7
469 4
470 6
471 5
472 8
473 8
474 9
475 8
476 9
477 4
478 2
479 9
480 2
481 3
482 3
483 5
484 4
485 8
486 4
487 1
488 6
489 8
490 2
491 9
492 6
493 4
494 4
495 1
496 5
497 2
498 3
499 9
500 1
501 4
502 5
503 2
504 1
505 1
506 5
507 5
508 1
509 8
510 2
511 9
512 2
513 2
514 9
515 2
516 5
517 1
518 1
519 1
520 5
521 4
522 5
523 9
524 4
525 6
526 9
527 7
528 3
529 8
530 2
531 4
532 1
533 9
534 5
535 9
536 2
537 2
538 7
539 7
540 4
541 8
542 8
543 6
544 3
545 9
546 7
547 4
548 6
549 6
550 3
551 1
552 5
553 9
554 5
555 4
556 6
557 2
558 8
559 4
560 9
561 4
562 3
563 8
564 6
565 7
566 3
567 1
568 3
569 6
570 1
571 9
572 6
573 4
574 9
575 2
576 1
577 2
578 8
579 4
580 1
581 4
582 7
583 2
584 7
585 4
586 3
587 5
588 3
589 1
590 4
591 5
592 6
593 9
594 5
595 5
596 9
597 1
598 1
599 1
600 3
601 5
602 4
603 2
604 3
605 9
606 6
607 2
608 5
609 3
610 1
611 9
612 8
613 5
614 8
615 9
616 5
617 7
618 6
619 8
620 4
621 2
622 4
623 5
624 3
625 2
626 3
627 2
628 3
629 3
630 5
631 2
632 5
633 6
634 9
635 6
636 6
637 6
638 6
639 9
640 6
641 9
642 8
643 6
644 3
645 5
646 2
647 7
648 5
649 5
650 9
651 3
652 1
653 2
654 1
655 5
656 3
657 4
658 9
659 7
660 6
661 3
662 3
663 7
664 9
665 3
666 9
667 3
668 5
669 4
670 8
671 4
672 4
673 5
674 6
675 9
676 2
677 9
678 6
679 6
680 4
681 4
682 8
683 3
684 9
685 3
686 9
687 2
688 8
689 1
690 4
691 6
692 6
693 5
694 5
695 9
696 8
697 3
698 2
699 3
700 1
701 4
702 2
703 4
704 9
705 6
706 3
707 4
708 7
709 1
710 1
711 6
712 4
713 3
714 9
715 5
716 3
717 5
718 1
719 2
720 1
721 6
722 7
723 5
724 5
725 7
726 5
727 8
728 4
729 6
730 2
731 1
732 1
733 5
734 4
735 7
736 4
737 9
738 3
739 8
740 2
741 9
742 8
743 8
744 5
745 2
746 5
747 6
748 7
749 5
750 1
751 8
752 4
753 1
754 7
755 5
756 4
757 7
758 8
759 6
760 1
761 3
762 4
763 3
764 8
765 8
766 6
767 8
768 7
769 8
770 2
771 2
772 2
773 1
774 7
775 6
776 7
777 2
778 4
779 1
780 9
781 1
782 4
783 5
784 6
785 3
786 2
787 9
788 4
789 4
790 6
791 8
792 3
793 8
794 1
795 2
796 1
797 8
798 7
799 4
800 8
801 6
802 8
803 4
804 7
805 5
806 4
807 6
808 4
809 7
810 9
811 9
812 1
813 5
814 2
815 5
816 6
817 1
818 5
819 9
820 9
821 1
822 7
823 9
824 5
825 2
826 3
827 2
828 3
829 1
830 1
831 7
832 3
833 8
834 6
835 1
836 9
837 5
838 9
839 4
840 7
841 1
842 7
843 2
844 7
845 3
846 5
847 8
848 9
849 7
850 6
851 4
852 3
853 2
854 8
855 4
856 5
857 6
858 3
859 2
860 5
861 8
862 4
863 8
864 4
865 1
866 4
867 7
868 1
869 2
870 7
871 8
872 8
873 1
874 8
875 1
876 5
877 9
878 1
879 3
880 9
881 5
882 6
883 1
884 1
885 2
886 6
887 6
888 3
889 5
890 1
891 4
892 9
893 1
894 7
895 9
896 7
897 5
898 4
899 4
900 4
901 8
902 6
903 1
904 6
905 6
906 8
907 5
908 1
909 6
910 2
911 9
912 5
913 2
914 4
915 9
916 4
917 5
918 4
919 1
920 7
921 1
922 1
923 8
924 2
925 9
926 1
927 9
928 4
929 2
930 5
931 4
932 3
933 9
934 8
935 5
936 3
937 5
938 9
939 2
940 3
941 3
942 9
943 1
944 9
945 4
946 7
947 4
948 4
949 4
950 8
951 3
952 2
953 3
954 4
955 6
956 9
957 2
958 3
959 2
960 9
961 1
962 2
963 2
964 5
965 6
966 8
967 3
968 9
969 4
970 2
971 9
972 6
973 4
974 3
975 1
976 3
977 6
978 7
979 1
980 1
981 5
982 4
983 5
984 1
985 3
986 6
987 5
988 2
989 3
990 8
991 3
992 7
993 7
994 7
995 9
996 5
997 7
998 4
999 2
1000 1
1001 8
1002 5
1003 2
1004 2
1005 1
1006 6
1007 5
1008 5
1009 4
1010 1
1011 7
1012 5
1013 4
1014 9
1015 4
1016 3
1017 8
1018 2
1019 1
1020 4
1021 1
1022 1
1023 7
1024 5
1025 7
1026 8
1027 5
1028 3
1029 7
1030 2
1031 7
1032 6
1033 6
1034 3
1035 2
1036 6
1037 1
1038 9
1039 2
1040 7
1041 7
1042 2
1043 4
1044 9
1045 3
1046 7
1047 3
1048 5
1049 7
1050 1
1051 4
1052 8
1053 6
1054 4
1055 4
1056 9
1057 8
1058 3
1059 8
1060 1
1061 3
1062 7
1063 8
1064 2
1065 3
1066 1
1067 9
1068 8
1069 8
1070 6
1071 2
1072 9
1073 9
1074 1
1075 1
1076 6
1077 5
1078 4
1079 1
1080 4
1081 1
1082 2
1083 6
1084 4
1085 7
1086 9
1087 8
1088 1
1089 4
1090 1
1091 7
1092 1
1093 9
1094 8
1095 4
1096 6
1097 3
1098 8
1099 6
1100 5
1101 4
1102 2
1103 2
1104 7
1105 7
1106 2
1107 9
1108 8
1109 3
1110 3
1111 6
1112 1
1113 7
1114 7
1115 8
1116 1
1117 1
1118 4
1119 6
1120 5
1121 1
1122 7
1123 5
1124 7
1125 2
1126 1
1127 7
1128 2
1129 1
1130 2
1131 2
1132 8
1133 3
1134 2
1135 1
1136 1
1137 4
1138 9
1139 5
1140 2
1141 5
1142 2
1143 1
1144 8
1145 9
1146 4
1147 5
1148 8
1149 9
1150 3
1151 6
1152 9
1153 1
1154 3
1155 3
1156 1
1157 4
1158 1
1159 8
1160 6
1161 8
1162 2
1163 5
1164 9
1165 3
1166 6
1167 2
1168 7
1169 3
1170 7
1171 6
1172 7
1173 6
1174 8
1175 1
1176 8
1177 8
1178 3
1179 9
1180 6
1181 6
1182 7
1183 8
1184 3
1185 9
1186 8
1187 6
1188 2
1189 7
1190 5
1191 9
1192 6
1193 4
1194 2
1195 2
1196 7
1197 9
1198 4
1199 4
1200 2
1201 4
1202 8
1203 5
1204 9
1205 9
1206 6
1207 7
1208 3
1209 3
1210 7
1211 7
1212 4
1213 1
1214 1
1215 6
1216 6
1217 6
1218 3
1219 1
1220 2
1221 1
1222 1
1223 3
1224 5
1225 8
1226 8
1227 9
1228 4
1229 1
1230 5
1231 6
1232 9
1233 3
1234 5
1235 7
1236 8
1237 6
1238 6
1239 8
1240 8
1241 9
1242 2
1243 6
1244 7
1245 2
1246 2
1247 4
1248 9
1249 4
1250 9
1251 7
1252 8
1253 1
1254 5
1255 8
1256 2
1257 8
1258 3
1259 3
1260 8
1261 8
1262 1
1263 3
1264 3
1265 1
1266 5
1267 3
1268 7
1269 7
1270 3
1271 5
1272 2
1273 8
1274 5
1275 9
1276 5
1277 6
1278 6
1279 2
1280 4
1281 7
1282 5
1283 1
1284 8
1285 6
1286 2
1287 8
1288 1
1289 9
1290 5
1291 5
1292 6
1293 1
1294 7
1295 5
1296 2
1297 8
1298 4
1299 5
1300 1
1301 7
1302 8
1303 9
1304 3
1305 6
1306 1
1307 2
1308 4
1309 5
1310 8
1311 3
1312 7
1313 8
1314 3
1315 2
1316 9
1317 8
1318 3
1319 5
1320 3
1321 3
1322 4
1323 1
1324 5
1325 7
1326 4
1327 5
1328 8
1329 7
1330 1
1331 6
1332 7
1333 1
1334 8
1335 7
1336 2
1337 1
1338 6
1339 9
1340 2
1341 8
1342 4
1343 1
1344 7
1345 4
1346 1
1347 6
1348 7
1349 2
1350 6
1351 8
1352 4
1353 7
1354 3
1355 1
1356 7
1357 8
1358 6
1359 9
1360 1
1361 6
1362 7
1363 8
1364 9
1365 6
1366 9
1367 2
1368 9
1369 7
1370 5
1371 2
1372 7
1373 2
1374 6
1375 1
1376 5
1377 6
1378 9
1379 6
1380 8
1381 7
1382 3
1383 8
1384 3
1385 1
1386 7
1387 6
1388 1
1389 8
1390 3
1391 4
1392 6
1393 4
1394 2
1395 9
1396 8
1397 3
1398 9
1399 5
1400 2
1401 7
1402 6
1403 2
1404 4
1405 8
1406 1
1407 9
1408 7
1409 9
1410 7
1411 2
1412 9
1413 6
1414 1
1415 7
1416 6
1417 8
1418 1
1419 5
1420 6
1421 4
1422 8
1423 3
1424 8
1425 8
1426 8
1427 9
1428 9
1429 4
1430 7
1431 6
1432 8
1433 8
1434 9
1435 6
1436 6
1437 8
1438 2
1439 9
1440 3
1441 8
1442 1
1443 3
1444 2
1445 9
1446 3
1447 7
1448 5
1449 8
1450 7
1451 4
1452 6
1453 6
1454 3
1455 8
1456 9
1457 3
1458 5
1459 1
1460 6
1461 4
1462 6
1463 4
1464 5
1465 1
1466 5
1467 4
1468 5
1469 1
1470 1
1471 6
1472 4
1473 2
1474 1
1475 5
1476 7
1477 4
1478 1
1479 4
1480 4
1481 2
1482 5
1483 2
1484 9
1485 1
1486 6
1487 3
1488 4
1489 3
1490 4
1491 3
1492 9
1493 2
1494 8
1495 6
1496 6
1497 6
1498 1
1499 7
1500 1
1501 4
1502 6
1503 7
1504 9
1505 8
1506 7
1507 7
1508 9
1509 2
1510 7
1511 7
1512 9
1513 7
1514 8
1515 6
1516 2
1517 7
1518 5
1519 8
1520 4
1521 7
1522 7
1523 6
1524 7
1525 7
1526 5
1527 4
1528 2
1529 8
1530 8
1531 8
1532 6
1533 5
1534 4
1535 1
1536 3
1537 6
1538 6
1539 6
1540 2
1541 9
1542 8
1543 1
1544 6
1545 2
1546 3
1547 3
1548 1
1549 3
1550 8
1551 6
1552 6
1553 6
1554 3
1555 2
1556 3
1557 2
1558 2
1559 4
1560 5
1561 4
1562 2
1563 4
1564 9
1565 2
1566 8
1567 8
1568 4
1569 9
1570 5
1571 8
1572 9
1573 1
1574 4
1575 7
1576 3
1577 1
1578 4
1579 4
1580 3
1581 3
1582 4
1583 4
1584 7
1585 9
1586 7
1587 8
1588 9
1589 2
1590 6
1591 3
1592 3
1593 4
1594 3
1595 8
1596 7
1597 5
1598 1
1599 8
1600 2
1601 7
1602 7
1603 3
1604 1
1605 6
1606 7
1607 1
1608 6
1609 7
1610 5
1611 7
1612 9
1613 5
1614 1
1615 1
1616 8
1617 2
1618 3
1619 2
1620 2
1621 3
1622 5
1623 8
1624 5
1625 1
1626 7
1627 6
1628 9
1629 6
1630 9
1631 6
1632 5
1633 3
1634 6
1635 1
1636 5
1637 7
1638 3
1639 7
1640 9
1641 3
1642 2
1643 1
1644 4
1645 7
1646 1
1647 6
1648 9
1649 7
1650 7
1651 5
1652 1
1653 5
1654 9
1655 6
1656 8
1657 3
1658 5
1659 2
1660 6
1661 5
1662 9
1663 6
1664 8
1665 7
1666 8
1667 1
1668 3
1669 7
1670 2
1671 7
1672 5
1673 7
1674 5
1675 2
1676 1
1677 9
1678 3
1679 7
1680 4
1681 4
1682 8
1683 8
1684 4
1685 9
1686 8
1687 1
1688 1
1689 2
1690 5
1691 6
1692 9
1693 4
1694 6
1695 3
1696 8
1697 7
1698 6
1699 5
1700 8
1701 2
1702 9
1703 2
1704 7
1705 1
1706 5
1707 1
1708 2
1709 9
1710 2
1711 1
1712 3
1713 3
1714 2
1715 3
1716 8
1717 5
1718 7
1719 9
1720 7
1721 1
1722 2
1723 7
1724 2
1725 8
1726 2
1727 7
1728 8
1729 8
1730 5
1731 5
1732 7
1733 8
1734 9
1735 8
1736 8
1737 1
1738 7
1739 8
1740 5
1741 4
1742 1
1743 3
1744 7
1745 7
1746 4
1747 6
1748 2
1749 9
1750 3
1751 8
1752 8
1753 7
1754 6
1755 1
1756 7
1757 1
1758 9
1759 1
1760 7
1761 6
1762 3
1763 1
1764 5
1765 3
1766 1
1767 2
1768 7
1769 9
1770 8
1771 6
1772 1
1773 3
1774 3
1775 3
1776 3
1777 8
1778 2
1779 6
1780 4
1781 6
1782 2
1783 3
1784 2
1785 7
1786 1
1787 1
1788 6
1789 9
1790 8
1791 5
1792 2
1793 7
1794 6
1795 1
1796 9
1797 8
1798 7
1799 3
1800 5
1801 6
1802 4
1803 2
1804 1
1805 9
1806 4
1807 2
1808 2
1809 7
1810 2
1811 5
1812 5
1813 7
1814 4
1815 7
1816 3
1817 8
1818 5
1819 1
1820 8
1821 3
1822 9
1823 7
1824 2
1825 9
1826 6
1827 9
1828 4
1829 6
1830 5
1831 9
1832 9
1833 8
1834 1
1835 2
1836 8
1837 1
1838 9
1839 4
1840 8
1841 7
1842 7
1843 3
1844 6
1845 6
1846 4
1847 2
1848 9
1849 3
1850 2
1851 3
1852 8
1853 9
1854 1
1855 8
1856 3
1857 6
1858 4
1859 1
1860 4
1861 4
1862 1
1863 9
1864 2
1865 4
1866 1
1867 4
1868 5
1869 9
1870 6
1871 8
1872 3
1873 3
1874 3
1875 3
1876 9
1877 7
1878 3
1879 1
1880 6
1881 3
1882 5
1883 3
1884 8
1885 5
1886 4
1887 7
1888 1
1889 6
1890 2
1891 2
1892 2
1893 8
1894 1
1895 4
1896 3
1897 6
1898 3
1899 3
1900 9
1901 1
1902 7
1903 1
1904 5
1905 3
1906 7
1907 5
1908 7
1909 5
1910 6
1911 4
1912 1
1913 9
1914 9
1915 9
1916 6
1917 3
1918 8
1919 6
1920 2
1921 7
1922 4
1923 2
1924 4
1925 7
1926 6
1927 4
1928 6
1929 3
1930 8
1931 4
1932 1
1933 6
1934 3
1935 7
1936 4
1937 1
1938 9
1939 4
1940 8
1941 3
1942 2
1943 8
1944 4
1945 9
1946 2
1947 5
1948 5
1949 6
1950 6
1951 3
1952 9
1953 7
1954 7
1955 9
1956 2
1957 9
1958 9
1959 1
1960 8
1961 3
1962 2
1963 9
1964 7
1965 5
1966 4
1967 9
1968 3
1969 3
1970 2
1971 1
1972 1
1973 2
1974 6
1975 9
1976 5
1977 8
1978 3
1979 2
1980 8
1981 1
1982 4
1983 9
1984 8
1985 3
1986 4
1987 9
1988 8
1989 8
1990 7
1991 7
1992 7
1993 5
1994 4
1995 5
1996 9
1997 4
1998 1
1999 1
2000 3
2001 5
DEPOT_SECTION
1
-1
EOF
