NAME : gen2000_005
COMMENT : uniform customers, demands 1..9, generated by bench/make_tuning_set.py
TYPE : CVRP
DIMENSION : 2001
EDGE_WEIGHT_TYPE : EUC_2D
CAPACITY : 300
NODE_COORD_SECTION
1 0.7943483172236738 0.8061243029780463
2 0.739768243482019 0.7071149266732434
3 0.4276044540061288 0.4757381866588172
4 0.041181431393927714 0.7602156316035685
5 0.5210171474509929 0.14070779951416346
6 0.21774860219700531 0.9455720401625272
7 0.1778634126741363 0.09175639329449714
8 0.31117116227317954 0.2445857252548832
9 0.977106569624665 0.04468035665005943
10 0.08073778816342825 0.4144031800410837
11 0.5118372533356788 0.14571344933144126
12 0.7433271714104723 0.9850220865960436
13 0.17991915060794128 0.3584495099224073
14 0.39789628894930995 0.587907619806388
15 0.11515178762244815 0.8779664142451749
16 0.9918474227757351 0.28559727144663494
17 0.5781807868061658 0.29770756685082356
18 0.4827043693240848 0.9031971086940169
19 0.38044670748603926 0.8510811803403369
20 0.4326444510369263 0.6176041731202256
21 0.8401855427843032 0.07040777959528044
22 0.45845771816158465 0.7248789301164742
23 0.7977192122503269 0.30909614845375777
24 0.5483118215909769 0.18382569950445515
25 0.16904204415102664 0.2611482302550563
26 0.852731776118373 0.3474540302618788
27 0.5369749417438621 0.2883191808442952
28 0.16994198880722322 0.13252036057712413
29 0.883758167747027 0.6737165561614664
30 0.28379556498375413 0.2123846423007456
31 0.5802879680154605 0.8509914113420327
32 0.9338732521368215 0.684694441588005
33 0.9976715582250626 0.30681662911901264
34 0.6185455507787728 0.07253646030834893
35 0.20064048458350459 0.5984954213543745
36 0.21090632739818072 0.7963468647297766
37 0.6920736143532742 0.4511602884804048
38 0.9476912563607359 0.7962672824772147
39 0.9343459855740595 0.4824870369132809
40 0.7325962032967717 0.8922223629300315
41 0.6112978116520912 0.5389342426407703
42 0.6600458207604616 0.5209882560816768
43 0.3142637837870771 0.23123147512886255
44 0.05084404854566127 0.15200718270320968
45 0.9274472715630587 0.7459344530805382
46 0.33963968890431884 0.13785112482832873
47 0.717057740352949 0.16903510047837278
48 0.6401347962750391 0.3648483659555747
49 0.970758492346911 0.15377058582568115
50 0.44217786730493447 0.686486705362809
51 0.6892443077663127 0.5269210986319429
52 0.6955000272554814 0.40215189271526064
53 0.8459580798323802 0.8059941879060237
54 0.7782410692279733 0.2357105814573951
55 0.8181565989558921 0.11046543608230641
56 0.9201473020349953 0.6735534820420311
57 0.9237127469624344 0.39320678316944313
58 0.2721510567608474 0.6434254065892658
59 0.3434673452280702 0.7585897568703764
60 0.7508236747449772 0.28472488920290406
61 0.682731354454666 0.15643906525579687
62 0.1396406248798011 0.4899407721760062
63 0.8679032153603694 0.2772383714758001
64 0.01916992167780207 0.8068493213955851
65 0.9897575480241598 0.7741594868151682
66 0.42569235750290646 0.19163793535294582
67 0.4728049631029334 0.37506129876847516
68 0.5230684949825531 0.1741328213741672
69 0.21846459525637307 0.051083306872370615
70 0.12015416423086733 0.6390624588527283
71 0.5161304599722585 0.0713927724959853
72 0.9235565259578208 0.25530063150328175
73 0.7867863672034193 0.625747959516788
74 0.7581143669866668 0.8564018874283923
75 0.6383637237823525 0.2878893079463368
76 0.5904119868188618 0.12398095488783678
77 0.18026523904922753 0.7679242852273968
78 0.936600109104145 0.2979098234150872
79 0.04296319911049118 0.1323188681868751
80 0.3622138740750408 0.5253754588552692
81 0.5564122449005955 0.4952482935596786
82 0.5112899062471514 0.48298919196573
83 0.7032754885011947 0.18877548347816686
84 0.6053305152860361 0.5222042951440659
85 0.6345274459909482 0.3265567686360984
86 0.026753918533043097 0.13950246115697484
87 0.34514667870726 0.42851953383688723
88 0.6320428137312214 0.25617964629037104
89 0.7621223219661114 0.1909790847217726
90 0.7533653291985367 0.26424205701022174
91 0.9156814991326192 0.2333216931686466
92 0.19975861449372123 0.4675637772672453
93 0.06038605078392445 0.8145215323505433
94 0.5641638461889746 0.8472009560989077
95 0.24038309582307182 0.4435881636362097
96 0.039500009710543904 0.3306283394886359
97 0.24224477517238596 0.8995080134666537
98 0.9002562220369283 0.14877554502555312
99 0.8700484179097964 0.25853022146617355
100 0.005912088876540822 0.42487766914922664
101 0.3712729607638092 0.4386348988186053
102 0.2993152926236421 0.6463544493553541
103 0.773325521876502 0.6263374046075009
104 0.860186096073795 0.04658661459891078
105 0.2687702519002614 0.2267885677274899
106 0.9117882363756459 0.33304065845812314
107 0.3215119691741193 0.844233971753956
108 0.8616735989451808 0.6515814026822949
109 0.940707391881323 0.9592552919284355
110 0.19867837966099577 0.32957922030146325
111 0.17670397404853133 0.14259151239757517
112 0.7893792034279529 0.5127015220920732
113 0.008420250663850437 0.008347077986690765
114 0.7009519379436494 0.8344663922959522
115 0.7541355580016408 0.2717790980950071
116 0.5574011510335767 0.8153631981036025
117 0.422864447973319 0.766024810106639
118 0.33310262408275626 0.4417442632847016
119 0.17226355328352916 0.9032657334541693
120 0.6810486036046524 0.8891745360392748
121 0.6019809150321481 0.10537766255298309
122 0.8962692585247248 0.13125829319078475
123 0.6964234983475609 0.12502058128050642
124 0.44056912015052807 0.33575080284612935
125 0.5859656725095272 0.6113182850584151
126 0.8430991574472058 0.6973925508155733
127 0.24462222219890606 0.46900454033624894
128 0.8087923736219258 0.7225275185036297
129 0.9178232905534129 0.5821175323063549
130 0.3869269590508395 0.9383821441017707
131 0.6333441418332696 0.23265157652334267
132 0.836392064772041 0.986870251272757
133 0.8262126320492749 0.734920181720838
134 0.4861942837390937 0.6137960280050958
135 0.973229968983648 0.26522571865823585
136 0.36690157944339696 0.4227561898137282
137 0.8657365413041544 0.8543128907508706
138 0.08232666113077924 0.23681303602525405
139 0.6710051202854046 0.5244231774695758
140 0.22406363686482478 0.4336081378333748
141 0.8366611814400291 0.1179542021089498
142 0.9816466038114607 0.8588478598663755
143 0.5435232045540055 0.4605259312030284
144 0.605229688995989 0.1918554581265527
145 0.4238447518950642 0.7652231234848258
146 0.5505405012992883 0.2700235769235445
147 0.23877604622567172 0.8180267054547056
148 0.11475314612372112 0.20216358056694472
149 0.4458631898943394 0.6366813900660112
150 0.7981474422007893 0.32775173057124063
151 0.8587299886511891 0.5943826179154897
152 0.8669241169618576 0.985745943697859
153 0.5537604449295258 0.7109757420514572
154 0.6940661307336603 0.8350350593969962
155 0.20987562286835082 0.7474525182993009
156 0.5646395444220608 0.4671124002640591
157 0.6139097208000834 0.5278981093838931
158 0.3023263330941537 0.06226067933029178
159 0.6018088713886627 0.008890088427032095
160 0.7444877258254425 0.46189830863637715
161 0.4574755340724107 0.5816945032373637
162 0.48123512132317514 0.018967547761939985
163 0.7543129233441367 0.37456486712471615
164 0.15630717281905138 0.2992998257782147
165 0.14017800344587295 0.28244016865474286
166 0.4235292698184161 0.5053767020164331
167 0.10897773927295595 0.21043807546786808
168 0.26504663689483166 0.8799638638197602
169 0.7546165792989303 0.18122918918800546
170 0.2032930090064472 0.8318737291742716
171 0.10395094856285558 0.20324811570206802
172 0.5687064301147934 0.8678959564330874
173 0.8121702944507186 0.6194823982427489
174 0.7101330838414273 0.44715723577783073
175 0.4439335590478346 0.34914558744831425
176 0.19919985948789165 0.053035566622313346
177 0.9799348042974179 0.6512361078087242
178 0.8389240589529271 0.867013760861456
179 0.42995999744647273 0.692456846272268
180 0.9329466692209902 0.43678598750031317
181 0.08859391274779971 0.5497699287484467
182 0.41515711665586486 0.22320361515697174
183 0.9109639928957138 0.6011012003724329
184 0.4667173724184688 0.9831374077755062
185 0.5299224914679647 0.28683463667183884
186 0.9659533379005727 0.8605602618268856
187 0.30158344572671425 0.32132468206632403
188 0.12345415187940922 0.8079580016632293
189 0.5936191416111144 0.8677541053080023
190 0.37372957504848836 0.009933754840668163
191 0.545392113232682 0.12143015695815462
192 0.796744865567065 0.9176789547741063
193 0.9703855988193715 0.3123683905009361
194 0.42755851024448965 0.3976980233184898
195 0.8453560187130805 0.12038175168770227
196 0.3126076606247674 0.402726522632904
197 0.48630953836449364 0.6906203872570077
198 0.8550038045376889 0.45261380231917026
199 0.291037726852973 0.9738286962011371
200 0.7108166300620365 0.5484334234920051
201 0.15430629970960308 0.44367702534260467
202 0.5324475876650138 0.36032614133375596
203 0.6785440426331617 0.7114903090703967
204 0.9056185742472412 0.09666666876286523
205 0.39040667899713 0.5102732024695463
206 0.06913811720594198 0.9102502736848999
207 0.010665945311942315 0.9440822617203722
208 0.06703871436584952 0.6873432795534561
209 0.4704532551860906 0.09171511786502118
210 0.5854484880299797 0.9257724025320285
211 0.19876125007405387 0.9781423722244343
212 0.10683204256090362 0.7447905494211434
213 0.09723683913408876 0.630154676068276
214 0.9712884828346211 0.39111671351088495
215 0.9029680648715764 0.6348866319690255
216 0.8758090959845147 0.6441473852718371
217 0.14686219250741295 0.7698085539511579
218 0.30628554720085 0.4747025856911641
219 0.7557252935690718 0.8092345301916659
220 0.8721967548395896 0.4002949540758761
221 0.4004661515641792 0.8965315639300083
222 0.8850783682858309 0.696280458132784
223 0.26613842628212314 0.7415734342191915
224 0.711514055093687 0.30604100816847346
225 0.5215676495218757 0.7457882809430859
226 0.6516986072867818 0.22911495976760643
227 0.4287780830651645 0.15181764564987343
228 0.06599572228339035 0.7382443575164472
229 0.7260771240101246 0.33652868412953063
230 0.8137807060557362 0.4683407945506032
231 0.322316200878931 0.042778895176135645
232 0.5154677685345973 0.7743442844759401
233 0.8640189071147265 0.32955099262410525
234 0.0664884068471393 0.47160243305783534
235 0.8212994147122245 0.25586811881853744
236 0.5447635554557348 0.5690034810557014
237 0.6174432036445254 0.33878477256551986
238 0.9238065645278638 0.9666501523115841
239 0.08217628784273612 0.4242473966246676
240 0.49358393148892643 0.6430258181871926
241 0.05430307235886134 0.03968486835162022
242 0.5758220965940071 0.14471648878482757
243 0.3407405517827804 0.5908019346528078
244 0.833118639726107 0.021149692382488317
245 0.9399253029332443 0.46705156001553383
246 0.30472195463676444 0.9950007499263184
247 0.31270909310705 0.48345262189942684
248 0.9062122420969201 0.19596102993933107
249 0.7983524738157624 0.3689113312978408
250 0.8366741706996916 0.4427202617407632
251 0.3590309372301118 0.8900496367465845
252 0.10867441471084793 0.17202647977694818
253 0.5812116949738293 0.8433559036698605
254 0.8161520790727765 0.008646757493156798
255 0.5279875451317874 0.7969685200986378
256 0.8735132482339342 0.9800004461891456
257 0.8559719639983575 0.21275003104993062
258 0.4162124160260219 0.43774241665966984
259 0.10379386748190922 0.8509066736425975
260 0.3670634515343907 0.291007084027581
261 0.5832335269983038 0.9337990761462059
262 0.25601243232410564 0.013710628392913149
263 0.6470306832922671 0.528088281730739
264 0.7297058794480794 0.7528354474273198
265 0.12260322761021858 0.5784841021891918
266 0.8913530326420842 0.2792258423104268
267 0.2421756631783235 0.04063373561290795
268 0.4012331090332173 0.3923507540786413
269 0.3270111385998843 0.899643301692597
270 0.796880205000581 0.46384376260987803
271 0.4107334120026055 0.7955146589629024
272 0.6649151582124108 0.8332051999875867
273 0.8372813750407977 0.017873436244272733
274 0.9107809883593941 0.8582752709899008
275 0.10336494405191177 0.09432747040064116
276 0.27950348290852833 0.2554310484562068
277 0.03559571867384159 0.7770124288051522
278 0.0575418013507103 0.5568249623974607
279 0.29057365076754704 0.7137661540156668
280 0.6605874060658842 0.5035920505043238
281 0.49912601495778985 0.30833912817036346
282 0.2197512625646032 0.1937539177882066
283 0.2085371320647358 0.6357664173907542
284 0.8949942648106195 0.12712955953158667
285 0.4354535855913171 0.6922428771236027
286 0.7171808991449548 0.6232551584903105
287 0.8867767526297192 0.1783037739076937
288 0.3303301376229608 0.6435196459882325
289 0.9924581481846634 0.6417500153869458
290 0.5015619360898431 0.8846994368006849
291 0.014176017663555585 0.8221647406823893
292 0.49660830770118114 0.79640866168202
293 0.3392251970280039 0.6989106968462476
294 0.15584054162861272 0.40174342217711445
295 0.015744348506876338 0.7289905835766874
296 0.4106718851223795 0.2804420017134822
297 0.35379959964532137 0.2388285889868783
298 0.8965057596742877 0.05906397669801755
299 0.7699667708398814 0.8581262226576142
300 0.017207423444765557 0.6574103339074912
301 0.16024862943936702 0.043929466473056955
302 0.16799300044962762 0.475812311903522
303 0.9707379910581058 0.926039698630889
304 0.7141643410411305 0.1522239864314724
305 0.41619261199109914 0.15820444375051668
306 0.3897211155172112 0.9504543152396455
307 0.712057829385749 0.481952123156829
308 0.2494503513045513 0.491821130790111
309 0.8098166318216108 0.9494454601274573
310 0.48852672222924254 0.27186046086690463
311 0.7314056020580052 0.8166161360909705
312 0.38224376784833203 0.1479957713268446
313 0.32976099982147145 0.4873071105617376
314 0.24301734243163142 0.9068329949980375
315 0.1908842416348655 0.611558406461872
316 0.5204893207360428 0.1696314715395283
317 0.5345215988454871 0.2911660849719032
318 0.7175404829627033 0.5317913246401557
319 0.8321265801025012 0.5173698339486331
320 0.47944975569629 0.7457207855019001
321 0.7024247257568674 0.22263937783447052
322 0.4431256428189392 0.44700281539829056
323 0.7005365541195351 0.1737851150022145
324 0.6550793374644523 0.22327148054353962
325 0.8205180817048013 0.1561933052347122
326 0.35380067588761 0.1792059164261791
327 0.8201709037736655 0.023717495960608237
328 0.91577326156819 0.2523016020987775
329 0.613956645022623 0.8876297821568803
330 0.5390026902467786 0.9083820482948693
331 0.9529284996439285 0.2553565039330348
332 0.9345691624079088 0.8396923505717884
333 0.09011615608677714 0.3591809924349997
334 0.6954051462054553 0.12233775594482177
335 0.7211252709988603 0.9200669093990294
336 0.9298149430479915 0.25393295158222684
337 0.6191968807983794 0.43008978445994017
338 0.11923561675949523 0.6226413056008172
339 0.5976395561661283 0.5241061126573295
340 0.9057817237562261 0.08093817676715576
341 0.42177065826247817 0.1630664239575228
342 0.7481205867888868 0.7758743281143071
343 0.4997475601372249 0.8622125250009302
344 0.06201216080796923 0.5164396541751242
345 0.387581097661305 0.22460179106080203
346 0.5782499721589558 0.8017721623075579
347 0.054245673250530424 0.805817257666439
348 0.2925708679930925 0.5175178395123168
349 0.7084620849959903 0.36031725831526495
350 0.9119981893609093 0.5239388763577764
351 0.9473282029033376 0.021059767920538097
352 0.8373458939018964 0.15646690259970708
353 0.7985077426319954 0.1860233662117261
354 0.5443829994604912 0.5657167797126214
355 0.5480322504090539 0.5667190277686622
356 0.4759074344380477 0.5312685852200967
357 0.819973615946262 0.7853624891566956
358 0.2399474392036559 0.27166501234543916
359 0.8420349425631762 0.8455832986458194
360 0.7891622504177095 0.3495327460715265
361 0.4513137147860792 0.10873358105821129
362 0.8665424578777013 0.35197814894439905
363 0.11037194391809779 0.7230581045606068
364 0.597128192198524 0.9745959545607887
365 0.17035919596810412 0.5697361184106929
366 0.18145272930344958 0.930757595412659
367 0.4957947473894182 0.5930084611855794
368 0.3610949724080542 0.17050793796806862
369 0.8748283200177507 0.3327314705439003
370 0.17157063462881206 0.7604013346362506
371 0.7150900097991646 0.7931281284707602
372 0.7902608241871328 0.6718327231803123
373 0.9114430272178307 0.6064437802093545
374 0.5549923659456926 0.5980450693728264
375 0.2934572518971368 0.3498557896169948
376 0.18807595552827172 0.7963509760649792
377 0.12438419394764166 0.5387933207802733
378 0.7745858843056336 0.7627271305555992
379 0.3488560179246878 0.9961005730053734
380 0.8188273542707479 0.6993905350816743
381 0.8004629867291295 0.09393036173278047
382 0.7660279575041742 0.7848020945579889
383 0.19229169519711387 0.6645989782724009
384 0.5736648042887419 0.11245902212419323
385 0.6496483988131578 0.2712625877037611
386 0.9749553079316002 0.189646380946778
387 0.9515569372690972 0.9367924892823213
388 0.893289211055361 0.06543553848481343
389 0.5192010422915563 0.026251437905116748
390 0.8717078346927185 0.10763555713608719
391 0.4769796030926119 0.8637416274916105
392 0.4972002561000899 0.3579716348878107
393 0.5371424698713985 0.12620866438894396
394 0.161792921872145 0.4468664622453148
395 0.43156017302761185 0.7213393473011667
396 0.21301643583988228 0.36618432587876093
397 0.3992231273829514 0.23338703836844754
398 0.1539866678033669 0.9791276580385987
399 0.9552282690100637 0.7985008621232809
400 0.3409156234110514 0.5626760436155676
401 0.9712837280279889 0.9586022530008028
402 0.8261201933832566 0.7397064552899181
403 0.48376836560598013 0.22059484919176808
404 0.9883073801514932 0.3736785009012714
405 0.9790593700209939 0.8956537391304444
406 0.7448446559003711 0.4718610825714843
407 0.1067340608475923 0.44050587554996523
408 0.6646780408104294 0.4944333133202852
409 0.7234144024931447 0.5448570818625674
410 0.16077391195164603 0.08000896306856686
411 0.9914174160475117 0.6430158955218229
412 0.790678560558232 0.9606327019889975
413 0.01358966833586972 0.2846872928288857
414 0.02404636913710445 0.6072912515516696
415 0.3355218794961301 0.007938972877941874
416 0.3059721843705334 0.7669609804112743
417 0.9503161891357039 0.1101257752051027
418 0.41623311125530316 0.1386477812466087
419 0.16789217608479257 0.4544881349167781
420 0.9017392962098666 0.6353237346202865
421 0.5282150326762401 0.43396261065089803
422 0.09828493465911337 0.19076347279768358
423 0.6256084889137187 0.30976444770262557
424 0.9575652900581445 0.13503328644106294
425 0.337852507723586 0.8488685383797091
426 0.6352592858633299 0.0039965171592011295
427 0.33661115748158565 0.18023777856377377
428 0.47323090861746697 0.21836668644805446
429 0.6812274379747774 0.8649284271899269
430 0.6809806390282115 0.8438014114151678
431 0.4917098028157201 0.3199440983723102
432 0.4419125316601915 0.26445340877952106
433 0.9251821810076241 0.4121748556875895
434 0.3622939714320841 0.24392876086685134
435 0.839262122493 0.8583894827849435
436 0.7828878894910245 0.9622628938791679
437 0.13071146740490824 0.12055085880889238
438 0.6693548374559739 0.8492778330363756
439 0.6628962123906347 0.33467120708475384
440 0.4985123724653082 0.32565968151378033
441 0.40671346754683313 0.0553440656161126
442 0.7682896476758804 0.4448219731899926
443 0.8033427266365094 0.569328726758524
444 0.30092146921130136 0.8090939665921129
445 0.7388937866268966 0.9292811061021966
446 0.5178587388771781 0.2933837783652682
447 0.07962212785331002 0.27565725163010213
448 0.6664813859016367 0.6892660685331113
449 0.7448009974844415 0.605048635466286
450 0.7889341425921723 0.5602964103915452
451 0.9895235194573018 0.03281486714117832
452 0.2048033875511135 0.4753245900768538
453 0.10260460248937842 0.9495130693271062
454 0.47810287942414864 0.41873336687524587
455 0.5052149809939027 0.7339099572480389
456 0.7656265746866245 0.7248789164180198
457 0.2856846097177922 0.45032611495622865
458 0.13532255282880246 0.3002538470261993
459 0.0191052903683544 0.13750671183074958
460 0.6146596069839146 0.8501084327558915
461 0.3711870992586628 0.09829748316117481
462 0.8149737099869651 0.08477464316555439
463 0.5663137813829446 0.9898199519438259
464 0.007770447154802129 0.8180797334425343
465 0.11485730243255687 0.49642305491787864
466 0.8811962354325824 0.539188819211759
467 0.2773232699317949 0.4030199504586457
468 0.5988131420395141 0.10939725895303365
469 0.6430882927271445 0.21380467123379965
470 0.5051321128863807 0.5907367418926944
471 0.12699263730839072 0.995171561428928
472 0.12134678722742465 0.9603904961698834
473 0.9179307511634598 0.45029368488476773
474 0.16572815010927422 0.5164861122032973
475 0.833757841568817 0.8258033571963379
476 0.2588931623207864 0.4463509045370856
477 0.26143464143264716 0.6527754034159887
478 0.7256510398960643 0.6327901449947654
479 0.8482751938300394 0.07803940333899873
480 0.39964520975498585 0.08348691626993021
481 0.8401584587694527 0.39691669733766566
482 0.9418272729735366 0.14968603614267206
483 0.9011886135858134 0.3605820830839537
484 0.8855735785075664 0.6489515437519651
485 0.38231332173120314 0.515526846198967
486 0.6065380962039525 0.27332812354282854
487 0.44048394096523924 0.7339766596830202
488 0.3818942384418432 0.35980030403413854
489 0.34034728217005505 0.4516022989614409
490 0.01926961997686183 0.05606891048145857
491 0.6970455222593551 0.07490634166810417
492 0.600633015112693 0.6018010426809034
493 0.3580240061442803 0.36983348718227804
494 0.4251657887447682 0.4240911937455065
495 0.8345339506883257 0.11868324361741078
496 0.32288682731009355 0.2643619392987717
497 0.3329819824692841 0.6721230904313092
498 0.19733251620266123 0.33459520588814373
499 0.7535970508994524 0.785934884325421
500 0.0550766720329704 0.966458051499348
501 0.20472753661872622 0.39874242503209856
502 0.37968367155750127 0.4098915491243079
503 0.39281407304074534 0.11290810353217096
504 0.7557790307093594 0.2822676774500321
505 0.5143561238126476 0.7950733366171133
506 0.20629082410535127 0.9410238384501021
507 0.3631099986762787 0.920512810544261
508 0.7152271964387726 0.48486873368739225
509 0.32100502787695606 0.6318049118316356
510 0.5090495874325486 0.25961808958074983
511 0.9596229793610402 0.40018680367118
512 0.7467848556151946 0.288162411768786
513 0.8952555374728134 0.969328929888902
514 0.28850428777652193 0.0427689395374965
515 0.829652766852914 0.11801921925744374
516 0.3261793009248859 0.7467410527389639
517 0.004227674836034034 0.016502747715932187
518 0.16348096473486706 0.47317008031899765
519 0.14087322013671144 0.6564951703020987
520 0.1650582237096181 0.18741050920792413
521 0.5018110568171212 0.5422274833728844
522 0.5310899466646424 0.7216133710625584
523 0.2614328226316449 0.8358011801223412
524 0.1900621650788452 0.7838850532609241
525 0.211287443738699 0.8754494415952834
526 0.663948050157164 0.3954455125926878
527 0.6831567046038933 0.4804333829835561
528 0.037842736315307435 0.4676821706073335
529 0.7655619431538241 0.9108483519876455
530 0.22772080316631194 0.36510769107699204
531 0.5821263763905948 0.36539060386759414
532 0.8584774171586848 0.19712682637410417
533 0.07354282052020011 0.9618887632794944
534 0.3296138822451691 0.28402030805570766
535 0.9950657322999867 0.24010932543483832
536 0.5507575990275776 0.4905902867429244
537 0.646105228547844 0.01756863799053332
538 0.5720886789608632 0.6818338770920299
539 0.021202913932430678 0.3440266828965921
540 0.07556360173365773 0.7725115565917502
541 0.3516098165378667 0.21682129595560173
542 0.8063625879320344 0.6626321329919895
543 0.5809184561449141 0.03365604278341272
544 0.8770497397846977 0.7901162187193308
545 0.6793526667066079 0.7178275703681694
546 0.5652494698170363 0.47160918568825927
547 0.6489722587916387 0.3470577249281439
548 0.9992642389828406 0.26304212612590383
549 0.1292642743700756 0.9861182998890908
550 0.5297766077409312 0.31389519745697325
551 0.7499707085589322 0.3618161758251759
552 0.5970147169704328 0.09623385265561435
553 0.7877903839045628 0.18101696370438125
554 0.20233436022634088 0.19051400652646633
555 0.4867112937466864 0.6631037150482805
556 0.700616091390778 0.45338288015416495
557 0.044556871511075236 0.24156864414423596
558 0.3963759821664051 0.6898986723725397
559 0.9384112931868128 0.19616774218309907
560 0.7712868617426275 0.6924532373298438
561 0.6228594497379037 0.2757716963834099
562 0.5147948114040269 0.06362538063193035
563 0.8690841286677944 0.14378040363336142
564 0.44574407368379865 0.24028814413797417
565 0.7144401789295387 0.4336628345765007
566 0.5418104457790346 0.5296844225884628
567 0.45513086114684764 0.13794464534217943
568 0.8354233282537502 0.24421224899437888
569 0.192338967016895 0.5505885029239105
570 0.38799588853200395 0.45378641172219714
571 0.9203889854122265 0.9050083157882957
572 0.24915957138266542 0.2722342344212255
573 0.5636435837194348 0.7261780462600532
574 0.0936842354890699 0.4813697759568548
575 0.46296932146426073 0.1755108497745559
576 0.20431605027591027 0.42754750901175975
577 0.41506118320057017 0.7000731164355507
578 0.701171783269946 0.14535178997902598
579 0.046619553375625955 0.9962611527162903
580 0.8824423124203477 0.7474670052803754
581 0.4997372837086662 0.0005770770317236051
582 0.2862305153488296 0.5971334027969596
583 0.8832431016377589 0.3659167044008421
584 0.6826940889796533 0.11879285167008602
585 0.8836681955481509 0.7012239398099068
586 0.06077301175184102 0.2551877653867137
587 0.9956009444432499 0.37688803495344525
588 0.5606208851011522 0.010239439731452915
589 0.8274457863026943 0.5690874233045037
590 0.9020842419220769 0.8739675251221329
591 0.6789461472628503 0.14196015911263238
592 0.5978844535837399 0.06283353303221262
593 0.09522738760941307 0.7900094232241998
594 0.42318644865869026 0.4047299047671492
595 0.7804898264212313 0.9930293042085447
596 0.7380154535067536 0.12700163014059795
597 0.18072597395083578 0.5657420331218649
598 0.08397485482634359 0.06420340780375089
599 0.13867908959453068 0.8741257617967841
600 0.23546257868752385 0.2922190813783304
601 0.05623689802310938 0.46563285103831653
602 0.3832186118453039 0.6881460790536543
603 0.5414579878174234 0.5898633174144965
604 0.44779473070082554 0.45014919938920406
605 0.7679765760577757 0.6039361458830967
606 0.8427261301909724 0.9584992104341561
607 0.8264690240632121 0.531771092860883
608 0.054486152094360696 0.6877465768907731
609 0.3115730598577522 0.0538715672418667
610 0.7965526272723906 0.209104138400806
611 0.4542957557144913 0.19140553180292175
612 0.37403732763079545 0.0963692143911602
613 0.2665024908207645 0.4503363931622273
614 0.1176469425081409 0.07800217395482711
615 0.548613292211236 0.8691460286541575
616 0.9254960761227871 0.05200136390076049
617 0.9751133672196115 0.3522879245106334
618 0.3526577622185183 0.8452995582462488
619 0.6927693730548186 0.5522874105753474
620 0.005513456530248373 0.3375047221190802
621 0.3191616104580749 0.4015455299486055
622 0.6808907411899248 0.25428125449066763
623 0.8264331021909175 0.4880129071334044
624 0.8176515586787528 0.18975887034650518
625 0.8244749904342913 0.7606087324602538
626 0.8644382815273526 0.6441749676894867
627 0.3788761786483864 0.1568908219846883
628 0.32398493588869903 0.16534841895772057
629 0.8767291598623049 0.3448345524127979
630 0.6631373293981379 0.5887594673518759
631 0.8607533829306127 0.5318684915365522
632 0.14379649726774935 0.7484831196294086
633 0.12223140456169479 0.7725032960041041
634 0.5943976315896774 0.1585632011225261
635 0.4422758726881333 0.7915364059335032
636 0.5880799921624319 0.835648306300045
637 0.2194957344506293 0.15120070588134638
638 0.563134570209186 0.6502198773307928
639 0.7469224778068115 0.5834541395528631
640 0.8614648514086554 0.5161118931367972
641 0.4962789970649868 0.6913851278430787
642 0.4325104561122588 0.3304963257695096
643 0.885861288003539 0.7806233318236372
644 0.7296535947567829 0.9090924615296982
645 0.8104754013052223 0.6382946061804515
646 0.8072427006964682 0.7679220357340939
647 0.5586021121846312 0.1703135220438533
648 0.3622943105950389 0.5960783550354364
649 0.6867689480670477 0.5463319805948474
650 0.3113761279456122 0.33864806894349353
651 0.11197010215061398 0.13438913702987632
652 0.10990238407913233 0.15416172539639805
653 0.45612032245322465 0.42212470505239774
654 0.7118334368120904 0.8223728021369026
655 0.7846400516848705 0.11473350609846455
656 0.5042288496563535 0.8702745616425308
657 0.10889107670511566 0.25716109154018474
658 0.7652580273388689 0.8480504513753578
659 0.8483351411028156 0.45803638523015044
660 0.04620842553273241 0.886385527647324
661 0.7507916613285662 0.36781500974216463
662 0.6373467934672086 0.9814963641372647
663 0.8012126970244755 0.8148424994237954
664 0.4774582519063274 0.8957755415640288
665 0.2874588759671348 0.44172878625684286
666 0.7146195776589604 0.20758013194517067
667 0.09016193778394832 0.6917572644166832
668 0.4091894348363574 0.4591719653950269
669 0.7363074527780578 0.8161459224514818
670 0.35624427099340206 0.04249521589870442
671 0.18298318756041754 0.44203381861315794
672 0.4749973922266927 0.4001274504540745
673 0.06786509226750903 0.2964325207284205
674 0.0631950128103057 0.5762354264253978
675 0.670362123204493 0.8428909938870293
676 0.5427251439568715 0.6706052118581799
677 0.6171275688986624 0.9543454163046917
678 0.009138166717678864 0.31371026256664325
679 0.8070465129994352 0.03821331918326165
680 0.7670682545642801 0.5757310509644291
681 0.9477741887228567 0.45515928987457466
682 0.049223026829839145 0.21862230256201431
683 0.8643890403186805 0.13569765317554472
684 0.6890804413384612 0.6193852233130525
685 0.45194731058524884 0.27655920263752687
686 0.7761292591383766 0.9375452158887457
687 0.48236186126576464 0.08457751256440371
688 0.09483663442831913 0.43727336888811863
689 0.16540250491813668 0.4711617012660627
690 0.14775824260746384 0.3443110889437061
691 0.9749962704382762 0.5721250531780234
692 0.12127813408717625 0.7563548923759883
693 0.8401283140994265 0.5074792814339013
694 0.8944141350364504 0.94538391029949
695 0.3279740104889505 0.07276046930601499
696 0.5171313246082523 0.02639476260432394
697 0.7655365084086997 0.5302903758623436
698 0.693364362470446 0.759183989871802
699 0.979659293025607 0.55229788239534
700 0.0015884895574025393 0.026314626737163338
701 0.8041045352465089 0.24644794357599598
702 0.8892806198101065 0.22679074637370422
703 0.5668991190756946 0.2574191635241897
704 0.10825438707860269 0.6846791761917567
705 0.5433958247643126 0.5615721958045807
706 0.7182026861520971 0.4403478640334707
707 0.35969577789773177 0.2785203693626942
708 0.9106529357754625 0.7118060703415371
709 0.6168229138135366 0.41451778679344664
710 0.9103006001480858 0.8688137645929359
711 0.9910004517103189 0.9250541024035666
712 0.054351608892811876 0.9053360666377898
713 0.11177368359364959 0.7191549622749691
714 0.4224541819463742 0.5327875168957431
715 0.7487224205733028 0.7666509326116395
716 0.9445143165040125 0.7847946246278125
717 0.18607877149793717 0.24500193616703414
718 0.33507624469933117 0.34515846515244475
719 0.31055190074885397 0.8679089070986096
720 0.768228610614244 0.3702772151693534
721 0.851555122345192 0.3562702734348221
722 0.7888180027117603 0.9913435172568043
723 0.2683555518049152 0.3928002997751928
724 0.649209151529395 0.10728183964915639
725 0.12668727204938945 0.5525502067476671
726 0.14055509593305449 0.7671368895999888
727 0.7963352688755071 0.42416130870184243
728 0.273157260872545 0.21776735045801798
729 0.19710129391352527 0.9465828308781215
730 0.4595761771740442 0.6297218810826917
731 0.7250722084383687 0.49319912386061426
732 0.7763185163538365 0.4029766617306959
733 0.871792030866381 0.5206986792845485
734 0.97071358670584 0.09377155854837416
735 0.7599824305382333 0.7165032846163567
736 0.06434841903288802 0.9110124771387804
737 0.9822110570610271 0.3284379668672889
738 0.8626181480681536 0.5293842129996794
739 0.5025032624475213 0.5101092575923433
740 0.6174800591564719 0.5668249426800925
741 0.7708295485557785 0.43173357889149244
742 0.48364005572068447 0.24860822739939548
743 0.34693134448467855 0.3346142991817923
744 0.24007077207659833 0.3456641777750077
745 0.056976018065047596 0.4782021928011204
746 0.288799984238729 0.7654152406269109
747 0.9162499109885676 0.39248274317706144
748 0.8313745616576675 0.1486573258252174
749 0.6689569596863256 0.43623570172767545
750 0.18794372686531036 0.6469265446300158
751 0.7011465092782933 0.19991409517170855
752 0.32425655776020734 0.7989037532019914
753 0.9807240961498799 0.6203457080627068
754 0.749839851343224 0.8507334793796331
755 0.5161295237307456 0.7354878472411974
756 0.2863702643905053 0.9740064718916958
757 0.8406858407748853 0.4062869674222611
758 0.2364247962831818 0.1317994202316034
759 0.4670404307076712 0.08662562870301505
760 0.6313620630400292 0.5281776162166997
761 0.37826592000962234 0.09427327257899076
762 0.4299212667117902 0.7097713135261249
763 0.4710119879224819 0.8981196846778877
764 0.08919406235983496 0.8328751349932734
765 0.36613482021822275 0.05765296613796267
766 0.08962556307935077 0.11277343439163057
767 0.26220927524098625 0.2529901318831067
768 0.8987329972598698 0.2847340663892528
769 0.7473929972293588 0.13034798959634886
770 0.3785320164367455 0.5468268842348732
771 0.8361414310456573 0.7548922077228438
772 0.9239869182017652 0.7073889476276258
773 0.3741304244654301 0.7252829241410161
774 0.94277009641534 0.06754295352059381
775 0.36489080710729616 0.9246730377855396
776 0.39874915060410054 0.08934892363873215
777 0.12117945057578905 0.5439102662124238
778 0.3053439993615682 0.46567114295671386
779 0.9657249223308867 0.9952989448705277
780 0.4395716982713004 0.6182764246535812
781 0.48421648530971484 0.9916701074985014
782 0.979570046199729 0.24225514808570026
783 0.45252073558185824 0.8500442508940096
784 0.7129890275762814 0.2996259431036373
785 0.5167717577747365 0.31284414749281286
786 0.41130142784171364 0.6727588832132101
787 0.5580283242105661 0.3230474976403156
788 0.505768003988501 0.7954454614229971
789 0.6354215811940761 0.9907883074774664
790 0.0855542764456062 0.2943592871030347
791 0.7059495181462626 0.07354090920992595
792 0.5458309894989298 0.17641866097998493
793 0.05004607051040377 0.6413634625424927
794 0.7295215365605769 0.11251116675731454
795 0.5521161766159923 0.6336687518703141
796 0.21294719955243469 0.7811372115575559
797 0.008054153682421128 0.01147166590655091
798 0.6408172055017363 0.2615083593290809
799 0.6989262449630567 0.20446394768322618
800 0.002705341104721426 0.4374872418759712
801 0.892153327183071 0.5803889529303046
802 0.42163740478968637 0.5879250050904625
803 0.4676654506271116 0.10284020126408866
804 0.6113048009634757 0.6023191864203244
805 0.574044250459303 0.7769406513835415
806 0.7152097251161545 0.6929223690328178
807 0.6491060225986949 0.8800702448723555
808 0.42627090017491287 0.2216506047589375
809 0.2719930562677553 0.4914748007247146
810 0.3294705592497139 0.04344744607260931
811 0.9785725058932314 0.21274559746759225
812 0.7656220348395566 0.9945132874623949
813 0.7878735067796782 0.8594018389364501
814 0.14588851903898514 0.34139620189844866
815 0.8936458153471701 0.9190252589109529
816 0.7389310658242756 0.7174133443081621
817 0.06557449096293866 0.7102021707182455
818 0.2532351423911027 0.9265534145682011
819 0.975334639452205 0.8290958514528779
820 0.9233100678742724 0.38154981162154944
821 0.973141616759675 0.6127204775314573
822 0.6465021022041083 0.02794723208243788
823 0.21098102381264394 0.7026080136110021
824 0.7147528084066165 0.035798783415490254
825 0.2507756170122222 0.12431238796619726
826 0.9823477677093986 0.6002895631820914
827 0.9857639306321294 0.22888839998885857
828 0.36430153873297466 0.6177678906642844
829 0.3066001082261187 0.12501316647576965
830 0.7295468955237548 0.7232437173025451
831 0.03894018271588273 0.90744898426011
832 0.5733330785668682 0.8894792825345222
833 0.12785609105397144 0.8127836552710765
834 0.278742708525342 0.5445231191033346
835 0.5263644782066793 0.9769233602620183
836 0.24111502672380836 0.651051240155295
837 0.09878637459764472 0.31626436101267874
838 0.6564991004175188 0.1194803552067264
839 0.22311570441151596 0.6055651872377107
840 0.0710915380401893 0.22181673051431272
841 0.4962227577676762 0.18940817862398907
842 0.11370974283625257 0.7628422698619504
843 0.16275985954827565 0.4754492646514007
844 0.7080376135531476 0.24165992526947822
845 0.8571778485133983 0.6763440417695322
846 0.7131996382031325 0.8618615550703979
847 0.10622962902256894 0.2698090932276017
848 0.14070968146750518 0.8550980373553664
849 0.5431884150710099 0.0845806489831098
850 0.5187899383318871 0.6908047682117066
851 0.7900093133656546 0.5049494953775487
852 0.6994257066504347 0.19650210416925573
853 0.8216352769871138 0.7156940501646967
854 0.6133752824124941 0.6665066742876978
855 0.8699602845772442 0.5720306070375026
856 0.05870862873221672 0.19412635671911227
857 0.7051567153821768 0.3642808563124069
858 0.9512003666284481 0.5902053529748823
859 0.3824300462748006 0.7155011205134099
860 0.8607113678386855 0.7940068993385468
861 0.9028472416104221 0.36691829445997026
862 0.8568249153453499 0.09880054153688511
863 0.5011462580795596 0.8435468552683965
864 0.7874361020842119 0.7906977864996776
865 0.6785100082386835 0.7220271976382444
866 0.6566959497980102 0.4181194432864831
867 0.6338651039245091 0.86178873803382
868 0.6996711261289977 0.2967514730346408
869 0.6027416402084785 0.5295573885698968
870 0.3855177369234296 0.015043574446855335
871 0.2574057054953576 0.2002105963297547
872 0.09171883115459656 0.8487466431757222
873 0.8479979938146245 0.8738857936119422
874 0.18639880557757948 0.031231698373447858
875 0.7820871178165826 0.685895101696638
876 0.7549039444155984 0.24567236039772167
877 0.254833275884637 0.8175024192515079
878 0.7939386785638795 0.3445504717886483
879 0.5926222242295354 0.3600091435242285
880 0.8413169427189153 0.38705243831196867
881 0.10229524934797729 0.6392256219249568
882 0.06224042119262696 0.9806398376149728
883 0.45051642317477403 0.028210511091903645
884 0.7309850096861653 0.28003884271244917
885 0.7085498382662186 0.35708458521002484
886 0.2665466970982735 0.22902494145677543
887 0.6124085292701813 0.015107319031239408
888 0.35711173395705886 0.04941793394167471
889 0.1810679643575971 0.9372464198749273
890 0.745237656097586 0.6238304140997657
891 0.9444498670391652 0.1064476774862011
892 0.7584150824606731 0.5380045742697147
893 0.2730800130952674 0.08920946489436477
894 0.5725628375027806 0.04803636394778055
895 0.8772229899805013 0.16896875160578761
896 0.5646144650742375 0.7915555805158918
897 0.7846033577317552 0.5337510121941402
898 0.7234499838222781 0.08413865117542807
899 0.03479276547764054 0.83232603388555
900 0.17748806380452065 0.2731302624047046
901 0.11438014693493281 0.4139782541320405
902 0.14998702354746973 0.3999718050925596
903 0.3220456630701154 0.8770289252670126
904 0.9903409637070244 0.4569376336590575
905 0.17655358470427485 0.7271051312480703
906 0.15571898906789905 0.9052555375918688
907 0.7945751475845194 0.399539260013123
908 0.009172124352230582 0.8213265528039471
909 0.6462893518207199 0.07308117331732389
910 0.4772581492203566 0.20626246060850595
911 0.7937785632997706 0.6602667258963758
912 0.13588367637580978 0.0328677065681382
913 0.9372463917489847 0.39594739240380594
914 0.5867874698720502 0.7627903681262006
915 0.8124658068088338 0.24102401609794366
916 0.5327585475496286 0.8109368592483346
917 0.0742219370718914 0.4570172036380252
918 0.5883135854803537 0.27477037343711586
919 0.43906391571960846 0.943713795866754
920 0.9155473553989714 0.1274847269222289
921 0.9885370069354664 0.25783419508545313
922 0.2281432257755478 0.06198141798284085
923 0.48120431526653173 0.7444152178050203
924 0.7719002179045296 0.3975390437074987
925 0.7542057186276864 0.2362976607211963
926 0.28725943875664905 0.9530256646661648
927 0.6185138860822409 0.8994385253268035
928 0.7250392621876323 0.011072903468208106
929 0.45877116783835536 0.22653773064212257
930 0.327999415899038 0.9645083708985611
931 0.5679636562367524 0.4361108885640187
932 0.507613490266856 0.24212606604688258
933 0.3184455069135925 0.5964805466404405
934 0.0033416707014660707 0.6726763298651273
935 0.6665104752487709 0.2864541967719071
936 0.29530350248891857 0.6204108524467822
937 0.8523113558181563 0.10923837466575925
938 0.858965554908332 0.25124522905804203
939 0.3664770228000236 0.16481522972458018
940 0.11212347852196991 0.23203092496419297
941 0.643668661048979 0.6385104090913354
942 0.4966730962877046 0.9191451360825901
943 0.06403147782418239 0.9562705845235172
944 0.5660114762900709 0.8993145614188396
945 0.5541611146262595 0.13961501135211307
946 0.11807588809578429 0.3295287967389584
947 0.6710352033720204 0.052366457166905245
948 0.5494083140055307 0.8626359955220317
949 0.8509694485215115 0.40771575190211296
950 0.7282255176405142 0.6665758694123769
951 0.21966817604937672 0.32124946466873805
952 0.2743664224897223 0.2521239477002555
953 0.42830179451592065 0.3536370874392095
954 0.18773481500115208 0.8070970309768101
955 0.8896761116688693 0.0728572319380697
956 0.11150768307319447 0.08036798866163386
957 0.9826832146003931 0.1600956395198745
958 0.11529827796449765 0.805380289162726
959 0.7217162678103659 0.9915640213145218
960 0.16701891446690542 0.7151439861545387
961 0.4423834262424676 0.6585981305660804
962 0.4190140247033256 0.35307065995112474
963 0.7934025023742524 0.33243243682985346
964 0.3173653563748031 0.9754573347213942
965 0.6212643247624414 0.7066417390374634
966 0.34078490786704974 0.5504233625323577
967 0.20589259062491583 0.7401341260298616
968 0.6974316492692709 0.21315960532737133
969 0.5332858384751925 0.9698911420391866
970 0.11940796423524269 0.463300292713015
971 0.027307861781111775 0.7639304908907899
972 0.3171608866999521 0.9650773801044751
973 0.8835602690536911 0.3021487377093477
974 0.47953013097340835 0.3003022910629364
975 0.4639393836537933 0.07875393351817794
976 0.26853812270083266 0.05677471954450186
977 0.02383570514360378 0.2721036090746457
978 0.7996615171598215 0.74939205885254
979 0.5533986410431616 0.19388882221014236
980 0.8570043020895197 0.84600872169803
981 0.2854867360385763 0.4874460643611531
982 0.11351196998830582 0.17761469220374726
983 0.9561751045548949 0.9933669020109163
984 0.9571898702782029 0.5610373021135047
985 0.6974164172885563 0.4068661350387969
986 0.12301958625045817 0.4998120396783804
987 0.9704947919682212 0.4782499255653606
988 0.5393510232704187 0.9553953105056241
989 0.06851783798163713 0.9531691244267679
990 0.7448235426485752 0.3371043366727101
991 0.8941187449602932 0.46791218598184314
992 0.18373842336172497 0.45068139210331315
993 0.8121675873040245 0.785296877288474
994 0.5879458501426466 0.24360706942411703
995 0.19701540709373666 0.6750198247626236
996 0.626782354031454 0.7050812386647424
997 0.32053547312090636 0.16050027419141188
998 0.04173994164680239 0.5290745408622001
999 0.9108327039565397 0.016476607371688656
1000 0.533297948332669 0.3221976639049655
1001 0.16301737163897856 0.9244793749589373
1002 0.0499075802953558 0.31466569248253284
1003 0.0650848094324753 0.5984706958235327
1004 0.5826143804447862 0.8443451924203832
1005 0.07436538211459365 0.833840285217692
1006 0.34777225549135593 0.5089315121681739
1007 0.10344967741453504 0.20032265678523764
1008 0.6359433800315414 0.8089103443870634
1009 0.7859319007647451 0.5119044333565699
1010 0.03362621171056668 0.43296841566918365
1011 0.40807280128338597 0.34664590304895904
1012 0.7016143357285375 0.46985589911474557
1013 0.9994748387802633 0.9158271731848334
1014 0.9811934177947974 0.3267154664343185
1015 0.7720425383814111 0.46899163680825573
1016 0.6319677293570792 0.29683056610209235
1017 0.5133033310764298 0.038048674739774246
1018 0.12814486782768442 0.2482832041592563
1019 0.2062885694843296 0.38768677817873864
1020 0.35370834184326805 0.9032744674396201
1021 0.4810237033269128 0.4358848048436268
1022 0.22251069741559415 0.3347315439343753
1023 0.6453539496380387 0.2211754878058787
1024 0.2628285763981091 0.28956104162521745
1025 0.7102712905677654 0.1817017576702652
1026 0.3361622084606163 0.8975073053993187
1027 0.2863541169880218 0.25685339101828475
1028 0.6900169791173681 0.4785012354229802
1029 0.23970336164795225 0.3508901654858939
1030 0.9988581359711488 0.9527742471779935
1031 0.5585640540454746 0.7358777370589058
1032 0.20227639196390879 0.44551531524483134
1033 0.2785056533547202 0.6350954295913328
1034 0.15170907379668475 0.16480365786074214
1035 0.9410830296931889 0.39973624631020843
1036 0.21391092317598392 0.47818983863674214
1037 0.3178285642871681 0.6334220356562447
1038 0.4497480272644183 0.2405782857037263
1039 0.8350259027661251 0.4505440204030907
1040 0.8258881968466654 0.850366431360599
1041 0.5486126184178961 0.5058351427601857
1042 0.6069455225002942 0.49661773180653357
1043 0.1680840722321253 0.440140707483912
1044 0.613351248082411 0.2836179313656383
1045 0.45664414164982914 0.8690079666224362
1046 0.5669273412147089 0.7099097650683507
1047 0.6016699499434128 0.24151033072269346
1048 0.6027039483549579 0.8545772057059424
1049 0.4265895629575347 0.824838878785005
1050 0.6837786850184024 0.322975902202732
1051 0.3916248294126735 0.37059260476875744
1052 0.7758073425533093 0.47756570750820293
1053 0.33659075131033533 0.9131762366507771
1054 0.5053621394556719 0.48620106168108224
1055 0.05536703007046451 0.10338124396080117
1056 0.3444520853780644 0.8363485134633571
1057 0.04592345132455844 0.3325240496814833
1058 0.9750886674422158 0.05370307211840164
1059 0.6711519410752771 0.29869650177702234
1060 0.48375502451596075 0.7312410543742552
1061 0.2980543782352707 0.6617310407531085
1062 0.4965954948163871 0.041003847436883456
1063 0.09603206774644502 0.6349403345677429
1064 0.14657334709202363 0.37657067074925354
1065 0.548407557445293 0.6144571207839427
1066 0.5416588432275828 0.8235675451961918
1067 0.5511016908480905 0.7288858119046284
1068 0.6415841757512523 0.45561889408834244
1069 0.10508889972791469 0.6384023605112055
1070 0.8792819842668661 0.10435999463324674
1071 0.4582287376435922 0.21523544476438217
1072 0.3561650572889814 0.4362960681573357
1073 0.26934761632398596 0.25514181661924507
1074 0.5131395895353564 0.6540360823160887
1075 0.5315658705674595 0.6830698871629065
1076 0.6934118833268615 0.07152863393127529
1077 0.8159809281580421 0.7457848751157037
1078 0.6636128278024468 0.683172912696723
1079 0.13408952987843714 0.5324657862678946
1080 0.005645391710503822 0.29791388589418155
1081 0.8562839524643855 0.7071770181226907
1082 0.8903284739402199 0.666870607268245
1083 0.15370240768016552 0.7922817116007514
1084 0.30560644488756306 0.07857873700768891
1085 0.3438779275651658 0.45551804231566817
1086 0.9896359951834909 0.2555698283505361
1087 0.8504571115411902 0.1525728893451036
1088 0.9011694005755521 0.3572521201129807
1089 0.5118158441224931 0.19735026630884367
1090 0.9535676401054227 0.016422339190893975
1091 0.9667760521475093 0.7558856076384765
1092 0.18622153610597503 0.19224805513776555
1093 0.240024175805733 0.9977164687273322
1094 0.40209456195369353 0.03621280582353692
1095 0.7375604373980934 0.7579981385179773
1096 0.42460095695168976 0.773949119935071
1097 0.06659000158741812 0.3045752570841447
1098 0.3421592654190445 0.17800690358276194
1099 0.6861798091889268 0.9106854919367199
1100 0.0018800877435517505 0.4011270166145777
1101 0.47193250338869064 0.49526530769154453
1102 0.6506289328503074 0.4142663813003087
1103 0.6309789339455504 0.9361113699258655
1104 0.15678300945576895 0.29084740092146055
1105 0.9304232600541106 0.5731275391310232
1106 0.3524049042638778 0.3393733985350572
1107 0.7302101090901406 0.5369406586283996
1108 0.39884877855048617 0.6252181948895004
1109 0.31375332465434214 0.4890351527981942
1110 0.735987694307302 0.5390660592973736
1111 0.6455400568911376 0.9458279654242177
1112 0.411909339094512 0.09402096365800261
1113 0.04998071097404588 0.9957924683388296
1114 0.629681762979234 0.8960173377346371
1115 0.0960014569833596 0.40644593198172685
1116 0.3694986424506205 0.9560196619952472
1117 0.1561476664628615 0.6842943282934754
1118 0.875213503118537 0.8462312815504706
1119 0.20150383297058816 0.05522483552511592
1120 0.9333254945041575 0.05286694091705224
1121 0.054409110254134196 0.2611063389396655
1122 0.40351978307249625 0.560555893916107
1123 0.5032604557122394 0.8392465700790446
1124 0.28049870386604814 0.5260777774366728
1125 0.49965124333284994 0.048187151786837745
1126 0.46931491629247435 0.3327821746315389
1127 0.00865584099883332 0.7200002117780984
1128 0.32812551926970235 0.35046634586966685
1129 0.9885094336883539 0.4522157151526913
1130 0.4384255913659133 0.3751831475610492
1131 0.22326980484124348 0.1422582954646222
1132 0.7210223895672127 0.9001294180548944
1133 0.42770580646256184 0.7155136419584125
1134 0.858356302841347 0.33415222860598226
1135 0.6165376535370701 0.4785482355812991
1136 0.7384696480320306 0.5393538753389444
1137 0.8175936375691073 0.6509852876143677
1138 0.7551539458546808 0.5501848435803479
1139 0.581300565150173 0.6231834972453344
1140 0.07906965956628154 0.3221133931406558
1141 0.928708180500649 0.5341848493744313
1142 0.11692136951029264 0.008500513840575152
1143 0.9588826718075254 0.3817354163263881
1144 0.1934384895522826 0.33554159124992444
1145 0.37992930868264685 0.6039219157436836
1146 0.7483103140309519 0.30356380344598566
1147 0.10658341261084614 0.8046515522753553
1148 0.01599085614010176 0.5216467381387918
1149 0.167880692783426 0.43597405838534464
1150 0.3225401842020901 0.027642866465123594
1151 0.8052049416169625 0.2215107771123157
1152 0.050697264610444104 0.663431279937467
1153 0.993195221607789 0.8007377180319029
1154 0.27803204130683423 0.2791409494269551
1155 0.3876329573449594 0.179903414130533
1156 0.42393762585220685 0.3663267408416063
1157 0.8120360691722835 0.4293519092788972
1158 0.011064485295136595 0.5972675946769114
1159 0.7463237208609387 0.8984991040571321
1160 0.20151572737633228 0.020562192498928322
1161 0.48611577494876457 0.1310457569031548
1162 0.23854498517300493 0.7037403084596222
1163 0.9345114069394519 0.2725911395708557
1164 0.71048651354021 0.9910991556510909
1165 0.7846330071825499 0.31872486427963465
1166 0.3800592709664269 0.4880285197605494
1167 0.22361070881163891 0.6656708512689702
1168 0.41120227105159834 0.5000059555606375
1169 0.4278672501425119 0.33930612342626776
1170 0.6304545940704389 0.29577235317513895
1171 0.16974728392598437 0.9324160137160302
1172 0.2736201793380463 0.6058140603670692
1173 0.22585330282792815 0.15871200228989624
1174 0.7376771027015624 0.8015655716461789
1175 0.6660488411743714 0.13096418242421703
1176 0.822225344702454 0.2175029781999377
1177 0.6051563020463694 0.7683810858001974
1178 0.36673223190184046 0.5634639864854669
1179 0.734453772116845 0.12950446541482075
1180 0.03879721336609254 0.546124678461541
1181 0.6331239150167819 0.33020711176909645
1182 0.7368740557338096 0.8710550662336579
1183 0.978152785665427 0.7427858995072747
1184 0.7938629781234123 0.4854430890601332
1185 0.6817986287629065 0.49033795629951404
1186 0.024198732754302177 0.608866630334693
1187 0.11999097707372808 0.8164303800414776
1188 0.026521356165447485 0.8965947925551835
1189 0.20688862756309034 0.1931099934744125
1190 0.3122107879671774 0.42634256027365836
1191 0.5051279413126017 0.4089644594832479
1192 0.12778652003842517 0.1902781394109715
1193 0.49651162717582864 0.7262336168052491
1194 0.20697261471127026 0.9688820095217228
1195 0.9633605017051753 0.6331851152462639
1196 0.8457105720615012 0.8561734758160341
1197 0.8702503394822777 0.9249789168743567
1198 0.5237598493446239 0.25304191024809497
1199 0.9624797894105097 0.774909806374574
1200 0.9808364223657853 0.5351361529862462
1201 0.7212674101596195 0.40051167857280745
1202 0.11381712696381874 0.4251203896462834
1203 0.8825646925438141 0.7273056634453
1204 0.26418201784091844 0.4201506946600565
1205 0.7219293939935925 0.8002656121057319
1206 0.716150993325 0.352379753084507
1207 0.266915768184808 0.9218302760441837
1208 0.0349761691842605 0.19247962119840545
1209 0.07873525885881838 0.1378038809490949
1210 0.9984349344106234 0.9385085953450097
1211 0.28596115815328993 0.8048678095011256
1212 0.16111758807857646 0.8706444896061697
1213 0.6200097534783892 0.7491107587140983
1214 0.23104953212230017 0.23968089855177632
1215 0.5447478206877708 0.046677633596792556
1216 0.38415688317283214 0.4168469199024828
1217 0.6770977063548055 0.8222106297498215
1218 0.40663186169158605 0.023837873178140012
1219 0.8804785105374255 0.35103277312052283
1220 0.5111171413582808 0.27198152710291135
1221 0.030087333746882106 0.3225863630254
1222 0.4300034216632638 0.05928365920641776
1223 0.09150836251808003 0.6552812462996651
1224 0.4079074293200915 0.9727386470635561
1225 0.8534541685907615 0.40222141787030086
1226 0.877303976460011 0.0065322012290328635
1227 0.9732967300778519 0.1912488665300296
1228 0.12904621607223155 0.19240406412131994
1229 0.10788009908421059 0.3672964546849177
1230 0.9635967387529565 0.418322274543912
1231 0.033166540419489965 0.2935887383434592
1232 0.5813452421537159 0.9781988240297864
1233 0.472105815740946 0.9758332923022004
1234 0.465250329446362 0.38180775597395344
1235 0.08060467143317118 0.6450274111283908
1236 0.3288711284058543 0.4188098559679968
1237 0.6929421123120788 0.6799253116256898
1238 0.6469829478566196 0.8657208780276247
1239 0.28812708179383306 0.9078796927660924
1240 0.707697162010101 0.9012521036949063
1241 0.37830304515056645 0.12710888234727047
1242 0.26712774914592374 0.6970100085972867
1243 0.7584727589972369 0.1899163513401524
1244 0.5870961196253096 0.988806633248877
1245 0.4352500977586842 0.7309617346848415
1246 0.8593726148424162 0.9716318458099051
1247 0.16671485485812254 0.07371569935213551
1248 0.5899299051387024 0.2642347226285542
1249 0.8497225870563028 0.39873476292093557
1250 0.26315457672297293 0.34045324044960124
1251 0.29752730229502433 0.2103957771200503
1252 0.14633001204978924 0.9503056797200565
1253 0.07710280981637907 0.27249672000381653
1254 0.8552597895898778 0.9217924528168291
1255 0.0840120921068106 0.1751979027562477
1256 0.5502347307228378 0.036416736181837606
1257 0.3327181368711003 0.9908453997042693
1258 0.19293946738060852 0.7006615461917145
1259 0.9332997057715534 0.43900079930780556
1260 0.21559500723760716 0.7274445245582508
1261 0.6845978869005062 0.5030195561017835
1262 0.8638524903695916 0.4333936987910536
1263 0.7895422459580166 0.5556405229025391
1264 0.5875212876835816 0.03248323395516617
1265 0.3321622922307368 0.37472120978160306
1266 0.629780988647833 0.5510313988249426
1267 0.7590750686368546 0.7523873219156363
1268 0.7573140089844497 0.12133505356015917
1269 0.8266715127273128 0.1258335942414962
1270 0.9922142071086564 0.13137131522872558
1271 0.249621638213549 0.0130003230259218
1272 0.7628145350798428 0.7549165537718093
1273 0.2038605764181184 0.8709629766530619
1274 0.6785158963269935 0.06523585303234236
1275 0.5598399884626293 0.09615153902732965
1276 0.5046673877374905 0.7024006776233744
1277 0.9115317019824702 0.9815803990890464
1278 0.5963823205653619 0.12863906093505983
1279 0.8000388094805947 0.2518406311174344
1280 0.7829148234293628 0.6286452741577723
1281 0.260188862796204 0.7318287327983466
1282 0.9889010551907309 0.9658673915806814
1283 0.12248899517045087 0.16166177977556184
1284 0.10630206947966203 0.7705233239322609
1285 0.6676002347200662 0.31873638902806567
1286 0.2478664495212416 0.46412080980933745
1287 0.7393585142041014 0.5116634005956033
1288 0.6883860128929892 0.7704195963729471
1289 0.07133491170045936 0.6572909587020167
1290 0.2876413286202134 0.15333946530533904
1291 0.08215912292701211 0.7029357574756635
1292 0.37839185847374346 0.3166313271830481
1293 0.004736226509989505 0.730613225524421
1294 0.705753919101881 0.9512628474017686
1295 0.8063580116269287 0.5127299448082893
1296 0.8320829658477911 0.15427569465822488
1297 0.09619372011871108 0.9668590043134458
1298 0.6774153082929819 0.3527084381274398
1299 0.9877502437450935 0.26398226839315264
1300 0.9637292572728409 0.28464364031896405
1301 0.9073161181158623 0.5114676069273929
1302 0.6729810539689928 0.2552676441880549
1303 0.36214945585059133 0.37663267395424505
1304 0.8503326267255713 0.7238465149595421
1305 0.8639706198450327 0.044615889753250815
1306 0.9413121119331576 0.3620381487338654
1307 0.5223113078717436 0.32160009124964006
1308 0.3177540375246226 0.5819809578229571
1309 0.03614345264605345 0.08265081075233727
1310 0.4002149981659864 0.23418594080331534
1311 0.9676747895827098 0.7458420021897582
1312 0.9781882297515515 0.35140313362670683
1313 0.7576376710114258 0.6497822369688615
1314 0.13918123282759598 0.19758412578679474
1315 0.9047520347839894 0.7125637194151546
1316 0.27799123223651634 0.7359263199078867
1317 0.7703907067015344 0.6018327778040126
1318 0.7894656548738074 0.8081805066355627
1319 0.9813257080574 0.9847809759314772
1320 0.7226356260159583 0.5982354468831449
1321 0.9342545845634862 0.44003376263044824
1322 0.07848038810797964 0.45193547040280135
1323 0.8613518492290521 0.8901430805352034
1324 0.08062759734203118 0.03431331003728566
1325 0.2350489399774257 0.7386297951397249
1326 0.5085291701385126 0.2602843680197563
1327 0.4193497818157901 0.5367228489739223
1328 0.11318849336860848 0.05787158674252446
1329 0.9881802942506008 0.5197200497848574
1330 0.18710088258766933 0.14549590443834903
1331 0.7846512035111372 0.6526692385464881
1332 0.45068901205289347 0.6697091149194666
1333 0.9986695377649052 0.5113717374546649
1334 0.7267271866449647 0.6227538187531844
1335 0.7361942981128243 0.19638243537182398
1336 0.08206804965675674 0.3673031901793453
1337 0.6912707601410922 0.33651978513350544
1338 0.8570295153834002 0.5782000891566428
1339 0.518604943198167 0.7349501113380036
1340 0.6064186047884699 0.19235075281812553
1341 0.7650989180931862 0.6332931198218681
1342 0.4013214216622173 0.12552140730999828
1343 0.44863010768596145 0.6179891223947012
1344 0.6647166478279709 0.7446359257739367
1345 0.0804569249473348 0.3898871990918821
1346 0.08508599364068303 0.9071147123453859
1347 0.6652697465947974 0.4781935384856675
1348 0.0025671183229856176 0.33832686581344806
1349 0.7420370622012861 0.9463792948986399
1350 0.6498030091608806 0.30745460031365324
1351 0.628910191700225 0.762323400033216
1352 0.41504352847161063 0.9822786890896223
1353 0.7094077132246751 0.9344316854622049
1354 0.4434878492927409 0.4459111043066064
1355 0.42836504761945216 0.9762171084854309
1356 0.9042113321353257 0.399062343131953
1357 0.5271612811643098 0.8117142691026615
1358 0.49478989132094087 0.805759226044823
1359 0.8583272696739529 0.3234775731597017
1360 0.37309166565284635 0.5035519341579239
1361 0.674798890220543 0.6424638036533112
1362 0.6584424320742649 0.33491185882566743
1363 0.7141080509522902 0.6112343785585864
1364 0.7826127813234204 0.33899253490620573
1365 0.7247091117423029 0.8010072104878379
1366 0.38888924052211193 0.5504812529211488
1367 0.03714325750486125 0.1482550935343231
1368 0.5666325296290182 0.7592705944673549
1369 0.2939827310164115 0.28164929261625415
1370 0.08516240573394496 0.8556409130437098
1371 0.4539652662818461 0.3552400740836358
1372 0.5851747867293147 0.687919517400954
1373 0.8945434780916386 0.989016367987225
1374 0.9315746924914581 0.05845945673617403
1375 0.22982826425783187 0.2172584604859349
1376 0.6756293147384036 0.45538305132401313
1377 0.14795406691776336 0.1915233303443563
1378 0.4801749840618741 0.8249825023169645
1379 0.9658453952535052 0.33228548814310566
1380 0.6928642783638259 0.8746497237035216
1381 0.06904547845903675 0.9492149584717594
1382 0.283514849103201 0.1303344638778393
1383 0.3873540683282176 0.7217897767763467
1384 0.12753302742725592 0.03926232427355425
1385 0.4039124691065433 0.08755089243081282
1386 0.5270206255090693 0.5652269711192022
1387 0.4036904337103193 0.6501977248989615
1388 0.23395129096937872 0.15793053077085428
1389 0.7952200928516507 0.27888696195335105
1390 0.4723262488560428 0.06375798900316643
1391 0.4549644908168886 0.8967214455471929
1392 0.92597098421618 0.7696812025230932
1393 0.5095722720137317 0.033742080576199096
1394 0.36359244844827376 0.8704595072771159
1395 0.43248358107361884 0.29083225695982107
1396 0.442013443524537 0.7875073039637465
1397 0.619452707707971 0.9480492306404383
1398 0.4081909336898224 0.8714024521011055
1399 0.2076316337429468 0.38922455742218853
1400 0.2859717932922843 0.6316625772768715
1401 0.09143580940991147 0.906359139574908
1402 0.7700408459124781 0.3243231895456937
1403 0.6769861228519964 0.8391384602324997
1404 0.6793555450302188 0.3694766829352839
1405 0.22568636449483637 0.888212226102254
1406 0.26775161836947914 0.8665651715503746
1407 0.17634177901590642 0.059763411657757226
1408 0.8206320730616711 0.6441292407794751
1409 0.5223446111291087 0.8365557873772359
1410 0.9263996049875604 0.3422015299995972
1411 0.38563366925193154 0.24394053397993942
1412 0.1575348848009791 0.7522035592291327
1413 0.0015815103090554006 0.010579981292418883
1414 0.03210556478785309 0.6376925310868642
1415 0.7466652989889694 0.8926432823390235
1416 0.5321813389547837 0.30530496754306846
1417 0.36353722047508386 0.30884572979741876
1418 0.82556638574496 0.0009894233636480454
1419 0.44885373325395006 0.37340963671394445
1420 0.8469880088973845 0.35229729198615634
1421 0.1985364006628183 0.43974062736143493
1422 0.5688649782342915 0.8908546361360096
1423 0.3177526308450237 0.45701623521426094
1424 0.8549463104569534 0.8242527547525706
1425 0.5200680254268935 0.8406746181780673
1426 0.0557141454305804 0.8737626650885049
1427 0.4890129508161707 0.941683398502895
1428 0.5671030139192084 0.035901892239801114
1429 0.5416984745361152 0.7182129147068983
1430 0.330012504041835 0.3511545905167258
1431 0.6370676100957586 0.6280320331820084
1432 0.029877255639427447 0.7056822453254292
1433 0.9968533873627222 0.9493929720354243
1434 0.5887659677281105 0.8576368363605308
1435 0.5646463840913133 0.680232438289067
1436 0.8020521306143651 0.4905889202209136
1437 0.5514658347960899 0.7777952745926535
1438 0.5177394454587901 0.20683021291050152
1439 0.2212967470595112 0.3220755477437932
1440 0.3144911535969508 0.7533117419757528
1441 0.05046183034051832 0.639328759584904
1442 0.2688829748121665 0.7440031332734227
1443 0.13551940248389982 0.417787949255939
1444 0.6169399578910781 0.6426362849353331
1445 0.8442877104835934 0.14622839804246812
1446 0.3434052749434734 0.14818540234973065
1447 0.8658982795729219 0.9516290882048276
1448 0.06445194094022177 0.181440629985833
1449 0.4142159036814165 0.563437265498156
1450 0.3760910299506699 0.39963678986483153
1451 0.2513121610919782 0.07367018964292638
1452 0.6064408982866064 0.2543051986247191
1453 0.13384801456024098 0.8262883917597692
1454 0.7819728316745762 0.6981444754328504
1455 0.20366778228834337 0.42201440774612087
1456 0.8757712446376332 0.2803201831218035
1457 0.3962235976277858 0.0035501075070613064
1458 0.029693378549932592 0.7568860775582934
1459 0.4215764785104096 0.05936562397420131
1460 0.2838632818083684 0.9902858340438562
1461 0.0955079335407637 0.9129632369622278
1462 0.8200347022060606 0.07574413917580192
1463 0.052659845594582366 0.7704318072042565
1464 0.6812664970209423 0.8246223557006689
1465 0.284275220906254 0.14103608077127017
1466 0.6323080620766912 0.03591101731248836
1467 0.743477226429136 0.15560875652985706
1468 0.6391516936083736 0.11640024577278396
1469 0.5978491644981808 0.30883651169754234
1470 0.4689426238844917 0.4496169520131701
1471 0.7802263627259206 0.6531932170809189
1472 0.01705790902887039 0.83995613232871
1473 0.11442117693102394 0.8712629994755628
1474 0.5427962436619328 0.88431254323391
1475 0.19083505015619395 0.233937095123807
1476 0.3724386925783896 0.8728346078681896
1477 0.8007077548692447 0.7402042991623379
1478 0.12053188974109075 0.9079403003343126
1479 0.6279669505670906 0.7993624003315518
1480 0.7630261730698394 0.20675048344652625
1481 0.817724493921951 0.2170183940808723
1482 0.4262387747484465 0.9848312986966967
1483 0.9078064083744941 0.5818471184545135
1484 0.48434079706649646 0.19758607628371994
1485 0.2987080874826308 0.8108038979358075
1486 0.02708887325751086 0.8913504885973202
1487 0.4033022026570192 0.05224862254706786
1488 0.6289807211872203 0.6179600065261442
1489 0.30135311972542156 0.5687851580975217
1490 0.9444853617686036 0.5122675936323813
1491 0.24600186335067753 0.8943497781976221
1492 0.03592958332439211 0.905172086036178
1493 0.6778714768980946 0.8816941503202383
1494 0.6567935429605937 0.23134097352188
1495 0.3529236684633298 0.9361550147466601
1496 0.4114007895193399 0.363352788541927
1497 0.09798244863113847 0.9340359065597075
1498 0.23059450570985052 0.7815543776002954
1499 0.5867780947120427 0.9959446470557359
1500 0.6593402706275214 0.10863325159516635
1501 0.5044687405816148 0.4815807157348584
1502 0.2927999952708461 0.9067286526731991
1503 0.24796416429755286 0.9365536556000947
1504 0.28562779342306455 0.7754925434793981
1505 0.9408932800549722 0.21156171248252986
1506 0.1130447280758149 0.10209164739398768
1507 0.9059476175660957 0.9851286747589233
1508 0.4581043651511467 0.6175633225075822
1509 0.0029031949121108847 0.5143357503653438
1510 0.30292441803765957 0.8402953312405023
1511 0.2913258292111396 0.6615079661512813
1512 0.8277202895298427 0.7083989366977108
1513 0.5446418001223903 0.4565105968008837
1514 0.5814199797184254 0.21679018793159843
1515 0.1840706916616952 0.49831454546284537
1516 0.9856878567284242 0.9138809489738587
1517 0.7680966852030988 0.21565267279191314
1518 0.22146565261704487 0.15809078002276877
1519 0.4662426467916242 0.627218183081954
1520 0.466773525571189 0.9855204345179579
1521 0.3151335590292623 0.8280097273676748
1522 0.8922907472798699 0.5908581941736296
1523 0.9757585120996652 0.7784539854900081
1524 0.8328241536370936 0.6817071908362292
1525 0.4248572693513698 0.27394767184129687
1526 0.34338123508187235 0.7888025046223855
1527 0.16039241493269452 0.9084296925269923
1528 0.8102397937517469 0.22586817222243416
1529 0.6536115354051752 0.41254013823066504
1530 0.8159198267686133 0.4933264967165333
1531 0.8865019221653385 0.3486432657954637
1532 0.676407755152844 0.6039946082491001
1533 0.9055687578279741 0.018828464291583358
1534 0.05455308110737889 0.27299897629059733
1535 0.6895149877754297 0.44063006941230076
1536 0.8075120908784226 0.7821858259147162
1537 0.15243767088313243 0.8854689082191834
1538 0.7632540593558289 0.4106905576265907
1539 0.11345693094308762 0.8676904502948257
1540 0.42521778552606493 0.6246009769083849
1541 0.6102738809000667 0.6038979875132898
1542 0.5519895791018046 0.8252129674422107
1543 0.5714632702102532 0.7882433785984002
1544 0.48818572202473 0.6552654628853932
1545 0.6676827275109031 0.15868089467069846
1546 0.7290720999766729 0.482204658350582
1547 0.6898981212192322 0.3919564371773234
1548 0.5688653848410665 0.12962355336928066
1549 0.13400689220034923 0.33032155942466
1550 0.984748400532145 0.5030686831164985
1551 0.9090571412579185 0.35689429851641985
1552 0.30227174192426876 0.7400953891257639
1553 0.07321227769606076 0.7788398182812237
1554 0.49778694488950104 0.6729409167480805
1555 0.4303073700436999 0.5505572884217707
1556 0.9461046129428936 0.138633201991331
1557 0.8347875402870468 0.10482033393514101
1558 0.30663181955944874 0.27462431436375134
1559 0.9313402947444147 0.4437936351369749
1560 0.5417040226833941 0.3385736997243155
1561 0.05885925194622521 0.5078810086648082
1562 0.4827826866429228 0.581872692432839
1563 0.018995561517815118 0.6686164960740739
1564 0.755396915582674 0.7198804745043701
1565 0.5021577738700995 0.37791533954956114
1566 0.6798975618411608 0.31261120845570545
1567 0.4987779481954411 0.5106246450806688
1568 0.7830627113461398 0.4818978643683942
1569 0.18448894611407207 0.7768289487914561
1570 0.869060525754713 0.48689441549139567
1571 0.9506862534042186 0.477509884089527
1572 0.6299517324947685 0.3409786683593107
1573 0.8090085057572881 0.9162424651681184
1574 0.6929505265577615 0.35519389528717404
1575 0.3754236510155339 0.8255030144326705
1576 0.42981481443968095 0.21755756125945724
1577 0.6429136100560342 0.5169340856242554
1578 0.24936629114592568 0.4797955085089015
1579 0.5245942392289664 0.7816546849809468
1580 0.6072824460023918 0.7869642002450513
1581 0.6035742770648672 0.12228600643798682
1582 0.23338256001507895 0.16075925438246497
1583 0.9924888262236933 0.586997295351455
1584 0.7997215602334364 0.6778760160722449
1585 0.4412572358352027 0.17094147668018445
1586 0.9901429717809722 0.4770612354008492
1587 0.16934834671926724 0.9464456133595149
1588 0.3142396893122358 0.7184711774350658
1589 0.5402770014094656 0.8839895938189389
1590 0.21963461342015977 0.3365940355282927
1591 0.6610150105030179 0.9688061909871242
1592 0.41488911324213673 0.5111638000300442
1593 0.3660033473284884 0.11424709056311178
1594 0.7362334019979514 0.8878823949805763
1595 0.7088494388106216 0.07712180961006188
1596 0.25830679088193964 0.6620194408928776
1597 0.28671338797614243 0.08803912827109539
1598 0.8999633121017073 0.10554026044780929
1599 0.4375853976812314 0.03763772998544468
1600 0.5182390200754503 0.1735246573736967
1601 0.29295048521790235 0.180403841765699
1602 0.47167109207807056 0.4341980099460605
1603 0.9268971832217282 0.8933303665832767
1604 0.7081938567553248 0.7465756663463551
1605 0.17379021582212817 0.5753012600153293
1606 0.3185819714697853 0.5122730426781751
1607 0.23767819423470637 0.33662136161880374
1608 0.6991319924399745 0.6121880455357376
1609 0.3332897121029008 0.393202395820313
1610 0.7990702817045044 0.47507264248704195
1611 0.26184001629878306 0.8795235610598744
1612 0.5363223002929709 0.4074226397890822
1613 0.8577659418301509 0.7727300443469597
1614 0.014873342743491613 0.6299506035182999
1615 0.17146827171023726 0.13030353468186384
1616 0.311556978693311 0.5778795280656859
1617 0.1819596634490207 0.3619093211843353
1618 0.3698675101876654 0.15521927230517685
1619 0.4357582097886079 0.18065582884315134
1620 0.4230051624076778 0.37681360140065234
1621 0.027330749043740554 0.14574362347328684
1622 0.49329819530506913 0.3910808754786014
1623 0.4954645047691312 0.904810164780148
1624 0.1946100458804534 0.8985753553429775
1625 0.3475892635143397 0.07602858389520872
1626 0.5650082537274281 0.4077823053197682
1627 0.7689099368832182 0.318433463809779
1628 0.4948762553341862 0.11009224748828861
1629 0.5581739287605086 0.9765645709431545
1630 0.6194205631878432 0.7601677851262065
1631 0.9913505660716512 0.3170928373318552
1632 0.4987959160252189 0.5146355857427457
1633 0.4971707483622584 0.15480040528698047
1634 0.06322029085378034 0.5107053702654998
1635 0.19321471916300337 0.16405688079023706
1636 0.834005369689405 0.550836108386835
1637 0.11812972975521796 0.3887999234102669
1638 0.5616903022589544 0.7887337858340918
1639 0.19889735827908706 0.951638626269311
1640 0.4062164346279501 0.4525528363672072
1641 0.2065749195156431 0.6769553065721579
1642 0.08045061905420348 0.8449910281445332
1643 0.870114925510634 0.2462464028461917
1644 0.4056066088156778 0.23331257267564232
1645 0.11127066886982462 0.699078344613055
1646 0.39917048832515123 0.6779777589751929
1647 0.35224252955805835 0.34567479837400983
1648 0.10183083802130666 0.6287753115007112
1649 0.9872605280236079 0.12272402350868628
1650 0.808653562572716 0.7165585019290238
1651 0.13126252267854588 0.9490298177484103
1652 0.8070505122250028 0.9042389825440735
1653 0.7756411872689223 0.1386745088429251
1654 0.6890881086359796 0.23816327948536997
1655 0.531028553572623 0.9425777305305848
1656 0.6681751127607952 0.1719437660759926
1657 0.15289183866310352 0.8874293526835991
1658 0.5548336514892627 0.1352595744426086
1659 0.19503698255529323 0.3940534595685964
1660 0.29194655274509207 0.3925027260014273
1661 0.9065809515407398 0.7192035537186953
1662 0.4756746878109097 0.2224487396847291
1663 0.25293300744015057 0.15513383191956864
1664 0.548825569348226 0.40787587517044366
1665 0.6719335416909719 0.32396862729886255
1666 0.14555854056815476 0.8111464635099458
1667 0.0852861316100596 0.5787869033910662
1668 0.3541969069532702 0.44189577741119235
1669 0.4527711449523071 0.5752694239795065
1670 0.7399085643177189 0.7213992940194863
1671 0.6318002843470756 0.7932028531857497
1672 0.9541718647685639 0.7128108693142734
1673 0.26998416291302985 0.4770060544236955
1674 0.47872807186488264 0.5939388451491894
1675 0.13065763931195662 0.37719182134764107
1676 0.5911045900119714 0.12740324395123503
1677 0.15727633492370652 0.8957978790087225
1678 0.18229629668540903 0.10688653910613799
1679 0.3770026510331994 0.562708528359558
1680 0.18462821292751697 0.4825151292975055
1681 0.575340645229623 0.10292741276605732
1682 0.7099717863842251 0.7401424730363122
1683 0.5591116903797512 0.049434203617859995
1684 0.7705009327564966 0.5832936693406922
1685 0.6421136411955325 0.0784216949157226
1686 0.06143680671458973 0.9849212683318347
1687 0.8340457372992591 0.9893390918540481
1688 0.5417123219314526 0.9320981027713855
1689 0.7462415716428155 0.6375329681106249
1690 0.4211657011015786 0.6919308254505212
1691 0.7394024994025089 0.18286631239463436
1692 0.6904386398551466 0.4993687986571761
1693 0.2419746914063441 0.49462349402532346
1694 0.2295543993717546 0.5419259178957624
1695 0.8188041065686619 0.30403186687188044
1696 0.9616650515912405 0.2958777050717025
1697 0.3897454506612491 0.63196584186083
1698 0.7501222022144488 0.2670812805886378
1699 0.9754388081570288 0.21273238564307928
1700 0.1054746719509666 0.5263903560389636
1701 0.447964354225313 0.9142083303290153
1702 0.5787452409665302 0.9647947216967988
1703 0.3566128481908559 0.8750203756676547
1704 0.7969511336645614 0.05884391372406461
1705 0.4574804785353547 0.947416227057976
1706 0.511982392411027 0.795529015611025
1707 0.709007833582971 0.42921475737046855
1708 0.060282658987622084 0.3548863354990702
1709 0.9986823359328104 0.8873710848551866
1710 0.5205385835832642 0.15751921453366924
1711 0.4093329519824186 0.37830521610956824
1712 0.4306157277396614 0.048535742208217214
1713 0.35335774559803823 0.025213564378997466
1714 0.9474145947687425 0.6473699981564717
1715 0.763574623027974 0.3265207419633369
1716 0.2658891431466025 0.7858568933180673
1717 0.263934600625243 0.9112063630745406
1718 0.07207887344194663 0.9968251797567849
1719 0.37563877428563697 0.5626822444525184
1720 0.5488904069101913 0.3974171055879824
1721 0.24288660405737617 0.9312984052044478
1722 0.44426919416017185 0.8696033045967698
1723 0.8534121003823475 0.44759446392070557
1724 0.25197090749870144 0.18082748471102883
1725 0.3910179980625299 0.3951019995374948
1726 0.1859333680153713 0.5681044933415894
1727 0.11521956842466041 0.06884558607679492
1728 0.4135962825293631 0.4763979205320735
1729 0.1744417734161252 0.5759035457940853
1730 0.7456862718921338 0.7764556101232849
1731 0.7181385906039712 0.4358116036232462
1732 0.779061215226288 0.03289974901476522
1733 0.08968657912389799 0.021365766653626217
1734 0.12331453670344883 0.12866298011971866
1735 0.5312163098755374 0.9792670421367081
1736 0.9657063483803425 0.606969277741886
1737 0.376384756453651 0.17278830786103228
1738 0.8965443170621705 0.3016330151619011
1739 0.6876706910450855 0.3841124008232134
1740 0.575288210199696 0.32854564313911394
1741 0.8991676579166833 0.6962274633932378
1742 0.5778158437460166 0.8849215325756323
1743 0.17293765997239374 0.8976704606322533
1744 0.06303920752368009 0.39840755588623245
1745 0.37794832690447355 0.9298114667739141
1746 0.6633865770921095 0.0442857957455155
1747 0.4061594644735398 0.06360752600172792
1748 0.9466210439522607 0.4452887324737408
1749 0.27294479434067864 0.6953162103126629
1750 0.8046403676610427 0.04741365528754715
1751 0.3743717960900742 0.8156202659769956
1752 0.9059898321499066 0.860848543200401
1753 0.8774415711556941 0.8988684486246495
1754 0.9397199784293856 0.38814713864062034
1755 0.16011687733341118 0.38462528627721027
1756 0.6268499977450315 0.6952392823049365
1757 0.7400097256481325 0.8856113629710098
1758 0.006981554145583435 0.8990558951559469
1759 0.7191809082101461 0.9270196733266082
1760 0.8842295093165303 0.2398711260296692
1761 0.7608230073447687 0.6489602748452664
1762 0.9300676330357253 0.47470602048526334
1763 0.10794434445235124 0.9863951276951284
1764 0.35128358734705345 0.8800930941128561
1765 0.038383127875415646 0.15403789169446125
1766 0.7920331355791352 0.6835847619382622
1767 0.6036343665316126 0.09128919833525673
1768 0.18251949130559275 0.6541131337930829
1769 0.24084463270595557 0.003251317685457389
1770 0.6010214184191174 0.025976758469700822
1771 0.027841840361710446 0.1207250726281387
1772 0.9266764354465943 0.4641393954609587
1773 0.7928763875955848 0.7959174764844086
1774 0.9873139346807629 0.8252644596119614
1775 0.5885729843729691 0.3605576105119921
1776 0.2254418286118256 0.014888421963146548
1777 0.12964251222164358 0.8271240083823513
1778 0.363516601240351 0.6677594037281728
1779 0.6196049156714545 0.8285147510215045
1780 0.7475996069374666 0.9025601414151333
1781 0.4026211444503145 0.7786447140014758
1782 0.4643284208406544 0.7525203074420824
1783 0.17537975077068513 0.6086908343327782
1784 0.6169634598070931 0.473275133468831
1785 0.5011166715426719 0.883516084443163
1786 0.1895892208235046 0.1475038165484478
1787 0.6649250231475007 0.9830666127583403
1788 0.3744601445544974 0.3247543935991012
1789 0.6691422013142657 0.645221862547495
1790 0.5081901717452042 0.7747098022157216
1791 0.842857608569332 0.7056063533574646
1792 0.05594689023382826 0.7147474405251946
1793 0.7441151096437645 0.6361705533460342
1794 0.18947153836506114 0.49362854334817785
1795 0.08119551863962993 0.18401654523773425
1796 0.31153553219194885 0.7224176239651298
1797 0.2037304204038971 0.5263823875257073
1798 0.6169803859936711 0.3326301155916358
1799 0.924848105181447 0.6299817109668225
1800 0.7379184219734142 0.3473360457533968
1801 0.7282043980069817 0.32294232371797693
1802 0.2514954031171477 0.7748065603524557
1803 0.29801408187774614 0.6241808887963306
1804 0.37403692967032 0.6459784204013003
1805 0.5779882705343958 0.2670199451326256
1806 0.2649255707585547 0.9294255442592453
1807 0.07076593966706857 0.5512634746797914
1808 0.12766967764272685 0.9257154118587312
1809 0.7661202616962809 0.21292172904331785
1810 0.09888490430350061 0.4480040974113624
1811 0.4888348081295336 0.7101125610283818
1812 0.39579874948586835 0.23169880346398564
1813 0.4665090680775391 0.7934097390643869
1814 0.2398723492989805 0.7515872102694441
1815 0.14884710811610202 0.3245240157160795
1816 0.3800261957341161 0.7651440990720366
1817 0.09820194018278339 0.6441195280965
1818 0.8455199045203973 0.07439289369418434
1819 0.9200111056089889 0.9594211330325071
1820 0.9583729180106851 0.10575990066010743
1821 0.32841866074275705 0.20070677495960987
1822 0.1994330843301192 0.8068344655838703
1823 0.7107244946530002 0.44159046788243683
1824 0.13846221984772733 0.7905743406393224
1825 0.6483422050223902 0.45141125141087746
1826 0.4095480758666893 0.8370083321527615
1827 0.03213214935883124 0.4782139320930927
1828 0.03053475750074075 0.6808778878317762
1829 0.49766860423873793 0.08270593378617708
1830 0.4172174316101154 0.26892539085361344
1831 0.9695014743549382 0.6810270343497442
1832 0.5434417178941788 0.1247632104647175
1833 0.4230772122225396 0.9407069499542686
1834 0.6406039548518195 0.09403038536170483
1835 0.2638961715981534 0.9400614280140805
1836 0.9546411969412418 0.4408490471908354
1837 0.8441234561743968 0.12172060115016226
1838 0.5769253755253744 0.18515206383483807
1839 0.36393827529548906 0.18686710653223138
1840 0.3001913403199369 0.9978547871923064
1841 0.8110924362041053 0.37293885996833676
1842 0.02190474740424475 0.04773226523466412
1843 0.3183481276658049 0.46078105756196286
1844 0.0852213596656679 0.7815611810597688
1845 0.660667699918172 0.471492617487295
1846 0.2330899017742224 0.74384088133727
1847 0.014391145756704526 0.13315084776831576
1848 0.9635542263864801 0.004750864132510024
1849 0.1674552095209395 0.8499832381624807
1850 0.5912595230739934 0.6745271295316062
1851 0.6735819118657969 0.06643956345101476
1852 0.8334977720355786 0.6621551281651523
1853 0.8431976861114536 0.8078764769473962
1854 0.5922290311933575 0.15505824453392225
1855 0.8947416347988707 0.7336469290978688
1856 0.6127031053186944 0.8954942612359603
1857 0.04292552969786556 0.5427505725621222
1858 0.33639430120252056 0.37064760434060795
1859 0.16314793441053965 0.9442377429144044
1860 0.03922198023805379 0.38653554944239343
1861 0.6953206763544274 0.4709396628150463
1862 0.6671738626705991 0.5544372399282139
1863 0.9915379343600574 0.19659460606561874
1864 0.189286460248564 0.323620393685239
1865 0.6710433049746075 0.6089696467614827
1866 0.18930493382389924 0.46137529470272887
1867 0.6429207065092968 0.5911538464858672
1868 0.9987260798086917 0.4118683667586084
1869 0.0907537332509375 0.33192753668278374
1870 0.7172026930338671 0.2873408348947505
1871 0.5735936216652442 0.6953746285128446
1872 0.07648773283490529 0.33189879537924427
1873 0.6718345050118547 0.5553516674071318
1874 0.7770291268544416 0.8111649953246955
1875 0.094336201043697 0.840030516686608
1876 0.158779767219844 0.5102681558005963
1877 0.061381076173599114 0.37772846464334786
1878 0.16307011733559929 0.48518721287669164
1879 0.33203104572263864 0.8438294302054624
1880 0.9674718512700108 0.03648781650723765
1881 0.15726748777754607 0.22747569528123757
1882 0.872643241558248 0.1978112709926172
1883 0.9778087196522859 0.45210561315979003
1884 0.29109499981021514 0.28373619751326296
1885 0.776283157506512 0.18882729809193577
1886 0.16946901301409134 0.5905033802071924
1887 0.26431728195269844 0.40145062722650726
1888 0.288075834598974 0.8262666481635929
1889 0.3584035706549049 0.2531529046807338
1890 0.6641761047639111 0.8046838263840148
1891 0.8774377493562885 0.373304518472216
1892 0.5224943382320588 0.4968794085567242
1893 0.8418162691188119 0.2732713819869852
1894 0.07228956178436463 0.06726469823651426
1895 0.10145380340531251 0.4393432255107461
1896 0.3308447968225656 0.14102614955019832
1897 0.24402304547105869 0.8172959391100558
1898 0.16840416038359485 0.5982826861212069
1899 0.09272581108467726 0.9656819382174362
1900 0.33688898725188154 0.07901364230246166
1901 0.4608715269181367 0.4660644919039948
1902 0.8456873622672583 0.002541657856952484
1903 0.37221252219865786 0.6188163237135038
1904 0.6799521045535526 0.34132157342761427
1905 0.6696591470473177 0.680353390664221
1906 0.79178532947622 0.06972929909834424
1907 0.9450188339664587 0.6472513855194335
1908 0.9579420942844195 0.6272992523781129
1909 0.5620366851142653 0.6353416944283565
1910 0.2428731595930611 0.5052777186308267
1911 0.9050479113708948 0.42932834786033536
1912 0.5713698010350436 0.47999211609966663
1913 0.9433240514597243 0.1545627397170961
1914 0.5775912486357293 0.2781888206980557
1915 0.8955675064504015 0.14364780112061015
1916 0.48747887929302536 0.03202179407685446
1917 0.6561920847904675 0.08388447015510991
1918 0.21505640844505003 0.5315676409657998
1919 0.29386597272589066 0.2964013351467669
1920 0.21447788714799065 0.31359430187955484
1921 0.8200911798323587 0.0456061915840551
1922 0.550231321125943 0.7336989841322246
1923 0.6494725409186153 0.4834171109934309
1924 0.9093857771648332 0.6187958398060379
1925 0.7328201772956443 0.8410166850695744
1926 0.16696344747857494 0.04434402218638189
1927 0.24547395628391067 0.2508095295502013
1928 0.7458726222358988 0.9092255611720744
1929 0.21308108490583777 0.2614913936266561
1930 0.9217708902617137 0.46157414778807393
1931 0.0017153900423153567 0.5004687720754688
1932 0.7698540678420709 0.4281176849258761
1933 0.940968079172708 0.06185698018591024
1934 0.5768166896342783 0.4897881727239136
1935 0.6679232021862047 0.9101322268113585
1936 0.23766096385713986 0.9572609412867074
1937 0.3060493931483317 0.1640686547442377
1938 0.6366769983719271 0.5121502503341699
1939 0.810676123515783 0.6065193682180058
1940 0.22034296715714863 0.7011060210144113
1941 0.789343146955764 0.07078290734126214
1942 0.36629284105220183 0.9212221440032506
1943 0.6671850420332991 0.2803806657663991
1944 0.9807301263469144 0.6281300311334287
1945 0.8318798188876985 0.6627388711394124
1946 0.19921820699690662 0.31976520666905095
1947 0.6026054080747856 0.7207189850432452
1948 0.7175218944957444 0.2325841812858208
1949 0.2634770731986601 0.866990579466696
1950 0.4922032578481702 0.8460326400706886
1951 0.6979462446334769 0.13177241228338366
1952 0.38279213718831895 0.5099678825607564
1953 0.6728477229695057 0.5629607881924176
1954 0.6157563936838414 0.8671226520040808
1955 0.44011991012343676 0.4482531064919453
1956 0.46308515113371496 0.11977700542817815
1957 0.18289525010163277 0.09265209985035527
1958 0.09870577041172479 0.9727516959200435
1959 0.09300474822611615 0.1917354571761959
1960 0.8159565907983978 0.24992079229403508
1961 0.13999930029705365 0.9620780016357775
1962 0.20225988827258623 0.19688150023193607
1963 0.21089460178142527 0.3998299457567044
1964 0.30919918569410054 0.9386231422590817
1965 0.1414533714981211 0.8891671999557595
1966 0.06659449650389915 0.6611536199553941
1967 0.5961391595777703 0.8304228447410162
1968 0.6530729518562645 0.5494381105801605
1969 0.9873250062990588 0.8771281889398439
1970 0.8548458990713979 0.559161117087904
1971 0.05550419263288342 0.6852181204050549
1972 0.8237778236497777 0.06709777581318166
1973 0.6577946933266104 0.5192233043903776
1974 0.25276161337522896 0.9105443531054268
1975 0.46064327257587057 0.2928399638083059
1976 0.7195314891510242 0.8972592324657876
1977 0.32501866550144876 0.11402990075540853
1978 0.5094893522141523 0.16784550681318455
1979 0.9823908100113676 0.14628965686780349
1980 0.6650812996306048 0.839162308373859
1981 0.9752660466425374 0.02234840700178853
1982 0.2773267922281897 0.44817485577900384
1983 0.5507458523240037 0.40368907313811264
1984 0.6967819889050221 0.7980905085306114
1985 0.832964441700612 0.6394394030649033
1986 0.209380881940733 0.3794569693892046
1987 0.27664289602103753 0.8447514383698103
1988 0.6625862006235468 0.5199807205002949
1989 0.9483249682896334 0.042232912645368326
1990 0.5393759263679564 0.13308159734036507
1991 0.8787789823137651 0.718442482895881
1992 0.28323164056966144 0.6714109389993462
1993 0.12019272576437112 0.2627344712420109
1994 0.7296986900997879 0.7887637628158722
1995 0.13323603004786855 0.7200735294807916
1996 0.7471227684141547 0.46926123006187004
1997 0.31908958790803155 0.568756574046612
1998 0.95932900235403 0.9529525423867073
1999 0.5618318562613387 0.6120826310145896
2000 0.8947653279402109 0.6859902714158524
2001 0.5466172627849298 0.2977051358505367
DEMAND_SECTION
1 0
2 5
3 9
4 4
5 7
6 7
7 9
8 1
9 4
10 7
11 8
12 9
13 9
14 3
15 3
16 8
17 3
18 6
19 9
20 2
21 8
22 2
23 9
24 6
25 5
26 3
27 8
28 7
29 7
30 2
31 1
32 7
33 9
34 1
35 8
36 6
37 5
38 2
39 8
40 5
41 2
42 2
43 7
44 2
45 7
46 8
47 6
48 6
49 9
50 3
51 8
52 4
53 4
54 8
55 4
56 6
57 5
58 6
59 3
60 6
61 5
62 3
63 6
64 8
65 2
66 5
67 1
68 4
69 4
70 5
71 1
72 9
73 1
74 5
75 9
76 6
77 6
78 6
79 8
80 6
81 2
82 7
83 2
84 6
85 6
86 2
87 1
88 2
89 7
90 4
91 4
92 9
93 7
94 6
95 2
96 8
97 6
98 8
99 4
100 2
101 2
102 9
103 1
104 7
105 3
106 5
107 7
108 6
109 5
110 3
111 7
112 7
113 4
114 3
115 6
116 6
117 1
118 5
119 6
120 7
121 7
122 4
123 3
124 3
125 3
126 7
127 8
128 1
129 3
130 8
131 3
132 5
133 5
134 8
135 9
136 6
137 7
138 6
139 7
140 5
141 4
142 2
143 3
144 5
145 2
146 1
147 1
148 6
149 1
150 4
151 1
152 8
153 1
154 8
155 9
156 9
157 4
158 2
159 1
160 7
161 3
162 3
163 1
164 4
165 3
166 7
167 5
168 7
169 2
170 6
171 5
172 6
173 5
174 1
175 9
176 3
177 2
178 6
179 1
180 6
181 6
182 9
183 8
184 2
185 3
186 4
187 3
188 2
189 3
190 2
191 2
192 8
193 5
194 8
195 8
196 8
197 3
198 7
199 3
200 6
201 5
202 6
203 4
204 9
205 6
206 5
207 3
208 6
209 5
210 6
211 3
212 1
213 4
214 9
215 4
216 2
217 5
218 6
219 2
220 2
221 4
222 4
223 5
224 6
225 9
226 4
227 6
228 4
229 6
230 2
231 1
232 4
233 4
234 4
235 7
236 6
237 6
238 5
239 8
240 7
241 4
242 8
243 7
244 4
245 9
246 6
247 2
248 3
249 5
250 6
251 1
252 4
253 6
254 7
255 5
256 3
257 1
258 3
259 5
260 7
261 8
262 2
263 7
264 7
265 9
266 4
267 2
268 4
269 3
270 9
271 8
272 9
273 2
274 3
275 7
276 5
277 8
278 7
279 8
280 6
281 4
282 7
283 8
284 1
285 2
286 6
287 1
288 4
289 9
290 3
291 3
292 2
293 1
294 4
295 6
296 1
297 7
298 1
299 3
300 4
301 2
302 5
303 1
304 1
305 2
306 8
307 2
308 7
309 8
310 8
311 8
312 8
313 5
314 3
315 5
316 1
317 5
318 5
319 8
320 3
321 1
322 4
323 8
324 4
325 8
326 1
327 2
328 2
329 9
330 2
331 6
332 8
333 8
334 8
335 1
336 1
337 1
338 5
339 9
340 4
341 8
342 1
343 3
344 8
345 2
346 1
347 5
348 1
349 6
350 3
351 1
352 4
353 2
354 2
355 3
356 9
357 7
358 3
359 1
360 9
361 8
362 3
363 9
364 7
365 6
366 3
367 2
368 6
369 6
370 4
371 8
372 3
373 7
374 4
375 8
376 5
377 1
378 6
379 7
380 4
381 3
382 9
383 5
384 1
385 5
386 7
387 6
388 1
389 9
390 8
391 8
392 8
393 1
394 3
395 6
396 2
397 8
398 4
399 9
400 1
401 7
402 3
403 1
404 3
405 3
406 9
407 1
408 6
409 3
410 8
411 9
412 4
413 1
414 1
415 2
416 1
417 7
418 6
419 3
420 4
421 1
422 8
423 2
424 4
425 9
426 7
427 6
428 2
429 4
430 3
431 6
432 9
433 7
434 3
435 7
436 8
437 4
438 6
439 9
440 5
441 2
442 5
443 6
444 4
445 4
446 2
447 7
448 1
449 7
450 8
451 8
452 3
453 8
454 3
455 9
456 9
457 3
458 4
459 4
460 7
461 8
462 4
463 7
464 9
465 4
466 3
467 2
468 6
469 2
470 3
471 2
472 3
473 7
474 6
475 6
476 5
477 2
478 9
479 3
480 7
481 3
482 5
483 3
484 8
485 5
486 3
487 1
488 3
489 4
490 7
491 3
492 9
493 7
494 9
495 7
496 5
497 5
498 4
499 5
500 2
501 2
502 5
503 8
504 7
505 8
506 9
507 6
508 7
509 6
510 7
511 5
512 4
513 1
514 1
515 7
516 8
517 5
518 5
519 4
520 8
521 9
522 7
523 8
524 2
525 9
526 5
527 2
528 5
529 6
530 5
531 5
532 5
533 9
534 4
535 7
536 9
537 6
538 4
539 1
540 3
541 4
542 6
543 1
544 7
545 2
546 2
547 5
548 7
549 3
550 3
551 9
552 8
553 6
554 1
555 8
556 9
557 2
558 2
559 7
560 9
561 5
562 8
563 3
564 3
565 4
566 5
567 2
568 3
569 8
570 3
571 6
572 9
573 9
574 9
575 4
576 1
577 1
578 9
579 4
580 4
581 7
582 4
583 3
584 5
585 1
586 6
587 7
588 9
589 5
590 9
591 3
592 7
593 6
594 5
595 1
596 6
597 5
598 9
599 5
600 7
601 1
602 8
603 1
604 1
605 3
606 7
607 6
608 1
609 9
610 7
611 9
612 9
613 2
614 8
615 3
616 9
617 6
618 7
619 4
620 5
621 4
622 8
623 1
624 9
625 7
626 4
627 1
628 8
629 2
630 5
631 9
632 5
633 4
634 9
635 1
636 3
637 3
638 8
639 4
640 5
641 9
642 2
643 2
644 5
645 6
646 2
647 4
648 8
649 8
650 4
651 8
652 4
653 9
654 3
655 1
656 9
657 4
658 6
659 3
660 3
661 8
662 3
663 6
664 6
665 6
666 4
667 6
668 1
669 7
670 3
671 9
672 4
673 3
674 4
675 3
676 9
677 7
678 8
679 6
680 5
681 3
682 3
683 5
684 4
685 3
686 7
687 2
688 3
689 3
690 9
691 6
692 4
693 1
694 2
695 8
696 5
697 5
698 2
699 4
700 3
701 1
702 5
703 5
704 2
705 5
706 9
707 7
708 9
709 1
710 3
711 7
712 5
713 4
714 6
715 7
716 2
717 1
718 2
719 9
720 2
721 5
722 6
723 8
724 7
725 9
726 3
727 4
728 1
729 3
730 3
731 6
732 7
733 1
734 5
735 9
736 5
737 5
738 3
739 8
740 3
741 5
742 9
743 2
744 2
745 9
746 1
747 3
748 6
749 8
750 5
751 8
752 5
753 6
754 6
755 2
756 5
757 4
758 3
759 8
760 3
761 5
762 3
763 6
764 7
765 2
766 9
767 9
768 8
769 4
770 2
771 6
772 7
773 3
774 5
775 2
776 2
777 2
778 1
779 5
780 2
781 7
782 2
783 1
784 8
785 1
786 7
787 1
788 9
789 5
790 1
791 6
792 9
793 9
794 3
795 8
796 2
797 1
798 4
799 4
800 8
801 4
802 4
803 6
804 6
805 8
806 7
807 9
808 1
809 7
810 2
811 7
812 1
813 2
814 8
815 4
816 5
817 4
818 3
819 6
820 3
821 6
822 7
823 3
824 4
825 5
826 3
827 4
828 6
829 1
830 4
831 4
832 6
833 5
834 7
835 8
836 3
837 1
838 2
839 4
840 8
841 4
842 5
843 6
844 6
845 2
846 6
847 2
848 8
849 7
850 7
851 4
852 6
853 5
854 5
855 1
856 6
857 8
858 9
859 7
860 5
861 8
862 3
863 5
864 6
865 8
866 7
867 2
868 6
869 9
870 5
871 2
872 7
873 2
874 9
875 3
876 8
877 9
878 2
879 5
880 1
881 5
882 9
883 5
884 9
885 2
886 4
887 7
888 4
889 7
890 8
891 6
892 6
893 8
894 7
895 3
896 9
897 2
898 6
899 5
900 7
901 4
902 2
903 8
904 6
905 8
906 2
907 9
908 4
909 2
910 9
911 3
912 8
913 5
914 8
915 2
916 7
917 7
918 2
919 5
920 9
921 2
922 9
923 1
924 6
925 1
926 4
927 3
928 2
929 8
930 2
931 5
932 6
933 2
934 5
935 4
936 8
937 3
938 3
939 8
940 1
941 9
942 6
943 1
944 9
945 5
946 6
947 8
948 9
949 5
950 8
951 2
952 1
953 6
954 4
955 1
956 2
957 5
958 9
959 5
960 5
961 7
962 3
963 6
964 9
965 8
966 1
967 1
968 7
969 8
970 7
971 7
972 9
973 3
974 6
975 5
976 5
977 3
978 6
979 2
980 6
981 2
982 9
983 8
984 4
985 3
986 8
987 7
988 7
989 4
990 9
991 5
992 6
993 2
994 8
995 5
996 1
997 7
998 3
999 3
1000 2
1001 8
1002 8
1003 8
1004 4
1005 8
1006 9
1007 8
1008 1
1009 4
1010 7
1011 6
1012 9
1013 8
1014 2
1015 5
1016 8
1017 1
1018 6
1019 6
1020 5
1021 4
1022 4
1023 6
1024 4
1025 1
1026 6
1027 3
1028 5
1029 1
1030 9
1031 6
1032 2
1033 1
1034 6
1035 6
1036 2
1037 1
1038 2
1039 9
1040 3
1041 2
1042 3
1043 9
1044 2
1045 8
1046 8
1047 7
1048 1
1049 3
1050 6
1051 1
1052 9
1053 9
1054 7
1055 1
1056 2
1057 2
1058 8
1059 9
1060 5
1061 5
1062 9
1063 5
1064 2
1065 2
1066 7
1067 3
1068 4
1069 2
1070 1
1071 5
1072 4
1073 9
1074 9
1075 2
1076 7
1077 6
1078 8
1079 1
1080 6
1081 5
1082 1
1083 7
1084 4
1085 1
1086 4
1087 7
1088 4
1089 5
1090 6
1091 9
1092 7
1093 8
1094 3
1095 6
1096 4
1097 1
1098 2
1099 4
1100 2
1101 9
1102 9
1103 4
1104 6
1105 1
1106 8
1107 9
1108 1
1109 6
1110 2
1111 8
1112 2
1113 4
1114 8
1115 9
1116 6
1117 6
1118 2
1119 6
1120 7
1121 7
1122 1
1123 8
1124 9
1125 6
1126 6
1127 9
1128 3
1129 1
1130 6
1131 3
1132 4
1133 7
1134 3
1135 1
1136 4
1137 4
1138 7
1139 6
1140 2
1141 5
1142 6
1143 2
1144 4
1145 8
1146 4
1147 9
1148 5
1149 6
1150 5
1151 4
1152 3
1153 8
1154 8
1155 5
1156 6
1157 7
1158 4
1159 9
1160 5
1161 6
1162 9
1163 3
1164 1
1165 5
1166 2
1167 9
1168 2
1169 1
1170 4
1171 7
1172 5
1173 2
1174 8
1175 6
1176 7
1177 9
1178 1
1179 9
1180 8
1181 8
1182 9
1183 6
1184 8
1185 6
1186 2
1187 3
1188 6
1189 5
1190 4
1191 2
1192 2
1193 2
1194 8
1195 4
1196 4
1197 1
1198 7
1199 7
1200 9
1201 3
1202 8
1203 6
1204 1
1205 3
1206 8
1207 1
1208 2
1209 2
1210 1
1211 6
1212 6
1213 4
1214 6
1215 1
1216 2
1217 8
1218 6
1219 1
1220 3
1221 3
1222 2
1223 3
1224 7
1225 1
1226 4
1227 5
1228 3
1229 5
1230 9
1231 1
1232 7
1233 7
1234 1
1235 1
1236 8
1237 1
1238 8
1239 3
1240 4
1241 1
1242 6
1243 4
1244 9
1245 7
1246 9
1247 1
1248 8
1249 8
1250 5
1251 9
1252 5
1253 1
1254 4
1255 5
1256 8
1257 6
1258 8
1259 9
1260 6
1261 9
1262 5
1263 6
1264 4
1265 2
1266 8
1267 1
1268 6
1269 8
1270 5
1271 9
1272 5
1273 8
1274 5
1275 1
1276 7
1277 3
1278 1
1279 6
1280 8
1281 5
1282 6
1283 1
1284 4
1285 9
1286 9
1287 9
1288 5
1289 2
1290 2
1291 9
1292 5
1293 7
1294 7
1295 5
1296 7
1297 3
1298 8
1299 2
1300 1
1301 8
1302 1
1303 6
1304 7
1305 2
1306 6
1307 1
1308 7
1309 8
1310 2
1311 9
1312 3
1313 9
1314 7
1315 3
1316 8
1317 2
1318 8
1319 5
1320 8
1321 4
1322 1
1323 7
1324 4
1325 6
1326 1
1327 4
1328 2
1329 5
1330 9
1331 1
1332 6
1333 6
1334 2
1335 2
1336 3
1337 2
1338 8
1339 5
1340 3
1341 1
1342 8
1343 5
1344 3
1345 8
1346 5
1347 2
1348 1
1349 8
1350 2
1351 5
1352 3
1353 8
1354 7
1355 1
1356 9
1357 8
1358 4
1359 8
1360 1
1361 5
1362 5
1363 7
1364 4
1365 8
1366 1
1367 9
1368 4
1369 5
1370 7
1371 4
1372 3
1373 7
1374 1
1375 4
1376 6
1377 8
1378 2
1379 7
1380 4
1381 4
1382 2
1383 9
1384 9
1385 4
1386 5
1387 7
1388 8
1389 5
1390 9
1391 1
1392 6
1393 5
1394 7
1395 3
1396 8
1397 5
1398 4
1399 6
1400 5
1401 7
1402 6
1403 4
1404 8
1405 5
1406 2
1407 4
1408 8
1409 8
1410 6
1411 2
1412 7
1413 8
1414 2
1415 2
1416 1
1417 6
1418 8
1419 1
1420 8
1421 7
1422 8
1423 9
1424 3
1425 5
1426 7
1427 2
1428 5
1429 7
1430 8
1431 4
1432 8
1433 3
1434 1
1435 7
1436 6
1437 7
1438 5
1439 3
1440 9
1441 8
1442 6
1443 8
1444 4
1445 2
1446 3
1447 9
1448 9
1449 4
1450 9
1451 1
1452 2
1453 9
1454 1
1455 1
1456 7
1457 1
1458 2
1459 4
1460 2
1461 4
1462 4
1463 1
1464 3
1465 5
1466 8
1467 8
1468 8
1469 3
1470 5
1471 2
1472 5
1473 1
1474 8
1475 7
1476 4
1477 6
1478 9
1479 5
1480 5
1481 9
1482 9
1483 5
1484 6
1485 9
1486 5
1487 9
1488 3
1489 7
1490 5
1491 1
1492 4
1493 7
1494 8
1495 2
1496 3
1497 3
1498 5
1499 5
1500 4
1501 6
1502 2
1503 7
1504 9
1505 1
1506 6
1507 4
1508 8
1509 6
1510 9
1511 2
1512 8
1513 6
1514 3
1515 7
1516 3
1517 6
1518 7
1519 6
1520 1
1521 3
1522 6
1523 5
1524 7
1525 4
1526 1
1527 5
1528 1
1529 5
1530 5
1531 7
1532 5
1533 8
1534 9
1535 3
1536 3
1537 8
1538 2
1539 6
1540 1
1541 2
1542 8
1543 5
1544 8
1545 9
1546 4
1547 4
1548 8
1549 5
1550 3
1551 9
1552 9
1553 4
1554 8
1555 4
1556 9
1557 7
1558 6
1559 4
1560 5
1561 3
1562 6
1563 5
1564 2
1565 7
1566 7
1567 1
1568 1
1569 5
1570 4
1571 5
1572 1
1573 9
1574 9
1575 9
1576 9
1577 5
1578 7
1579 1
1580 2
1581 5
1582 7
1583 4
1584 8
1585 8
1586 5
1587 7
1588 3
1589 6
1590 6
1591 7
1592 5
1593 7
1594 3
1595 6
1596 3
1597 7
1598 5
1599 4
1600 2
1601 7
1602 8
1603 1
1604 3
1605 3
1606 2
1607 6
1608 9
1609 3
1610 4
1611 7
1612 4
1613 9
1614 9
1615 4
1616 1
1617 1
1618 9
1619 3
1620 8
1621 3
1622 5
1623 7
1624 2
1625 4
1626 8
1627 7
1628 2
1629 5
1630 2
1631 3
1632 3
1633 1
1634 9
1635 5
1636 2
1637 8
1638 6
1639 7
1640 3
1641 6
1642 6
1643 8
1644 5
1645 4
1646 9
1647 5
1648 6
1649 6
1650 7
1651 9
1652 8
1653 2
1654 8
1655 3
1656 8
1657 8
1658 2
1659 4
1660 2
1661 5
1662 3
1663 6
1664 9
1665 7
1666 6
1667 1
1668 2
1669 3
1670 5
1671 9
1672 6
1673 8
1674 6
1675 8
1676 1
1677 1
1678 3
1679 3
1680 9
1681 5
1682 9
1683 4
1684 1
1685 5
1686 8
1687 9
1688 1
1689 4
1690 3
1691 2
1692 4
1693 1
1694 1
1695 2
1696 6
1697 4
1698 3
1699 6
1700 5
1701 7
1702 5
1703 6
1704 6
1705 7
1706 8
1707 6
1708 2
1709 5
1710 2
1711 1
1712 5
1713 6
1714 2
1715 2
1716 3
1717 4
1718 6
1719 3
1720 9
1721 1
1722 6
1723 3
1724 6
1725 1
1726 7
1727 1
1728 6
1729 9
1730 3
1731 2
1732 9
1733 1
1734 8
1735 3
1736 8
1737 4
1738 8
1739 8
1740 7
1741 3
1742 6
1743 7
1744 3
1745 4
1746 8
1747 7
1748 9
1749 2
1750 6
1751 6
1752 8
1753 1
1754 7
1755 6
1756 7
1757 2
1758 7
1759 5
1760 1
1761 8
1762 9
1763 3
1764 8
1765 7
1766 9
1767 8
1768 3
1769 7
1770 3
1771 6
1772 2
1773 5
1774 1
1775 2
1776 7
1777 8
1778 2
1779 3
1780 3
1781 8
1782 1
1783 6
1784 3
1785 4
1786 3
1787 7
1788 5
1789 2
1790 8
1791 7
1792 6
1793 7
1794 9
1795 1
1796 5
1797 9
1798 3
1799 3
1800 3
1801 8
1802 9
1803 8
1804 3
1805 7
1806 1
1807 6
1808 9
1809 5
1810 7
1811 7
1812 9
1813 9
1814 1
1815 5
1816 6
1817 6
1818 1
1819 6
1820 8
1821 2
1822 8
1823 3
1824 9
1825 6
1826 9
1827 2
1828 8
1829 1
1830 9
1831 3
1832 9
1833 4
1834 4
1835 7
1836 2
1837 6
1838 1
1839 5
1840 5
1841 4
1842 5
1843 9
1844 7
1845 4
1846 9
1847 7
1848 9
1849 5
1850 2
1851 7
1852 8
1853 8
1854 4
1855 2
1856 3
1857 6
1858 5
1859 9
1860 9
1861 6
1862 2
1863 1
1864 7
1865 5
1866 5
1867 2
1868 5
1869 7
1870 3
1871 8
1872 1
1873 2
1874 6
1875 7
1876 2
1877 4
1878 5
1879 8
1880 7
1881 8
1882 4
1883 4
1884 5
1885 3
1886 5
1887 1
1888 5
1889 8
1890 5
1891 4
1892 5
1893 5
1894 9
1895 1
1896 6
1897 6
1898 4
1899 5
1900 5
1901 7
1902 1
1903 8
1904 3
1905 1
1906 7
1907 1
1908 5
1909 3
1910 6
1911 5
1912 8
1913 9
1914 3
1915 9
1916 7
1917 7
1918 9
1919 1
1920 7
1921 4
1922 7
1923 5
1924 8
1925 5
1926 6
1927 6
1928 5
1929 2
1930 2
1931 6
1932 4
1933 4
1934 4
1935 9
1936 5
1937 3
1938 2
1939 3
1940 1
1941 6
1942 8
1943 7
1944 7
1945 7
1946 7
1947 4
1948 2
1949 9
1950 6
1951 1
1952 7
1953 9
1954 2
1955 6
1956 2
1957 5
1958 2
1959 7
1960 4
1961 7
1962 1
1963 7
1964 4
1965 9
1966 8
1967 9
1968 9
1969 2
1970 3
1971 1
1972 4
1973 7
1974 7
1975 2
1976 9
1977 6
1978 6
1979 9
1980 2
1981 5
1982 7
1983 4
1984 1
1985 1
1986 7
1987 8
1988 2
1989 9
1990 7
1991 5
1992 1
1993 3
1994 6
1995 9
1996 3
1997 9
1998 3
1999 6
2000 9
2001 2
DEPOT_SECTION
1
-1
EOF
