NAME : gen2000_004
COMMENT : uniform customers, demands 1..9, generated by bench/make_tuning_set.py
TYPE : CVRP
DIMENSION : 2001
EDGE_WEIGHT_TYPE : EUC_2D
CAPACITY : 300
NODE_COORD_SECTION
1 0.9643207354206017 0.34595976558474173
2 0.83182565148778 0.3058317256129194
3 0.7957229593999374 0.7787906188529611
4 0.0398228238532955 0.8469219567625278
5 0.33851393849571776 0.08489661937752835
6 0.9978081023221795 0.87314388511277
7 0.8588328856305321 0.9099493446174173
8 0.17015764505980147 0.6251342844804646
9 0.6653659927674042 0.33118096366000227
10 0.7137217182381475 0.05460772896723176
11 0.8473336694354922 0.37593850057046274
12 0.3528792608998881 0.788168817790193
13 0.3253089852811679 0.7681930659647503
14 0.5144626820841145 0.8488639817126087
15 0.07942956182904015 0.8018602669334823
16 0.05224373307361396 0.22317604432062466
17 0.32336543914265203 0.6849744739230488
18 0.16435138131412597 0.9141431453096219
19 0.5003270638615297 0.34773383239209854
20 0.8091196938215455 0.32431037857912515
21 0.9804425798235517 0.3606772918293961
22 0.2018241032644632 0.09911122711271858
23 0.9411493165387532 0.49770315836228374
24 0.492456796224088 0.9805972838233011
25 0.6380927946395731 0.6207971008317541
26 0.4928345553907588 0.5728256739827818
27 0.6006173452927035 0.9871174769124831
28 0.44018969960757426 0.3066941627660772
29 0.3957302534198791 0.09583977158668433
30 0.8652875748403679 0.14005250120886126
31 0.17666643398139836 0.9363069875497461
32 0.26285054653273354 0.779753177246256
33 0.931405784486583 0.7912907442562477
34 0.18239770880699746 0.726892124286636
35 0.8181692332552633 0.9149882045828355
36 0.22004456042088483 0.33239613746037155
37 0.8188052436182375 0.5498279321616794
38 0.21247922909775308 0.3173537757027991
39 0.6912309852940045 0.3026800984784267
40 0.9490885253204839 0.6791365444993767
41 0.09936924165229466 0.5933102705212248
42 0.23518261613591596 0.7894722747589864
43 0.2578267713444886 0.74580059487525
44 0.09085724636560699 0.0010234263099703211
45 0.513657850561697 0.9774475005896448
46 0.4018184906701723 0.5705458115540338
47 0.34409272864461005 0.37949131450705875
48 0.34273340405817543 0.9800065044464987
49 0.6714266349479967 0.3551482866915603
50 0.4383388193953308 0.32545148710185545
51 0.6586663259194324 0.45344464681064456
52 0.886932081195795 0.9049503893712255
53 0.15145185487092294 0.3946309579749744
54 0.5105873486334037 0.9550381103742871
55 0.5043611273984863 0.14730232899277462
56 0.16207532200715402 0.6158453864506455
57 0.5917372962848356 0.5059516232848147
58 0.4823697768725732 0.7453479383635722
59 0.5711000304370945 0.7240675871122699
60 0.20444455338829048 0.889172354584174
61 0.08630783344100901 0.2925799118731991
62 0.011358671888018756 0.0741124301908459
63 0.7829753187027085 0.5488927635377109
64 0.712018062214819 0.9039627941789207
65 0.7272577930715041 0.5039301712667438
66 0.35036786615578 0.051416065657272525
67 0.5968636958349564 0.26509257676371534
68 0.9578472359938222 0.3563144620215979
69 0.165847581958383 0.770764121593064
70 0.36859037288483887 0.4029486585121873
71 0.44702833395723696 0.8668678304948634
72 0.9337984171184353 0.3442405647700737
73 0.30786872601515514 0.10401102072850743
74 0.07593707992731502 0.26662686265870916
75 0.39367682351513344 0.32284041129792107
76 0.003289708670452862 0.06422433567490582
77 0.2476994523251116 0.9319956993895504
78 0.8785206132156086 0.11016170728226016
79 0.3041124996863086 0.14339183424951352
80 0.6432142415792582 0.7200269100479261
81 0.970518393504232 0.43076045299084476
82 0.8578001801365351 0.482605137226669
83 0.5732367037106249 0.05643550908999928
84 0.941600459382432 0.16259937686607284
85 0.7883230232891824 0.24276213210197428
86 0.1883694491951976 0.1380031121704519
87 0.2879706909985609 0.06388990333161104
88 0.8662427578679226 0.19719827206918483
89 0.11801552945920146 0.43818081670294706
90 0.5560933462314797 0.9502744016709422
91 0.31740316080125963 0.6198475657850079
92 0.5866887305112937 0.41142617469050413
93 0.29411705041136704 0.6195899543528646
94 0.12022619172902593 0.10178840576541637
95 0.0374468136237216 0.1606897082924309
96 0.10425708984726567 0.39611322379745806
97 0.905729572159081 0.8820739848718648
98 0.9362298536285556 0.14025002430125488
99 0.16360459654804094 0.6287641044617435
100 0.3524608202040891 0.5692015880484754
101 0.6610737955723268 0.056248119830096366
102 0.7760888441893153 0.4998299424478131
103 0.6052726598450024 0.6318777108534606
104 0.4450161322627182 0.8501237293425172
105 0.5871513990183488 0.7366350953635934
106 0.3790555704987052 0.0022343011784288214
107 0.35612223663378795 0.07352070630552132
108 0.087059202939331 0.09361831681497756
109 0.6348020545153726 0.29062307493460804
110 0.2151296218116101 0.6465198623886211
111 0.46031937099688525 0.9719149083616845
112 0.6127592824500498 0.03876067558624696
113 0.950509362422682 0.4250775689818501
114 0.06812662896393673 0.9348664162146297
115 0.3930028068958822 0.5765039668754199
116 0.2024109713236839 0.8959780718077461
117 0.4488140062643817 0.13612784394998978
118 0.7552801477344286 0.25477843853618454
119 0.14231444401778703 0.8655817101340415
120 0.04744550462519004 0.020279411667300185
121 0.8622261172784076 0.017181463004013686
122 0.38002900184471056 0.7130548117699964
123 0.09606437474226759 0.947078269350442
124 0.49348156819493216 0.36257949324740124
125 0.021971057323677656 0.8331969937867736
126 0.7110572918303505 0.4725661230789635
127 0.062087739366157524 0.006961057889068534
128 0.8634309961944453 0.34888291554681883
129 0.9803947495298916 0.4754468224476681
130 0.8753519055712501 0.7757662652415167
131 0.8596833639287405 0.5284230795226188
132 0.06809872760500302 0.24424511250307857
133 0.06904888236256956 0.008740705347640043
134 0.8107096320775393 0.4832381391618308
135 0.22129896351156464 0.39099961945971695
136 0.8869002119383049 0.3226702857399847
137 0.19033001225168333 0.21588532401145488
138 0.3731715264390516 0.6791244204028466
139 0.3609356591295434 0.7948772825661746
140 0.48401472671649237 0.5657947943888295
141 0.616275832198063 0.12660916458393334
142 0.6874248840712673 0.7388591840710012
143 0.6868338481748868 0.10184629651327726
144 0.6412033898887116 0.9720510630453071
145 0.4260953174766108 0.5840936392231469
146 0.29269719316888143 0.7168514707033364
147 0.6541769071628261 0.742200645122951
148 0.9560549944336321 0.641537249728333
149 0.2505788722585095 0.6168016201236118
150 0.9425258713370337 0.2948308132228845
151 0.49524823897920134 0.2848144368574127
152 0.9033324799115152 0.8479397965230397
153 0.7809078513716824 0.29560133795440613
154 0.25957301595108195 0.39434311155659185
155 0.7436332799038816 0.8494645353162321
156 0.22743482751455368 0.8703179359588499
157 0.5623497462357244 0.19978174432951412
158 0.8191944168553547 0.8230025397207089
159 0.12232941721183022 0.24087482466167043
160 0.21075303695377523 0.024026327889683285
161 0.26883353627610307 0.5025017624440431
162 0.3674850637398307 0.38522618621095017
163 0.5723029295854005 0.7948312972737562
164 0.5833049529071664 0.4276977139861634
165 0.46240400251321334 0.6814117742786782
166 0.9263339037780837 0.9992667214393525
167 0.1273854152103212 0.8160595387632966
168 0.4617385353413278 0.08571738124864903
169 0.9483574338870786 0.020799827178231478
170 0.7438155550038235 0.0017776569308829426
171 0.1794222840538845 0.9531009629712155
172 0.38457845999631457 0.047521553277622086
173 0.8122281037349142 0.9526799643005291
174 0.17590659087920624 0.24597204119013127
175 0.6058094405008713 0.8444544635223306
176 0.6738449128799824 0.887005851666376
177 0.8867039594254539 0.20037396037551214
178 0.8629835463377115 0.24405534709553123
179 0.17046151583107472 0.6695968685881011
180 0.26460681401357444 0.7265784059590389
181 0.38057511411957046 0.018967642573658017
182 0.7180157271061444 0.4176461150753309
183 0.377632629215757 0.09485050681323348
184 0.31156401551738744 0.35097533629985633
185 0.33045325650378055 0.8400060355413499
186 0.639102327443724 0.15760747681467424
187 0.7993472137766029 0.08546753744023383
188 0.8320716628017579 0.4009212693065324
189 0.5542403211482104 0.5790211299341544
190 0.8898200897136096 0.7863190161971354
191 0.4489094348446482 0.920450043454124
192 0.5761756953570467 0.22849639206611128
193 0.7198675713287409 0.24943344275984825
194 0.08117693695777617 0.5064491349709997
195 0.13449314463198703 0.4491538304850432
196 0.6914028449002537 0.8863881579290035
197 0.9871019719888402 0.32729205973352193
198 0.2902203407060072 0.32187418922703415
199 0.1456147746706401 0.11431898908455285
200 0.4362184245520735 0.22178494361845535
201 0.24999991157131762 0.9554253396783353
202 0.6459177782996992 0.6086639015311052
203 0.9476469995517063 0.8288852750303229
204 0.6782501623823054 0.2054063691410627
205 0.7964505790665183 0.7056257484061405
206 0.6113185342072821 0.08463532553919328
207 0.881380014314143 0.998953678344115
208 0.8580052117358322 0.6855458500623755
209 0.4613575804954456 0.7292611051774688
210 0.03068635904050465 0.6932029090675098
211 0.36469910664260996 0.13888656329804017
212 0.8364549360256568 0.07876129565370515
213 0.4411897768781644 0.14657483174703367
214 0.5650741664633644 0.48816461953170076
215 0.8762133422344105 0.12594966346837344
216 0.33146193570975235 0.634454621766215
217 0.7986218991471219 0.7155636959010094
218 0.8518034129107208 0.5250291939388354
219 0.9142178653201887 0.893063325276255
220 0.6051924124445398 0.6863714251225986
221 0.9462115469912998 0.9101191993135528
222 0.525640050337671 0.2959625713763162
223 0.6474646125262415 0.7377286136795087
224 0.21156387519365216 0.941887512282737
225 0.22783144828270563 0.840101319811082
226 0.7975944507731112 0.35694714043767384
227 0.3116424309648329 0.5491152831021976
228 0.6214762897860655 0.9798087616254377
229 0.746551713958647 0.7449737440356402
230 0.1606185308677076 0.3598690315856088
231 0.8380698001440551 0.6110752317326686
232 0.6559320489096842 0.16533194574122934
233 0.36473475696532043 0.8266594366992533
234 0.8651605727412001 0.27940912748721325
235 0.43206348673241923 0.6771894240289495
236 0.6640353950378841 0.9061364356549676
237 0.8267241580387608 0.3441971419628306
238 0.30209173516293064 0.6773907020750868
239 0.6439548725095583 0.34762839203590323
240 0.6565172073151406 0.6421370095502894
241 0.9901742750496039 0.9894608331693187
242 0.22182029152031735 0.029903600157644927
243 0.30348221166392997 0.7927028883596079
244 0.5414336767430047 0.4579986551540183
245 0.5942099522347793 0.5487844378832265
246 0.00821439277418512 0.201164569528001
247 0.12399094280970724 0.018658178030077077
248 0.9215245220643673 0.0028714884622925707
249 0.3504101264933329 0.43264918454252377
250 0.2889272518976782 0.2106382953528455
251 0.30466464488511225 0.5884405637460759
252 0.9591110976327866 0.7313433597145875
253 0.6259932615131657 0.28932962085263214
254 0.06737222471579252 0.4490023572750109
255 0.15843979823704002 0.8794406828541009
256 0.07030834162466404 0.20552160520665874
257 0.17420788473370674 0.33539339141111457
258 0.5296695274402408 0.6577615785530546
259 0.9355070734799402 0.8748721938303924
260 0.4971534593029031 0.498124194993418
261 0.06446965026760476 0.5690105054538017
262 0.8159583358162704 0.6099469670493352
263 0.22363113951201297 0.44341790715340856
264 0.8833751594950532 0.3433763186275287
265 0.7437830077241244 0.2741682993403466
266 0.9581287618600796 0.9337948948918708
267 0.07770410738229028 0.37236066642976684
268 0.2981562183817875 0.0064076700526779495
269 0.09917538058995123 0.05235992636758424
270 0.830481050635588 0.8595950884162629
271 0.16720697573021126 0.6980553503402299
272 0.08204502300912664 0.7802488813789442
273 0.6167620452224181 0.5947128716861355
274 0.07821774656926883 0.3951059088916511
275 0.17629276949794137 0.31615842644018854
276 0.27321966970557154 0.4130409818826304
277 0.712874239798209 0.9372390141351455
278 0.6882539524981343 0.1495883768754237
279 0.21265364589577174 0.40152678714368983
280 0.7226713765195983 0.5832154365839052
281 0.5897346814960802 0.368838634374823
282 0.9435164831989578 0.155323372572313
283 0.10019500359160638 0.23925549523044398
284 0.7708513108562525 0.8194542830992047
285 0.3867331766419908 0.055606487051487075
286 0.808231466005949 0.5820406884848492
287 0.8579607736560356 0.04511329464304947
288 0.28450879100266746 0.43933413841096813
289 0.4272833674160178 0.9380553187258426
290 0.2864809394077372 0.7821416106491446
291 0.011683520246047463 0.5349684731857229
292 0.42687336249442365 0.6384829877726034
293 0.7539938110101139 0.928215372105566
294 0.15184226436356074 0.44533183747322
295 0.9606236514523606 0.8140836665279613
296 0.45665791128642974 0.3079174106139734
297 0.8752286859484849 0.32465173528705515
298 0.5213075281524097 0.45162783192048594
299 0.7328419524542666 0.06745288958380802
300 0.03977299544112689 0.1869405383931666
301 0.9501510577746282 0.22451045669796144
302 0.7939574725034191 0.8603333431495931
303 0.9020666049278077 0.29218395661026275
304 0.7161844457146874 0.5972014236702503
305 0.535216841230297 0.006856071407554953
306 0.45692003343432486 0.6611601437000251
307 0.5169710825554731 0.08186431430447827
308 0.6430147406884924 0.5028694957610595
309 0.9515200453881082 0.8035561922797078
310 0.4814075007809826 0.41732977183402387
311 0.7542898480966287 0.5357122117532305
312 0.07033923592488367 0.6787151067192067
313 0.9591327212540461 0.40385739688289
314 0.5489439610379786 0.5685542382506537
315 0.3404997909756725 0.02796634097732187
316 0.38223529573158865 0.29701581812404776
317 0.7223920724066021 0.007668703530751331
318 0.842487711044557 0.9227084474383968
319 0.6187204571629077 0.9268343008033779
320 0.4028301234597814 0.45171890664996717
321 0.3039292750039001 0.7628566009264662
322 0.4773826409674089 0.9534526544049905
323 0.666705813393645 0.03218571442435081
324 0.8123232768650964 0.6627476630214242
325 0.04493890994024541 0.18938495426399582
326 0.9307438998071929 0.33691103865445904
327 0.7161678476501196 0.3641599231987187
328 0.3240279975707 0.7545033665778161
329 0.04565228389825682 0.8174681880269585
330 0.3261980673611563 0.18000252222805535
331 0.3037558360053483 0.7845783223181326
332 0.4275536414406679 0.10643398830040818
333 0.33885011096797335 0.08996242555960487
334 0.3912386359337484 0.6433607129090002
335 0.7733094756657168 0.8906823448222788
336 0.26403499648378415 0.5292580892190734
337 0.02708578898518521 0.10194412364772765
338 0.5261530914188285 0.670027824175358
339 0.06820242888364436 0.8547557042744918
340 0.17291011114366572 0.8948638718536488
341 0.4465148577621244 0.9266579939473674
342 0.3813795731190037 0.14621075253318638
343 0.2135029397583107 0.7533027497247083
344 0.17571478014592068 0.38765475616013867
345 0.7299525031279143 0.19017114182616301
346 0.8718852351301407 0.735530175557767
347 0.7321404486944483 0.9526042095597078
348 0.5579892820480549 0.4306255596955382
349 0.8043256265972629 0.19930600362358641
350 0.5859296345995122 0.6897357162899173
351 0.46181680103908673 0.4356518748790926
352 0.6136696098618242 0.28649172165088266
353 0.9216185201425346 0.9693504060359102
354 0.4318880689464337 0.19764360932685532
355 0.44629152010547934 0.17530321210030653
356 0.15566421235618066 0.024201343175646817
357 0.8090664305924118 0.41018639906467336
358 0.3267856919609421 0.6407708344271591
359 0.22852313574409389 0.5281196611297267
360 0.007561040121878304 0.8308748025123494
361 0.06928232708751814 0.2665676104868435
362 0.2751001149136566 0.509912853335399
363 0.16795627172226657 0.15839708217005644
364 0.21403293044614402 0.8814072393983524
365 0.2997110479033993 0.7389179709195677
366 0.7776590103169612 0.6235824647606086
367 0.8717804727035736 0.06625589437287083
368 0.026906238877194788 0.42567620520280414
369 0.99549912328859 0.5157420269606315
370 0.8353470281347107 0.6174884452882808
371 0.9585240630387528 0.2046827596347992
372 0.47046440157065383 0.17771457296516302
373 0.28075280492320664 0.5278045452766429
374 0.5317753294200713 0.28027829105936586
375 0.041547686753332425 0.6031625546558224
376 0.527469297577764 0.2875241436705316
377 0.45028240655908747 0.47044250150825895
378 0.4255040415005281 0.10402693970186583
379 0.31627438357503734 0.995118089620849
380 0.7674617875055187 0.0725468597520551
381 0.27832896490586134 0.5649493904753708
382 0.8290036745781 0.11375318187260675
383 0.5303817562475591 0.590937326573338
384 0.40216669719576215 0.5572624041180704
385 0.36886899506418636 0.12418892307477591
386 0.9525098710432193 0.8393192903634639
387 0.9782237287114697 0.3536126050010425
388 0.05416934932489281 0.018489078851513074
389 0.05795321574905976 0.6752668556634581
390 0.701180548076866 0.20158606936692802
391 0.40729970252585856 0.17471107689091692
392 0.1403498793831165 0.894410881834009
393 0.3656261616492471 0.8597761443493893
394 0.7529331812301739 0.011063596073146775
395 0.12106016334376013 0.40222961343400654
396 0.40541560235987795 0.6912579900664814
397 0.24934453175702265 0.8974263644223609
398 0.34663064421885936 0.6347975720945006
399 0.3792610418214474 0.5513570365809957
400 0.8253573907011902 0.1390644813725127
401 0.1329560228697496 0.3838686806696221
402 0.0632202658315445 0.3655230704083199
403 0.6621298018891906 0.5968689069406137
404 0.5472899797918431 0.6118047926848488
405 0.9118662551637211 0.6961845383067772
406 0.9547963754049964 0.6848928705520149
407 0.2393456266401185 0.8081662237089432
408 0.6235791433611111 0.5713543682966662
409 0.34288813939406204 0.2424958427677817
410 0.16734059484145447 0.4099362532029638
411 0.5620443645017472 0.9571789958629473
412 0.44893275527808574 0.5333164014592536
413 0.993163641145776 0.5182067201342084
414 0.11943230525344206 0.39356231580544965
415 0.4829328922734031 0.10773298593353886
416 0.976385770282774 0.7249451963296166
417 0.839226963190123 0.9209091812127882
418 0.16557933831135485 0.639915596773656
419 0.745578512496206 0.22845737830669244
420 0.6758841024277237 0.1405013251826459
421 0.4257696308978842 0.12199346198903493
422 0.5288318881083259 0.5006090527456079
423 0.5384346136197466 0.18073185580038298
424 0.6478008611388961 0.8359096667114484
425 0.5187074819241615 0.7528364792791012
426 0.015134238172707537 0.6084857762736268
427 0.8043770024112562 0.8820611262567587
428 0.24023883280819336 0.9961404019296418
429 0.8211242606650556 0.20231777994199374
430 0.16309916191690566 0.217946165290557
431 0.6503728529140504 0.533061600377653
432 0.9854718827290252 0.25349422893331475
433 0.6521910434406588 0.16618638959396526
434 0.5401845552959896 0.03828812225518097
435 0.8901678569319678 0.48171862656469955
436 0.024062878688176026 0.5720053263988781
437 0.6267343126532819 0.8703443276479889
438 0.539195752866006 0.7727433572746374
439 0.14710445935925953 0.21798461895641486
440 0.5884558755345466 0.9749695994416261
441 0.49478687208326466 0.29890310752387217
442 0.767398255611574 0.15609041102044174
443 0.06387612703523715 0.8286264337320797
444 0.14819989341657003 0.6650921794498805
445 0.7013279815681197 0.09059334982146339
446 0.9960119617415539 0.15229107599105773
447 0.11201564870256264 0.7880035279104476
448 0.6491817912930635 0.9929984092796973
449 0.997324527509729 0.1283345888826305
450 0.5892128773445914 0.833884491241102
451 0.204100276652609 0.9733288151384837
452 0.8397624485770224 0.7824779985394066
453 0.08721123621528859 0.20644152494155088
454 0.3473115779873194 0.49994701530275865
455 0.2195570319614253 0.7077827258159863
456 0.6993699376199448 0.04119181039179487
457 0.702661095628444 0.6377811198265284
458 0.6178056595666123 0.8295748662826611
459 0.5493860956959069 0.13151252773881916
460 0.10388123618174772 0.9533142965725672
461 0.707163684977065 0.8381322654193288
462 0.01335867339979413 0.9355987250770442
463 0.6092916194536235 0.7973038599322977
464 0.2581612931624898 0.627687544698009
465 0.8959949121411641 0.23156054316352725
466 0.4231100229464224 0.8784532791311339
467 0.4020840376050909 0.518185205992943
468 0.8622111137586063 0.17460034609386588
469 0.5898524224377427 0.9362942064825917
470 0.8768752668162411 0.9791146459070316
471 0.2796537161812138 0.983717084568767
472 0.1470009546751705 0.04964991783420347
473 0.8319580614491797 0.3939791638719613
474 0.004774871594089847 0.21604075021916602
475 0.2869743893750636 0.6287592711466683
476 0.8379656779195702 0.07662207854505954
477 0.4007033737846861 0.3836262413404825
478 0.4929510489719473 0.5965333775192849
479 0.6673722307199821 0.23824208580302098
480 0.6169391083473683 0.8682046957324802
481 0.602678262433738 0.7487392375724377
482 0.6841252847630649 0.6763489409950865
483 0.8464688161072368 0.8279601501155228
484 0.6377772404682207 0.6137016833574069
485 0.8906609651546802 0.907703112990487
486 0.9568940140362018 0.2390454135064377
487 0.5315931270999602 0.10828060475471668
488 0.5691102316946886 0.3187514288082929
489 0.7788048611456903 0.5620267485482443
490 0.5001983144439301 0.5713715692526143
491 0.532368098006648 0.7116496982937524
492 0.26938634291725205 0.47199928399609514
493 0.10043841018704047 0.1652214306958859
494 0.19994232112756838 0.9714148010408158
495 0.5048487196876741 0.28060198223765254
496 0.06014493281751365 0.7135705203168374
497 0.4906098297490239 0.4651489524096064
498 0.17763756889010407 0.600842358049943
499 0.6657300734609641 0.9864340497205193
500 0.6301346285179558 0.2959835862851923
501 0.8343069142856018 0.0738765052288578
502 0.844308233986087 0.2908453688991699
503 0.1491946222889602 0.09919285344505568
504 0.8187138163681278 0.16939632897107493
505 0.31675822921279095 0.7819752687360495
506 0.38059793799569075 0.1052524223568907
507 0.6919381589484785 0.40043006595736574
508 0.9530101642759612 0.41778773839236794
509 0.6997644116128214 0.2238170014376495
510 0.7669264241699385 0.13488634386631537
511 0.40502617555703346 0.9620848949847264
512 0.7314506521540474 0.37379703202677816
513 0.791208881729715 0.1536961249455121
514 0.575437136870443 0.934858280846602
515 0.0361917398471876 0.6110052349118522
516 0.4495645326045884 0.028486235957198125
517 0.9157645672921113 0.40204679631792606
518 0.5684551466739923 0.8610380617906416
519 0.20774218901182062 0.37401104317947564
520 0.8151637436882372 0.40348840456474633
521 0.899734813716064 0.11410683677802336
522 0.9673157638657639 0.3637302388498903
523 0.7199614662622064 0.17646085485211582
524 0.5574164257280718 0.9325264528079651
525 0.06339693387858625 0.7468712205698687
526 0.43806804605490346 0.3401782459364171
527 0.08337339751991546 0.6780115273911763
528 0.3037819833138943 0.7680584429568829
529 0.6658324205362346 0.04651859238283418
530 0.10278980692839734 0.23642100372050434
531 0.9981083935302563 0.8164691191125567
532 0.4231927848680769 0.9460155804886157
533 0.13145720428937113 0.4304149979126801
534 0.02667308255233236 0.8795371828305569
535 0.37458235180915656 0.5463239583828833
536 0.8714795283015977 0.3500608920642697
537 0.34576331243337355 0.1799654504649688
538 0.6269883722099208 0.6054486086939616
539 0.6811036244253308 0.3229676592197933
540 0.6121528254639673 0.13942440144373358
541 0.6682439521513398 0.6954060619666713
542 0.7708746674673174 0.3260126242536484
543 0.7347718387880015 0.8390466913240168
544 0.1042905531169872 0.002318414876881003
545 0.25988906143207 0.9890898500762755
546 0.6999267513462624 0.22215694286715737
547 0.5873923301826223 0.7764084563627244
548 0.2521032674044025 0.7403451356158035
549 0.995770957991652 0.05231226294548297
550 0.35207725923523736 0.3303493615181293
551 0.35057381662737663 0.7525876877471921
552 0.10738171109206596 0.794801921053727
553 0.8184798445637542 0.19238293314542565
554 0.12631708163720612 0.21011318921047473
555 0.1976416012980572 0.40212917217954214
556 0.9759602330084945 0.45556856423975634
557 0.5209968571482272 0.43309955852636683
558 0.8625138896380758 0.5379208275104701
559 0.6950753481533986 0.2408488755127246
560 0.4562055529712985 0.09247609061241546
561 0.8402694604704108 0.8804771309630721
562 0.6934815138641067 0.7716300477997173
563 0.3103337139007445 0.11044976325468292
564 0.06480509886593766 0.2747604419731965
565 0.7464509847116345 0.9848784446846139
566 0.6279000628033592 0.340054534478168
567 0.6592024788484618 0.7662672570906173
568 0.22628902487717906 0.1781520620546826
569 0.29970998837820484 0.9498105577575475
570 0.0066371116770327365 0.7584403530803105
571 0.2621548315114872 0.11191379949410574
572 0.07070773751490189 0.13673421930793517
573 0.7084123770186876 0.8644318053950871
574 0.6782572538683824 0.45312072592091923
575 0.8749558315592576 0.49386755384252734
576 0.9880763190629778 0.23344369466192072
577 0.8754963479471285 0.34868150910576534
578 0.4316909633583913 0.2255344773692084
579 0.817326233323847 0.039452855152297794
580 0.5434670562856215 0.007407541960872899
581 0.5905396401844206 0.8820119824764447
582 0.2871665113502636 0.934502705352064
583 0.4066198120105745 0.5851902451207156
584 0.9894026959181779 0.29233956891596424
585 0.5191028842128355 0.7933332128334534
586 0.9200585444374054 0.28310639760707035
587 0.7200113218881612 0.1160967507080296
588 0.3462948399058856 0.7951750225542135
589 0.8351211198757683 0.5974521792236819
590 0.48421258591997784 0.6302224276100609
591 0.9253518320600378 0.3971498148923003
592 0.38926095947222117 0.4252395800906885
593 0.5041743571612135 0.348008609218341
594 0.4903766514026603 0.6999725891444274
595 0.7220006916977034 0.7309611900954845
596 0.49393039812452433 0.8929217224893076
597 0.4292931242844745 0.8820738220047
598 0.5478560920542045 0.9432134628107209
599 0.6273298717027131 0.9216887846797246
600 0.9287118589234841 0.18631188893401351
601 0.9806283277214638 0.6389130518780972
602 0.5585056403546086 0.8218276182786757
603 0.7803031786038039 0.7772958823147836
604 0.10561790314039365 0.4935413204078233
605 0.9919575723317414 0.9916024003601269
606 0.6270410537027485 0.30151996834519534
607 0.41217500675038476 0.06367747103772181
608 0.3893984418083045 0.4520698474769378
609 0.308894690511477 0.5716244060711868
610 0.6259604698637723 0.30230121304786794
611 0.7248384250102811 0.5581571303255162
612 0.730695567298409 0.2731655711464541
613 0.8016213204994923 0.6957654915274105
614 0.18018181690702928 0.04147860135037096
615 0.5615094189398078 0.1915240314196548
616 0.2917347039932707 0.7058429462010839
617 0.8052279140461198 0.6887547541007845
618 0.7004169721981521 0.6790643630287998
619 0.15854047755125322 0.31864667566978555
620 0.6003216356481353 0.4187568940030998
621 0.9590065059426639 0.5647490988774524
622 0.14764825373015744 0.6748971680392294
623 0.4658762006422392 0.7324591893757882
624 0.5742643784740854 0.829278882086359
625 0.35917220524101134 0.40861643305575945
626 0.4037809693674058 0.3900796594910876
627 0.516637200729855 0.4006405100599627
628 0.5521783131797915 0.2826616047689541
629 0.25505419270896124 0.8730013917535985
630 0.07147983635645772 0.802910917041217
631 0.18069457772779274 0.6217838146502513
632 0.9905383792399404 0.4554477503783676
633 0.06263054958547754 0.6559933022004345
634 0.1893937355157046 0.8759735455011938
635 0.35218083454000326 0.07646291770188796
636 0.5525551112672198 0.9369576090245638
637 0.38788272791280476 0.05376689890434183
638 0.69060678497047 0.07310780710744136
639 0.9120493284823288 0.5605042717815978
640 0.7209195170351593 0.7148322977544784
641 0.4189942178330698 0.8297951847391637
642 0.9641301063374824 0.08582350600622202
643 0.8770078199269452 0.570554327976149
644 0.18142688079867397 0.44142643782067903
645 0.36528878618212346 0.9746248920153763
646 0.9227251624252079 0.4709084305609451
647 0.5301290631623058 0.6070050566196746
648 0.3624590174597503 0.06635311414997003
649 0.5709331899511129 0.977046295983803
650 0.6186730218347947 0.07315746579439553
651 0.013036703039766229 0.15316634381977778
652 0.5815434655913587 0.23559564712248948
653 0.8097555540400437 0.7628624981314491
654 0.09725844356715907 0.18487568511065733
655 0.3445126443649763 0.2856924590027754
656 0.37146933978936536 0.812073860998988
657 0.1945630686608124 0.7106705269140436
658 0.6779065409278144 0.7997393317104016
659 0.7302643363145609 0.8683279168747792
660 0.5259980488876027 0.4726251550828322
661 0.36962612976639264 0.8714157097616487
662 0.7662248051799481 0.3493545384304485
663 0.9529268373299556 0.703406903307038
664 0.2409056449082806 0.24249718583406388
665 0.9000750238260454 0.029355726888972145
666 0.38785413909897193 0.6804382485362165
667 0.003343754531530907 0.03598872377975648
668 0.8012776301793482 0.6794982013925905
669 0.2239227078815913 0.17029835592844011
670 0.8427663745267316 0.4488426361480231
671 0.8877453918993469 0.9884110353762318
672 0.49429032852880883 0.410358718687704
673 0.6569430356057869 0.1464483550413006
674 0.24468664543933816 0.021670973507729063
675 0.7644985439729061 0.11968811982998373
676 0.3998564292279998 0.7714792328032922
677 0.6675215858797305 0.2566740787663546
678 0.6809406631511993 0.7403397310364812
679 0.8181455044225682 0.35004766165372403
680 0.24934079106746654 0.3779203645624437
681 0.03181953679004779 0.42528458830586624
682 0.6634310475336604 0.7993589936784758
683 0.6378048331247828 0.17273369335255417
684 0.6111581510158322 0.684928142169658
685 0.2710314688193295 0.09559354403714526
686 0.38598354880703534 0.874667018747544
687 0.28105477852309346 0.6393797980547519
688 0.5909927645992882 0.43991729201271845
689 0.8626555842525393 0.7006043785872116
690 0.9957582289019811 0.21624724206019874
691 0.5559322552078816 0.5924243842125271
692 0.2818751458282126 0.6431115076733519
693 0.21437982083440965 0.8987662151732694
694 0.7600154235579191 0.5737403060934422
695 0.16983728296276301 0.2279478740895745
696 0.2963394869215876 0.6065254898644404
697 0.852123665862665 0.21930474071701245
698 0.7371575782724757 0.0626243543103413
699 0.6164623689842026 0.05745389525762101
700 0.6762822666685747 0.6229196234901561
701 0.3873943927155742 0.5794562886414097
702 0.8734703450578101 0.14210504218912567
703 0.680283713552007 0.7366103821865262
704 0.7074772577568029 0.338969900134826
705 0.8701154026989323 0.15177554492033907
706 0.6932224975951835 0.48884088144869187
707 0.5329270620801395 0.23700269110734717
708 0.48876771087631177 0.3126893550120504
709 0.23422060146711743 0.03974502925134671
710 0.4347265866594685 0.9991212152673735
711 0.25466988049888395 0.6393801297398013
712 0.16307490131919977 0.2901208566916317
713 0.8768673639471575 0.7988836535132058
714 0.185906337730396 0.03666748275722587
715 0.6290323591244081 0.5907139787749341
716 0.027122833918968414 0.9674311205615004
717 0.7300409907378853 0.3205849868967965
718 0.2250483757626489 0.426663454056881
719 0.13635417001397554 0.5283855444458885
720 0.9686640323835246 0.9165791509469966
721 0.6981836058255163 0.9740842939528673
722 0.6382732056876513 0.5715023670563999
723 0.5822751368129209 0.36936109909532344
724 0.927780068137205 0.4231875451967164
725 0.8956646690273568 0.056589548743074536
726 0.9850263288733849 0.41031776197418046
727 0.9113299662797669 0.31040579340825025
728 0.5998291069641393 0.27457627128135753
729 0.3200688005913145 0.5101850550800758
730 0.3525421637315703 0.8972274809082976
731 0.28074721619554077 0.6099040286839903
732 0.10625078612109096 0.23804201042593065
733 0.44728232903634335 0.15677894428628025
734 0.34469076764501083 0.16412393945773107
735 0.3914299508953515 0.7200475541297527
736 0.5376126067263152 0.5539389806832401
737 0.24542690284809943 0.565395742056762
738 0.4868301616662555 0.9062835539093242
739 0.48315501950854123 0.17701173662531977
740 0.7549717235436327 0.36815610204446547
741 0.4349736283830402 0.8748912667699486
742 0.30553520571188686 0.5640561394917071
743 0.48566067649301037 0.43775739653046686
744 0.6204329891869316 0.8198855323608972
745 0.568021441706395 0.08827292011321275
746 0.010272820618416167 0.5692727106504987
747 0.8608401745599199 0.9986232241407628
748 0.6089439421811 0.03636082914175254
749 0.12032990836049096 0.5636964982663276
750 0.1134869202365818 0.980781365992718
751 0.26410453264084366 0.14343928253952531
752 0.6158905617198766 0.2878008518159231
753 0.042342565433452606 0.07139266812041811
754 0.7735983538328268 0.542774981940128
755 0.688934691841143 0.7867171476566466
756 0.14191053612383608 0.5791244550138136
757 0.9437058144526761 0.7309345255651507
758 0.8296401065898353 0.6075563203752796
759 0.7351891464551259 0.6228248446845992
760 0.1472585758289725 0.5999282710656536
761 0.047564682694361426 0.4903852373261869
762 0.7510895910719732 0.687082236509583
763 0.18872857961408662 0.15232823425132758
764 0.24286757819350024 0.36825097153361375
765 0.036389872104405474 0.25203631888852074
766 0.032381389125528015 0.9903772873926192
767 0.4455257381327643 0.05301283884318042
768 0.9660779105684957 0.42280753300317053
769 0.35884411212223855 0.4029191464566496
770 0.01764032361376311 0.22085959367764318
771 0.1864065614130891 0.4919485146807683
772 0.3847842654149919 0.4229176492969974
773 0.01400890983090497 0.4737720697347675
774 0.35673747545838874 0.3633457547019747
775 0.11339895373628861 0.7809866984534093
776 0.5712505540499724 0.4459658102712891
777 0.08335028160034064 0.3653286851829728
778 0.19730430074795358 0.09735687392313852
779 0.9402344397972181 0.09663381713884578
780 0.6494188832163347 0.9204938653741235
781 0.768325408313698 0.7501632515459111
782 0.7154251450706159 0.015853453460369815
783 0.2698724747581096 0.8863114513748181
784 0.9131054513012377 0.8987940190934092
785 0.5514194293319575 0.5406651608501051
786 0.032431840103028686 0.8100516182216823
787 0.26415524267443347 0.6875382174691865
788 0.9161008832519835 0.9044129153922259
789 0.09805451968747947 0.15491209069037792
790 0.19516036669989467 0.2743070028244381
791 0.4007580079184837 0.28152438709719685
792 0.3977697832703039 0.9598955870673919
793 0.5571013469302818 0.6791415745652944
794 0.10589332379680994 0.880704254978426
795 0.7636526514768603 0.29372067374652655
796 0.3655862383351469 0.7184484631641461
797 0.7132047047318703 0.6436966082016882
798 0.8141059729275822 0.15745066567372856
799 0.42874211600677614 0.03921179694854171
800 0.24415175321171145 0.8845214794699419
801 0.5998885718064788 0.5889504616347068
802 0.4204229657428722 0.518052052464107
803 0.5185573894336896 0.7583076751131497
804 0.021065834964482 0.3518625399586669
805 0.194417330888759 0.28919952794895876
806 0.1175148805794074 0.6976789687659031
807 0.4492381326699545 0.6576531167614934
808 0.6618691289074011 0.938162176464094
809 0.9579885594744604 0.31900625282954
810 0.5198098366805101 0.48202143903055716
811 0.8043354377689187 0.7123956958319947
812 0.18894329765551487 0.6228254649847964
813 0.06722162805488574 0.31020791232813005
814 0.4834086932008568 0.6636892814928538
815 0.48557484390989547 0.9560273564514792
816 0.10731671087848949 0.9885332934738562
817 0.9584147958485765 0.9791166534227116
818 0.566319301197334 0.8562367045615908
819 0.29251973512125595 0.6857755876291488
820 0.14751907109036266 0.2737684671716676
821 0.5805601293187781 0.5577320002517074
822 0.3871655656697982 0.880644787850224
823 0.4015953944849021 0.6210994006260123
824 0.8544519398881879 0.7596523681056868
825 0.1634008669865049 0.5678096826501217
826 0.4802917313551057 0.006891117487393239
827 0.6413783428962108 0.6593034673615003
828 0.8772212073194156 0.11086026729335241
829 0.5189806640435242 0.40957560660111414
830 0.42722067059383484 0.46097287718115276
831 0.06447839643408126 0.3859858466397573
832 0.27082747192220746 0.9971867329543707
833 0.16442392496514913 0.8264346971581605
834 0.9801176494756025 0.04482796779446774
835 0.07797951932213765 0.24410089115439637
836 0.2327782852518674 0.254862869241121
837 0.32909059880029645 0.48741794175403275
838 0.8315481602708716 0.2815388559097969
839 0.07972930099646824 0.1301475310818686
840 0.8800863792637298 0.8364991658609854
841 0.051447159043496504 0.6636303772864266
842 0.42798279281473406 0.9236511283866317
843 0.05039208611775092 0.8721310001793707
844 0.3623885476362747 0.7216127195166268
845 0.39484208304443813 0.8973984212369274
846 0.19881692176619603 0.8985728803366397
847 0.08071953773227702 0.8136471609010785
848 0.3380013288841597 0.9686928000610258
849 0.4056929834998759 0.9326212077523157
850 0.9064702734934654 0.7822614311784125
851 0.38120998560780583 0.09022000066010816
852 0.6896388138772986 0.18957656343539864
853 0.1777419565595011 0.4881320079244248
854 0.6424555875361937 0.3453262677917205
855 0.8786025400742258 0.14911457571835318
856 0.04126560438941973 0.6949105839061742
857 0.7546950148673384 0.1499168341810878
858 0.008688510969500185 0.2548232669277768
859 0.3298478907655841 0.4784043867867066
860 0.9441437361852484 0.42848807674398726
861 0.5768797119150603 0.24574984129025423
862 0.29507653653908217 0.6418590353964737
863 0.7957699128363337 0.8078891641649204
864 0.8085259682772007 0.564767814041821
865 0.5897463400470923 0.5772159685769233
866 0.4185956594636372 0.27554967736941494
867 0.12821612309791253 0.10747405720762393
868 0.2823772368715681 0.9990027144849708
869 0.6497033005933683 0.3512577790390625
870 0.9733262768425834 0.13785946967537055
871 0.22295332658440914 0.3079281685617954
872 0.11142900184383053 0.9669238962606233
873 0.49750283378154636 0.3651236501320465
874 0.5626033524651132 0.6579732326936675
875 0.9201099854001639 0.7041890985275802
876 0.21883185289474794 0.8083856461100771
877 0.8153179526243982 0.308215710784699
878 0.16027758929655656 0.13940616984147258
879 0.8597554838755453 0.16149909495932957
880 0.17111762374110695 0.7947489727578959
881 0.5586102210680101 0.6899369198636989
882 0.575689034147983 0.7138789390920217
883 0.3408470444890678 0.4615756509680984
884 0.5271489297795653 0.9596164340268418
885 0.5851697076715295 0.08668139574474187
886 0.5527179613535728 0.9927742543100445
887 0.47957618776835453 0.9887055851685723
888 0.6835432185741773 0.6318231568207687
889 0.23933541956647864 0.25177675970402136
890 0.6376409537738494 0.854497031026993
891 0.5839945013009933 0.3458361923333515
892 0.5387204739992083 0.3195078697597318
893 0.5149522764024189 0.8472665035927972
894 0.18329880397316323 0.570617638525783
895 0.38035914518821845 0.5737920272914362
896 0.7788326988526129 0.5726101232802753
897 0.17493918221387528 0.3491243428227395
898 0.551234731294022 0.1505643264840295
899 0.14586467874302178 0.10956023934051828
900 0.19205431573077836 0.9966816339879228
901 0.318474157259358 0.030743683888316276
902 0.07999247178004054 0.3859353468159371
903 0.438948604423129 0.6188525992989257
904 0.2326820899755795 0.9538553084805594
905 0.15922799956101163 0.26660212799186
906 0.36242849136305366 0.6089313882184221
907 0.2599227927137624 0.6223581703752453
908 0.081866864088599 0.1558714309356506
909 0.7430129891723696 0.7904761102832056
910 0.9999114888402979 0.43934515480402025
911 0.13442827472010466 0.47462382511484036
912 0.8202440756292237 0.9789362921302238
913 0.4957864524728749 0.21359049667754848
914 0.8803253521714495 0.5238196088536904
915 0.14306974929581662 0.5808022383741571
916 0.5698405709385007 0.4774171833100088
917 0.30555674966398605 0.7461107622308992
918 0.461965530472494 0.48777010533343246
919 0.9743794869984105 0.28260709823278307
920 0.4028870587076959 0.9428153983072189
921 0.7648860371621242 0.0348380112955039
922 0.04621441262647552 0.2890306647880252
923 0.14371254133287859 0.8590764351117474
924 0.33577358549672565 0.29666723611670953
925 0.7582473775500439 0.27656443304808165
926 0.2860706264585239 0.8708952612684546
927 0.07061877509872616 0.7046019590352863
928 0.5767760834258335 0.03857943102725647
929 0.006662296574809989 0.20063499099073612
930 0.8566055094324365 0.26476954950374976
931 0.7969187034613969 0.1338232575965178
932 0.7089770238194535 0.9648887266604346
933 0.11949610910111375 0.05180863513709155
934 0.19306769859628314 0.4644267344987788
935 0.1374751551905684 0.9964645667834523
936 0.7442042596370559 0.19729051703463119
937 0.5574770572273257 0.7946836101900173
938 0.9583791536047296 0.6141407031773193
939 0.26649132564933764 0.9242259183946014
940 0.2209625487598047 0.26469750971166506
941 0.6344865928821343 0.1559913669666243
942 0.040872054776791567 0.4091187831281946
943 0.998115363635059 0.33094905674824715
944 0.20100605628122847 0.6107430606569689
945 0.447771093413706 0.6982386206587645
946 0.9451648565550729 0.044148698975566614
947 0.3761344791285077 0.4701135050923497
948 0.747166130561145 0.663695751610635
949 0.06904965184443701 0.6977984944016645
950 0.23131477163648106 0.08333924267442205
951 0.5987004727793407 0.8929697263603749
952 0.6415925183295402 0.8959831353883005
953 0.23630743124057652 0.36740265757275503
954 0.18742212764898902 0.7794901697389788
955 0.14537617167227668 0.33351849195368966
956 0.14262598636947976 0.4236455546324648
957 0.4942192052581562 0.9994973451264475
958 0.6209030697962438 0.16926450586618125
959 0.02090760217756249 0.7667804363891431
960 0.30121390205276644 0.2831094536338633
961 0.40666755700292734 0.12153711687442514
962 0.004518085889318679 0.7941921171620524
963 0.4313454875915821 0.8656226708394101
964 0.016680655848670067 0.0012288731231354655
965 0.6475877090162574 0.4214652490910702
966 0.9659564990161288 0.9050462841391923
967 0.8690804868354308 0.00428315712059113
968 0.4309190345998444 0.10199106187912665
969 0.13603275674815152 0.13281555383414834
970 0.6983215483166186 0.5227875592173897
971 0.5165912277463873 0.795324427594413
972 0.3287211099568679 0.9972088318165642
973 0.025789756083730575 0.5146299419049881
974 0.0780231411764103 0.8467709374832518
975 0.655517309736606 0.6019055135292282
976 0.6217682035996431 0.5203284010566966
977 0.2456370940211935 0.5523800982361481
978 0.8720720341008732 0.789940298908854
979 0.04675758961061505 0.3862814876571854
980 0.15263997971197873 0.8279353443709511
981 0.745241290028442 0.709471837094659
982 0.20885932391919004 0.605339113655807
983 0.3285533485788519 0.7683571614008854
984 0.2833031221979906 0.30282813439011724
985 0.48343507375290884 0.3382623108147814
986 0.8942807779809414 0.7119445282563828
987 0.49707292669345904 0.647633865499902
988 0.9484949221160641 0.6008850109837985
989 0.7665823467526185 0.9128025687729314
990 0.508596988516644 0.5038061511868249
991 0.8463686191789882 0.3758444904083176
992 0.15080551083087745 0.954414956032566
993 0.9677656979682923 0.909999842044848
994 0.39270344387487843 0.023473282131976192
995 0.5324558123156918 0.8923258221623102
996 0.08740721978846033 0.6237518632780366
997 0.7960497402075657 0.1555533007810389
998 0.060445475369839574 0.62754375933169
999 0.48098003875712714 0.6109996386192027
1000 0.9807969158060827 0.4294816832086191
1001 0.8002438973491794 0.17294321181971184
1002 0.051187301499506344 0.21341914789039274
1003 0.3412045598188631 0.658249440235256
1004 0.2430451175794166 0.07863469422691516
1005 0.9722758337593413 0.3338572640129953
1006 0.879974847200176 0.9361832767487012
1007 0.33158750304909235 0.249339372290049
1008 0.13046318601308948 0.5880325446786986
1009 0.7415088639670906 0.7800403827720086
1010 0.2592134079582885 0.7143420586123816
1011 0.03548975437754742 0.24245477361457424
1012 0.5334073993662206 0.25646350195028256
1013 0.4307881339533757 0.7606145577203123
1014 0.3050915588824512 0.05476372107755345
1015 0.8555488820197937 0.14321336833348708
1016 0.6476493646449084 0.4182145928521679
1017 0.9204029790092465 0.02378002007618274
1018 0.9860729880972224 0.8970369854524175
1019 0.6394984062333483 0.48222938348614974
1020 0.08504446986864755 0.8202008632777495
1021 0.34311628915872827 0.49592058104927983
1022 0.9555811087129521 0.16951493770916592
1023 0.6948122076530274 0.7203511814003878
1024 0.16258896163121606 0.48162240873291606
1025 0.6150174093695032 0.043706991242837945
1026 0.08298871997751389 0.811148118241006
1027 0.45241107379801015 0.6644527741827253
1028 0.4166789521694224 0.9331100376579257
1029 0.3092850023382434 0.6117953761348605
1030 0.11692570005903136 0.03513654173740155
1031 0.9148172741416238 0.023418559019188545
1032 0.5496099153124222 0.20892891609076825
1033 0.8630161109106447 0.10364530027962948
1034 0.8716773269874827 0.5621232319754267
1035 0.043222279237480676 0.6245522633057644
1036 0.6678803838467671 0.2943698366815901
1037 0.4141713454939113 0.3515903557442457
1038 0.37304757617989415 0.7109976023143093
1039 0.33762665454400853 0.33985592386738583
1040 0.15151080563015507 0.419114091379187
1041 0.16939264760969053 0.30505858302744804
1042 0.0997061648526717 0.2917874560550956
1043 0.6111407235670308 0.0003883507378974471
1044 0.36225284411427416 0.7537051548806426
1045 0.532762092496322 0.7399793089719544
1046 0.9775387937258785 0.886829327153513
1047 0.39895955964267815 0.8521806843241131
1048 0.7874288631615136 0.7447215781304836
1049 0.363979444887491 0.27465297394306776
1050 0.11450532865352747 0.0965719038172711
1051 0.14616709814772033 0.5243919007526987
1052 0.560643613367091 0.8268126209201819
1053 0.10488893391383536 0.5939637208651211
1054 0.8629088023589458 0.020983495572376554
1055 0.6049736988459494 0.118290064020661
1056 0.12398645049115098 0.97773306844149
1057 0.0060404670170061125 0.9472302406930599
1058 0.4934011010605487 0.5717102522557967
1059 0.6511917835496549 0.20938799157471433
1060 0.14604802239451098 0.07439148169755971
1061 0.7114916777717016 0.2249858940493371
1062 0.1702282875450437 0.26518225921205607
1063 0.4907302395193388 0.8907474197355373
1064 0.8417945079028589 0.8115897105778805
1065 0.5295899129961187 0.714552423147225
1066 0.34656382059014246 0.8188829928436759
1067 0.3444752843182489 0.5106909926470216
1068 0.17618767923818157 0.5062313829043285
1069 0.732618609141122 0.9563766738041329
1070 0.5030415736331955 0.19831580049366537
1071 0.8770945812626643 0.9208457139529757
1072 0.7022200638013532 0.14149957320926898
1073 0.14162058062964245 0.32986669902424604
1074 0.6032714839139167 0.42803447297062536
1075 0.12009687838307681 0.8127212434297326
1076 0.9650396684548709 0.6106533155296274
1077 0.41397189432815584 0.05010573035648258
1078 0.5767716992628217 0.09632967413442439
1079 0.7974990231747624 0.1207342752378161
1080 0.3810570410766837 0.9379493374668864
1081 0.42247133533768666 0.0733475103590695
1082 0.6217742776180687 0.42899591428772565
1083 0.7908200065278971 0.526349937666273
1084 0.10394245150690862 0.865252055664023
1085 0.24052873808253816 0.9155870875436057
1086 0.5799223291410083 0.2635289437575399
1087 0.3953691383414183 0.6763999418613472
1088 0.15546367912571013 0.019657059552740885
1089 0.22845242927434006 0.7508766459854077
1090 0.29509078108804276 0.10365509617159563
1091 0.267616341094548 0.02984318490712301
1092 0.9552446994300081 0.042355660885572854
1093 0.9286300575312113 0.9281681304363926
1094 0.15488431365803845 0.8478944793770952
1095 0.10047309958756423 0.3260000104570203
1096 0.199629113326655 0.5652453968365837
1097 0.8393877776880099 0.4162995438996593
1098 0.31434858044183367 0.06547475177055717
1099 0.07959373207913056 0.5623508432287432
1100 0.12670228819455576 0.9201910395545414
1101 0.1297849609865478 0.02602113089400948
1102 0.1881061536310028 0.22164584815934685
1103 0.8681897259215677 0.31886886413144766
1104 0.2171062335127999 0.2752923060572715
1105 0.1823163762319867 0.11382302587618709
1106 0.30651571453660487 0.5849638154921791
1107 0.2883457490088366 0.3917630410745626
1108 0.7917544978612433 0.4715033644783534
1109 0.40498321298415996 0.43763565446583297
1110 0.8035871320846248 0.5267468514837064
1111 0.8470007658359509 0.6912893091928201
1112 0.6594042644603842 0.7416016603378601
1113 0.7133196101377717 0.9572754025924324
1114 0.5919383227869542 0.7152177258577463
1115 0.841939528144763 0.2748292880154404
1116 0.14378131071018796 0.4898207321814064
1117 0.7146144298528568 0.6338139632680398
1118 0.8973345477297425 0.014600003724349553
1119 0.6334518824164526 0.095924571178999
1120 0.282583516602399 0.482362339136721
1121 0.4979749848191476 0.6293354114404828
1122 0.7956815299733992 0.23497488273475253
1123 0.9709547946652385 0.004933128811092535
1124 0.4869887116359989 0.6464078350836279
1125 0.8894802662798093 0.9653765099866576
1126 0.7829955648484234 0.7070838025196573
1127 0.31203373302409154 0.06638620408440621
1128 0.24728102608218694 0.18733617430624339
1129 0.1849044011911627 0.4864780249059172
1130 0.6177625695556597 0.38917630398223335
1131 0.7526084595042575 0.847014636827821
1132 0.18366012639469786 0.3680107682612216
1133 0.009323119541310265 0.1446381952861059
1134 0.3400265520653881 0.9008182287821492
1135 0.7277714697786972 0.7796645236654381
1136 0.8283739335401997 0.931696786065477
1137 0.9561846449459703 0.06607852087825727
1138 0.9596183477973359 0.6190529076519846
1139 0.038630077844121424 0.6161394058628992
1140 0.6955642510626172 0.9338786093816751
1141 0.4322505220120998 0.21877772645079507
1142 0.8637080236895095 0.7082862276376235
1143 0.6068735995060538 0.806023885339229
1144 0.44963351168018306 0.7896392070558594
1145 0.7005369009512051 0.8113168348509276
1146 0.32327580664152744 0.1939945456051685
1147 0.4696384157855549 0.9876657079238924
1148 0.9030728024475447 0.6391081766759947
1149 0.29559338781493927 0.3091558458780247
1150 0.19010931661424424 0.9043533645340533
1151 0.721520985327855 0.4884319964128815
1152 0.04378074189067249 0.46865296424998226
1153 0.5312108423293076 0.7757397120529892
1154 0.23391060373663652 0.2995810010594453
1155 0.4559201717891822 0.22947915431196908
1156 0.3431029737785052 0.5464903504106848
1157 0.5634627436354745 0.9471201754631583
1158 0.02155388643516798 0.9448619462493572
1159 0.08529958854996478 0.11862239172987799
1160 0.7098379599468634 0.949512513711234
1161 0.33974839478158525 0.7884856899398317
1162 0.2521928391492074 0.546058952601771
1163 0.6336329122916652 0.2614662070925531
1164 0.12961444983339165 0.7724463257385186
1165 0.3697125627964609 0.6524962805603293
1166 0.6155846970920705 0.5529760970697825
1167 0.8218482368184169 0.4771551029840523
1168 0.31985412093680365 0.262916050631807
1169 0.6343993599092276 0.6443309714524511
1170 0.8662667986513412 0.5575506662975365
1171 0.9698205843467879 0.7028810664010887
1172 0.1289655763348082 0.5052945997000374
1173 0.4892451166224393 0.7706498102127698
1174 0.11135346007607339 0.7214675520634334
1175 0.6606976502906181 0.3420280647260754
1176 0.4886005876651288 0.7569547031034254
1177 0.7766515530791186 0.10916864804846782
1178 0.06459529415117338 0.40055706974641314
1179 0.9407889496230992 0.7004629583819966
1180 0.8811323806636242 0.9885515480183124
1181 0.33855359379208083 0.13006571519153687
1182 0.3919874932069234 0.8123520385539663
1183 0.1971020986026345 0.7614418031284468
1184 0.8640354248154714 0.13795530854528504
1185 0.6894196594450155 0.770820378443377
1186 0.10909021237731165 0.17799783199403407
1187 0.3014331622967722 0.5412475393389278
1188 0.9761126372167335 0.5888678276645464
1189 0.13208197174181768 0.12094821881792639
1190 0.3160431669671907 0.3614196128589686
1191 0.4307721004235966 0.15367915056293036
1192 0.9119282678005516 0.6958211743553492
1193 0.2813331833143844 0.8932054638862765
1194 0.4610592321496062 0.18412922586223535
1195 0.9585821022946623 0.6509356913613534
1196 0.1762221972167506 0.8558781888093556
1197 0.29165203668928175 0.8362669185284284
1198 0.47189735123409693 0.5544590700625815
1199 0.1444253643268285 0.8724392170676255
1200 0.980982097307624 0.625247792100573
1201 0.8860745327440572 0.4565998724921633
1202 0.6510352416338768 0.16838067988078242
1203 0.6275930017017423 0.4439586398658605
1204 0.5947503780189476 0.08082070048504242
1205 0.18909679077730446 0.795070578378792
1206 0.7590203010887201 0.6581019335068115
1207 0.030867548614173845 0.5852679118409496
1208 0.8855145043454133 0.6684969990269581
1209 0.05049169684582355 0.09952176226032527
1210 0.5774768702017903 0.9597956980656933
1211 0.9131595496716444 0.24559001294846539
1212 0.22712332895046616 0.44205271218600384
1213 0.0465457256527434 0.9609493426645882
1214 0.5399359995285469 0.39517288623588165
1215 0.15744902588752274 0.6268918102281378
1216 0.8176298515263039 0.7644957939773177
1217 0.2886078149202036 0.7923886800907097
1218 0.07981731332842623 0.19931276799398023
1219 0.3219998515384509 0.8688003149331778
1220 0.7743360927124977 0.14508978025453567
1221 0.48643917003278003 0.8137825383485999
1222 0.7590437144386862 0.9700152009320452
1223 0.7851793090971017 0.49542710993760164
1224 0.05243011040528722 0.29670919883439695
1225 0.7442666818457263 0.8840593122224207
1226 0.5205481435342654 0.21025628118344364
1227 0.749932389072267 0.4966564638526535
1228 0.03896304169967191 0.628604724930951
1229 0.40792233855600324 0.5446942073591982
1230 0.7466111816694648 0.6277694581628548
1231 0.3464149176482235 0.9815743514390369
1232 0.041087774796069065 0.7681060804181572
1233 0.31380098186876326 0.16195641965809993
1234 0.4300630073911371 0.4941810858337833
1235 0.23572115116094006 0.8447212186042543
1236 0.3252080739714934 0.9626657004413393
1237 0.9314789104204935 0.19511853327142836
1238 0.04513928405744816 0.5766882907146789
1239 0.33157796585525046 0.6230739920892975
1240 0.5066306451506442 0.7619402413902968
1241 0.34141554932522944 0.2857839130890203
1242 0.999997931261178 0.6102782922739219
1243 0.7574554903768007 0.29594704169107233
1244 0.49089633394259846 0.6314385343617517
1245 0.26282684621198704 0.9485819372417257
1246 0.4012924742475803 0.39224451143322003
1247 0.18158070395995551 0.07140803574829613
1248 0.5825067838866315 0.9315202391149554
1249 0.08010537429098175 0.13745832019232884
1250 0.9613658234470281 0.7157942169919668
1251 0.3509103545592548 0.1111741325435629
1252 0.17756904285961794 0.7790883912329063
1253 0.3775422268762555 0.6152569424626209
1254 0.04568864380681015 0.20989774660236682
1255 0.4506521194123837 0.9117986347114049
1256 0.7044156477531098 0.9160172018791192
1257 0.8782464898962941 0.13559052698921215
1258 0.6913391083393625 0.9369023691867503
1259 0.9706933911034146 0.1938155387724727
1260 0.47151498058164787 0.8391956933263988
1261 0.1785561178206403 0.41551605073848563
1262 0.08857281236103143 0.013927715840109434
1263 0.6728264800330913 0.6137958525601359
1264 0.9956759401813329 0.889353447531655
1265 0.9988142033679375 0.6850540859474694
1266 0.8086780116887455 0.8794006335019346
1267 0.1852144395290738 0.558967308193928
1268 0.8623716699877869 0.9305705031775411
1269 0.7232572456643094 0.8852673740375431
1270 0.025493783897326927 0.6821961340384279
1271 0.48334172342985304 0.6550780420420412
1272 0.0020235011844890183 0.7078098703165294
1273 0.1447622294510138 0.3363550532913038
1274 0.8689673231828375 0.4738783819903948
1275 0.46082510279396305 0.1406764309116162
1276 0.3017395087872611 0.318691508787438
1277 0.9221851379293714 0.21147737447870962
1278 0.9843799281416566 0.04391589660279549
1279 0.2505221670423202 0.9812704890586141
1280 0.5431730790187402 0.16034802766328227
1281 0.4233772448005968 0.3071302826595155
1282 0.21307625949116915 0.9434473217552026
1283 0.1474826325182651 0.6621977183912288
1284 0.7046775234703082 0.610675050986132
1285 0.47784400356859946 0.5199331487801914
1286 0.17609559853203405 0.8333616743079456
1287 0.823708312283603 0.8621948419701367
1288 0.2951590774656847 0.015595196120155141
1289 0.3119776911568759 0.6021557637270739
1290 0.8405883335023974 0.8777093662943786
1291 0.8427838519739537 0.46273949907490497
1292 0.132172625430105 0.5580997428417427
1293 0.0466364190057329 0.1485191267416679
1294 0.04718626622481248 0.7035218077984347
1295 0.36837686137683323 0.18595005642331397
1296 0.6119088803640788 0.40266745677030424
1297 0.8999670082510726 0.05060004409573138
1298 0.18974071822539018 0.18035225572273506
1299 0.24906003867647286 0.9172051610951577
1300 0.7759158114493674 0.8266132815397419
1301 0.515532698936574 0.4345943546237597
1302 0.4553990459886501 0.30070160538565915
1303 0.2372274074612657 0.05011806862090984
1304 0.09974574213564502 0.9894699001658039
1305 0.6895523725434485 0.2294448416249737
1306 0.5748657792133786 0.35534921464987623
1307 0.4090204277448821 0.4420702205575875
1308 0.6343865769125306 0.2743486535474102
1309 0.5020043959092716 0.2934708922560946
1310 0.7040421867969299 0.5967017319330171
1311 0.7250002135862977 0.2544438307457453
1312 0.20916775800519338 0.15300148082173326
1313 0.5572140468971983 0.8114079243139997
1314 0.09639398715656733 0.5666468162022854
1315 0.20206999064515063 0.9559075862598613
1316 0.9616418633403553 0.4567579025964167
1317 0.975266778287691 0.0731503514135704
1318 0.1281502741206375 0.4682813606168078
1319 0.37299050150568147 0.8775730409100339
1320 0.3848800071611558 0.5446777981065608
1321 0.5077384975303925 0.4174661322255234
1322 0.9456930317032737 0.7395178077829765
1323 0.5891113484593987 0.43309408252555515
1324 0.8650574846507251 0.3671713717996249
1325 0.3630266565515532 0.10615906168279476
1326 0.2516139871152052 0.5962202470742646
1327 0.07943762210844119 0.8341643282398281
1328 0.9682337851948315 0.8445178795830405
1329 0.7523112145245092 0.39102193805510177
1330 0.8117186352773513 0.08087057850590762
1331 0.09870776653243263 0.6691087366193182
1332 0.12135055253497973 0.07828531119358784
1333 0.5051552087041081 0.9065312529634814
1334 0.8458488739655474 0.8856262032653474
1335 0.8831640816896836 0.1988525607837225
1336 0.10212850546754104 0.6581681758610854
1337 0.17888753630425347 0.11395422792804089
1338 0.3937914007506361 0.021769391628861823
1339 0.5571977263714898 0.7341727329938339
1340 0.7548206804352287 0.23188335459952736
1341 0.8027060815400313 0.2816630081830852
1342 0.8205287089699904 0.008795528322816826
1343 0.7966956033657762 0.9155295886553418
1344 0.3883552432340873 0.027250249108836222
1345 0.7160499578936325 0.29852553134998483
1346 0.13940809438397317 0.9483667042910299
1347 0.8490689565323283 0.621182715730306
1348 0.9955452791083559 0.009857014170517098
1349 0.7574724183189165 0.7853559665131883
1350 0.7938716213194501 0.14941643694203688
1351 0.3675464295289117 0.6789352806711633
1352 0.42100915259802807 0.2763529601859659
1353 0.6463403160548457 0.24959826071592905
1354 0.5774843362585951 0.840255730917544
1355 0.7800227139452117 0.06004971998079889
1356 0.2853071258087143 0.03896255675373661
1357 0.3023488712735455 0.6571189848820471
1358 0.24659070068603317 0.3420903248455889
1359 0.2558350154058402 0.729861552768359
1360 0.555458236440234 0.5652064605909485
1361 0.9553560454456783 0.08728158352667559
1362 0.051624407715580745 0.7667933897668959
1363 0.3113427676160184 0.6365501228418908
1364 0.8514481295275843 0.4456013910797082
1365 0.6585793150501131 0.23415705203007864
1366 0.9393219496825206 0.298444975220866
1367 0.7561022153576844 0.09412925575513942
1368 0.17959869262999884 0.3083031547505868
1369 0.9041431501693795 0.045532958250664834
1370 0.7072364580230948 0.0004375636088459478
1371 0.6286675407560013 0.3168618880788411
1372 0.3776830996831909 0.8621318161240689
1373 0.3567260505494412 0.43641482434720247
1374 0.010693413081005354 0.7828830834411233
1375 0.5181371234950847 0.6796958071032261
1376 0.008831114582686594 0.12734855080417473
1377 0.8680212627314516 0.15791831963741632
1378 0.2319249853707469 0.5320856957787873
1379 0.5504995486911016 0.6552974111905527
1380 0.8129422650849687 0.45982192524671683
1381 0.10862999687095032 0.47584319143252496
1382 0.3881374877970002 0.516340755597559
1383 0.07019546960052758 0.5921565267950949
1384 0.22784542623250437 0.1531078444418258
1385 0.8452150146539044 0.7298396383231296
1386 0.3468402651731105 0.006382492667270423
1387 0.9228266614663309 0.13966917720601746
1388 0.6610030125676984 0.5679889393082361
1389 0.2625412254893381 0.4702408805795645
1390 0.5457667081265423 0.577134369966519
1391 0.656130747731861 0.19804539067863636
1392 0.3488720940117612 0.08916931493614655
1393 0.013602963603384755 0.6892954424925787
1394 0.24667506243025195 0.7525550446094404
1395 0.6161114118219867 0.5165222604965972
1396 0.39680451968392305 0.2988966583580078
1397 0.9700295746249019 0.5264191228620825
1398 0.1723659361539991 0.7899407395013026
1399 0.572439603032734 0.24012063902498149
1400 0.7487132709013483 0.2343480065143474
1401 0.9386612854745547 0.18120221748998566
1402 0.46509082713725314 0.9275998147512878
1403 0.7978902325856434 0.6416347844021676
1404 0.46458559881621364 0.0875417006607202
1405 0.7882110398403264 0.7731887533390966
1406 0.6699376500424038 0.7206073553495399
1407 0.24031900933351868 0.019053562150603498
1408 0.43217796731947866 0.37619813578751116
1409 0.3762188327316002 0.4246171232989201
1410 0.22947249585744955 0.5330319009606141
1411 0.04774769401495227 0.9452213420160492
1412 0.9088787292626131 0.7132095511664261
1413 0.4515267608790372 0.8789296932740449
1414 0.7587528019234264 0.36192639518711056
1415 0.6898223570557345 0.5016602847104908
1416 0.6917689175955413 0.5977608218332454
1417 0.3028915381017837 0.9659145097303338
1418 0.2236993514238419 0.5113566933350772
1419 0.38837732850089957 0.7111594768954219
1420 0.668033033285415 0.2876528913374653
1421 0.48073517041833036 0.9498690682275965
1422 0.17480224260186206 0.6977305488653507
1423 0.9518295753798945 0.5351089339643733
1424 0.36108837820895157 0.7162045291886197
1425 0.688338152552901 0.00833736443307831
1426 0.6733019277323312 0.4195116771834956
1427 0.0464704960729283 0.6445284138677876
1428 0.39945110876312295 0.28136831925941785
1429 0.8413509981773847 0.26878526868835606
1430 0.6471870880812642 0.06086490690533075
1431 0.8841426130415058 0.948402804040872
1432 0.3158027060440618 0.9094968789911881
1433 0.4973709091724683 0.18903013873828167
1434 0.42886531401297034 0.05770708188123874
1435 0.8490839222321848 0.21723421684487543
1436 0.08596397971040226 0.5241288320489094
1437 0.012712780881454888 0.8504344254848425
1438 0.685529725113213 0.5196849606674764
1439 0.9878682288294296 0.4814379901934971
1440 0.21336932614328497 0.6154920224835927
1441 0.6072883424667113 0.128288388488784
1442 0.9469241522070013 0.011447444606715873
1443 0.49770314633451507 0.028714107000455957
1444 0.6792362957444246 0.06218217377682511
1445 0.3344829842822199 0.06071641954641138
1446 0.8897553163504662 0.8778162100502277
1447 0.24095566371186983 0.5970919464171811
1448 0.674225188415754 0.11346407341060971
1449 0.6805418787955198 0.9939255722897927
1450 0.2845194793073844 0.7251081235318699
1451 0.05397317420535541 0.3165153293713766
1452 0.4916628724550153 0.262537350733548
1453 0.0222636078927555 0.687938501663859
1454 0.6132487906530093 0.019924563728300093
1455 0.9907760564419414 0.40654972992111926
1456 0.6977775432000772 0.8240404979075345
1457 0.6874828411433912 0.0027392815411820814
1458 0.8606813656876111 0.4321549610931873
1459 0.7020643222304417 0.6241144890921805
1460 0.9179825999810046 0.3556956065593623
1461 0.6147280012742301 0.01341611875565818
1462 0.2891105420842558 0.0526842391341974
1463 0.41732707939625147 0.18995916108358313
1464 0.5271696797910466 0.34369353029731575
1465 0.16185596053696338 0.8875824869996362
1466 0.34944213826580295 0.17015621943156045
1467 0.2545422899993006 0.5030734200004697
1468 0.4493354872085772 0.4846754480853741
1469 0.83295804985643 0.5539450631003485
1470 0.30302179453545985 0.28456950046608165
1471 0.17876349015598636 0.5781711791709959
1472 0.7925771368773016 0.28311307153664533
1473 0.5185205257730784 0.6663611463905641
1474 0.5003968611013961 0.1841154249311664
1475 0.0042565772194137486 0.42949780854056485
1476 0.6382127822859215 0.01467283272829134
1477 0.4099510419494917 0.6147394532757375
1478 0.5706657725831262 0.8669088020921611
1479 0.9854959309110859 0.6110964030775323
1480 0.6127651681954074 0.6938940707825048
1481 0.9190660827838683 0.31471690696499244
1482 0.5057282089441962 0.6893483473855081
1483 0.3410575854989446 0.4324742843374534
1484 0.29994779311475994 0.3232433874605577
1485 0.20276148342207312 0.8990343584165633
1486 0.6970960695653274 0.5258955445832664
1487 0.16078237782182425 0.6040772174731965
1488 0.8046370670891281 0.41809912650271
1489 0.8752480740197017 0.9201434940241009
1490 0.9416719952232281 0.005744194311048334
1491 0.6732146860791783 0.15854699526909244
1492 0.9082040815281299 0.654110110329504
1493 0.38465383915964224 0.27545232629975014
1494 0.5935658326599466 0.9315191268423128
1495 0.44901415028653646 0.6845443004647302
1496 0.3732927212046223 0.3598390562194371
1497 0.7011931723465331 0.9865151976962824
1498 0.01455742839280938 0.9069359772740245
1499 0.942104700385216 0.6150221443679763
1500 0.015056096393108676 0.9076199176627938
1501 0.8470782816968048 0.4873160218249035
1502 0.6150112315568746 0.1578746632029543
1503 0.7680322790349889 0.4985178247022217
1504 0.4489096634520683 0.4371025727360509
1505 0.8540503520185438 0.29470452597964036
1506 0.661488109204924 0.6219334858660379
1507 0.5822709772200525 0.15798950274304635
1508 0.9384943024312703 0.2771457711738897
1509 0.9436523618157665 0.00882189541402234
1510 0.2958147232742607 0.14234987023176404
1511 0.4387381994882943 0.827498020558263
1512 0.2996767057908474 0.1866176879366903
1513 0.9196764145839471 0.9374969419009994
1514 0.4420985760916919 0.3457398839822632
1515 0.8335504476268691 0.05831030045598973
1516 0.20811951043739452 0.8973826766116643
1517 0.2285708671052522 0.5084283214183966
1518 0.15134352133381113 0.33529695232915
1519 0.33191170974213013 0.8226754600707671
1520 0.9560450168658673 0.34480833655243504
1521 0.9754735185011748 0.9642228573826439
1522 0.3140514692738797 0.9507605840935326
1523 0.3066609784467146 0.09299775158715973
1524 0.39097647989270445 0.7316909612530581
1525 0.7831979339082427 0.9628807814619861
1526 0.20663575371543141 0.8629329850291892
1527 0.03490479625221321 0.9279762249518515
1528 0.7153595624558977 0.2566451377313316
1529 0.14293174567242672 0.31700348472883566
1530 0.012071398649210696 0.09187857383928288
1531 0.3606180891350026 0.8688350791328242
1532 0.8104251677729132 0.5344385308841338
1533 0.4578430728691021 0.0524189906833602
1534 0.9880360043865172 0.07503936899575425
1535 0.1841942113128281 0.7292781609597149
1536 0.8919235136333664 0.479233779895366
1537 0.24204208853015863 0.1727507477925173
1538 0.5605695394043742 0.3951850243138988
1539 0.1473809155304816 0.9731657245655264
1540 0.4871198195988984 0.8371883456629071
1541 0.1444046563013729 0.8635450835658177
1542 0.6421812961565397 0.3101069347811045
1543 0.06436839712781495 0.03304522586668446
1544 0.8471450802804582 0.5432572627578633
1545 0.07110149853028891 0.30662572007649436
1546 0.18695032140007917 0.8456209509899918
1547 0.8262513296672142 0.2832501588610614
1548 0.809345667148172 0.24434313556723075
1549 0.43924287675405127 0.5942718580368536
1550 0.14407989337738158 0.9088257084489876
1551 0.8653143620440109 0.11773068568062894
1552 0.0006659547296899992 0.8324904986157576
1553 0.06052869934264382 0.5690623884341334
1554 0.8530672536467983 0.9726894140010247
1555 0.17697051469355418 0.7177139134632328
1556 0.23732597092468244 0.5653892373790224
1557 0.26952242054686093 0.08016794535873839
1558 0.23599371887524212 0.7944839745810776
1559 0.9422337607037884 0.036233111481471236
1560 0.2765567478331814 0.2709620959657737
1561 0.5267907949727282 0.4013408164825505
1562 0.8005621362999334 0.9315454407930327
1563 0.7794678119742219 0.9322957372529865
1564 0.4893602104968935 0.4112080699900408
1565 0.9537831647799236 0.8680000537047468
1566 0.7467290390528967 0.035264127078378116
1567 0.5315865989987669 0.1618023963108528
1568 0.03313586432906901 0.9145623285043188
1569 0.47211862820709005 0.19266464640120284
1570 0.864048780467363 0.6731817425200219
1571 0.9019292535877411 0.09074086410206283
1572 0.9334624331349557 0.4757654489475571
1573 0.8227686607359949 0.3480803774350152
1574 0.916364691015412 0.7621776996945018
1575 0.8610933769436357 0.6142575988433779
1576 0.349733937968567 0.006585812897968668
1577 0.9678969297343503 0.6958421278641804
1578 0.10142078387644515 0.7687588028503964
1579 0.9649009483438133 0.9942348856639496
1580 0.9832705534272734 0.6244848345083555
1581 0.04396105383423177 0.5917408915641559
1582 0.8149303315365068 0.6436683772449384
1583 0.9163537257880956 0.0793828582052809
1584 0.6857577294958408 0.26949465685223994
1585 0.4390528198331174 0.9129405575366907
1586 0.7415439579992102 0.7026584601956763
1587 0.9970686991808305 0.8668587595890825
1588 0.43669761427767895 0.2216758237623191
1589 0.6399321736122988 0.3601643678009895
1590 0.3884988767601759 0.4119264336961759
1591 0.9576135065665813 0.38668062757416277
1592 0.38084615063559224 0.2902978897210853
1593 0.2904397545562859 0.14586464849637137
1594 0.30075879433235375 0.32201357541089737
1595 0.5336812082626259 0.7156457736846634
1596 0.30740565936515796 0.8425981392206354
1597 0.030818625092254526 0.3251022517139366
1598 0.33639410103773704 0.5095006112644621
1599 0.5836537030055171 0.2645860621751095
1600 0.4773804185805163 0.5103414350356752
1601 0.4510934557837756 0.7076671102279776
1602 0.17141921556103445 0.14998257306470286
1603 0.13723496592699524 0.39717101971508195
1604 0.28372878242062827 0.8754369796179399
1605 0.26457761824350856 0.42638116964835593
1606 0.7320097092565502 0.8896398304268495
1607 0.3289965151239279 0.4023702519815373
1608 0.03214793216698053 0.8291135476183248
1609 0.9636071171802458 0.99641401437758
1610 0.3052854750996822 0.786881519249213
1611 0.8073810143119806 0.938260011122687
1612 0.44195031745394076 0.8472017683474763
1613 0.2571769576113664 0.2755761350315986
1614 0.98033819109671 0.5840491753798486
1615 0.7341877520934438 0.4991557304892261
1616 0.3103594355608157 0.27451451551259876
1617 0.22238559993731155 0.9334202816383714
1618 0.5444020849535792 0.3538927862046457
1619 0.7901156306707501 0.792898895260214
1620 0.23668274768635622 0.36698260714346975
1621 0.6077966596881414 0.8934533100286909
1622 0.8468349274005367 0.6469733457191845
1623 0.1663404879969993 0.012402861227296724
1624 0.8100656877932899 0.19653391294199318
1625 0.2614870136676476 0.4688011321032479
1626 0.14423922309067438 0.5955551794032401
1627 0.947350400119283 0.016426608444567226
1628 0.47611678430961 0.5792783702209754
1629 0.0340640957750904 0.7932863831827229
1630 0.03434004032701943 0.39452605223783876
1631 0.5263517140129422 0.18003750095646587
1632 0.5065004886687985 0.5927923270632403
1633 0.16522991470850057 0.4724443258143548
1634 0.4672328239748298 0.23124367090685194
1635 0.235358465589665 0.42842212267641466
1636 0.9014354196265882 0.5912772187697158
1637 0.7693298837080681 0.24307707832483483
1638 0.8331821941873578 0.5836558466567892
1639 0.6093780077538352 0.2979379987409606
1640 0.2776764227242874 0.08739707004926678
1641 0.1399842914460575 0.2730724106388396
1642 0.8551759052942676 0.5677015816689404
1643 0.33527975166700497 0.3418514769461972
1644 0.5116337371403795 0.699939047667005
1645 0.20321159256389087 0.10692166934962266
1646 0.1439004643131918 0.1889926555639294
1647 0.041804922504961706 0.16013802087066176
1648 0.8262755626605932 0.3488443892697831
1649 0.41757215960332084 0.9114718181900174
1650 0.7371152472192223 0.7858004814075692
1651 0.7382689905300592 0.2911388659266043
1652 0.4714766815676058 0.3148729766193087
1653 0.5591822917445055 0.6548243618411029
1654 0.4263483560135449 0.715930912417541
1655 0.4004109400497179 0.694278416529053
1656 0.08874514823371882 0.6032178483900602
1657 0.2204641045546072 0.3160979423196003
1658 0.17149533575758458 0.21955918604359814
1659 0.9013689906327474 0.6786307537432962
1660 0.009149994903060787 0.17558836696897295
1661 0.155567640170319 0.1956876880207543
1662 0.895637347468771 0.4190500892615526
1663 0.973421234223911 0.8919070066104459
1664 0.6049038462828091 0.16797859197071374
1665 0.08013513082137735 0.28994505422463146
1666 0.29500655709928714 0.30343738912409857
1667 0.2735082541345727 0.7920030311018994
1668 0.5854808597669574 0.4001939833017869
1669 0.26437676905970153 0.9024930223107553
1670 0.28460149700775306 0.38208428192795185
1671 0.014167844975021104 0.9942773632655073
1672 0.9835264789597563 0.17966782717072693
1673 0.817969645274186 0.821614779109115
1674 0.661719193905723 0.7138459617022825
1675 0.9511833633239496 0.9713438337624187
1676 0.307471420719307 0.709973010377972
1677 0.1791509608488121 0.34691524429143217
1678 0.17411785492902265 0.4511263918785885
1679 0.027426813259308402 0.9116627155292932
1680 0.5710817286941665 0.17557406654624808
1681 0.6521977180885594 0.39384601952952913
1682 0.020671378786228267 0.625318735570235
1683 0.06464942148585029 0.7987276276676555
1684 0.9163183097692666 0.037135377081955356
1685 0.9679697329706061 0.21078195725685012
1686 0.31792648412139113 0.6889762185569205
1687 0.24282069967016395 0.4922583513079968
1688 0.6967383006276471 0.31703785048576116
1689 0.035195520873139596 0.21284015365241837
1690 0.055587767033813074 0.036624185422171274
1691 0.20509537534865174 0.8086875324655196
1692 0.29194146777246077 0.45630260344975226
1693 0.4890795678564208 0.1552008196710013
1694 0.14135495430513556 0.0647929768188572
1695 0.33580562498612054 0.9802594657087373
1696 0.04527318797279156 0.03968987071269714
1697 0.3009108987537288 0.9450420546007353
1698 0.8877729500497272 0.615622904388739
1699 0.23227474959450145 0.35571932726213373
1700 0.28026147636988774 0.5642828324670055
1701 0.6596153009206615 0.986464064942388
1702 0.49429921161206836 0.6423576026434552
1703 0.5687584841539213 0.5585345708955807
1704 0.7774092807387247 0.23210665138312048
1705 0.04824321296326306 0.6155851113221514
1706 0.8444001806133606 0.5280484368738404
1707 0.5193950057699185 0.05020292183462116
1708 0.7999385968507434 0.6827558929170414
1709 0.8426601750844659 0.6415456134492008
1710 0.9475701687078891 0.9892518526964528
1711 0.25410844583094017 0.1153239232810066
1712 0.9347425621564994 0.4015426654746965
1713 0.5153397897589742 0.29391188796527556
1714 0.3628484518287265 0.493388995473512
1715 0.5604071717468136 0.147246513636067
1716 0.7631427560660335 0.03965898091256004
1717 0.5869389513187869 0.7504391635679085
1718 0.7665694092511319 0.42225721976754294
1719 0.39153899831820016 0.49505006039018973
1720 0.7214066382475525 0.20093640560374149
1721 0.3846868128709021 0.33813036740797175
1722 0.4971823173733837 0.16982342340440393
1723 0.6011012420776264 0.7231787860214595
1724 0.5414317040522363 0.16024887204213123
1725 0.5328134909638508 0.6747687011858271
1726 0.9129810032577045 0.8605036815698357
1727 0.3189357951559403 0.9926443887550861
1728 0.5310549301273867 0.4102474456695523
1729 0.6984572328864859 0.6998667170716214
1730 0.10026636483070572 0.9467944385482072
1731 0.6054843099878401 0.1286803339705227
1732 0.2588029686400021 0.02681947021933795
1733 0.756658968476476 0.49705339991814224
1734 0.8081361205937073 0.5566826879932705
1735 0.9946421644674831 0.7558783174007686
1736 0.04889509688079596 0.9754790268521806
1737 0.14313840901473396 0.33709284552466434
1738 0.5882720981545072 0.44720210173372976
1739 0.03842619407911374 0.7656934080353258
1740 0.7710799141238388 0.02984565727550048
1741 0.24211501618017017 0.3495013687287627
1742 0.3150044125125724 0.354619667659128
1743 0.8402281861508064 0.16589778726743254
1744 0.9926012861060807 0.0011627694153441004
1745 0.0205375325032503 0.6252475626347105
1746 0.5228784064865412 0.8566416543968769
1747 0.9380794837295221 0.5013442360299764
1748 0.7331992620705399 0.6553918854411234
1749 0.944607292600634 0.7452739020854143
1750 0.5128690709105247 0.484883329361976
1751 0.602896170111096 0.9173264782639623
1752 0.20803571356900596 0.2803135786812516
1753 0.5269069532638389 0.43968087211841034
1754 0.9698919411954623 0.2460817316446896
1755 0.4253639024829887 0.3176331423165287
1756 0.81101609233131 0.44860670513197953
1757 0.3059539920965959 0.08961829624206552
1758 0.697332024034906 0.030741026273948258
1759 0.04633758611043992 0.9162021028456762
1760 0.44327496715140446 0.6537164115300125
1761 0.29510791251474 0.6678774641666557
1762 0.19040978117729235 0.7801491433362763
1763 0.7566163666965001 0.04022564627102043
1764 0.37768326556425547 0.6017318728886174
1765 0.581551653787803 0.362485081290048
1766 0.050342704370948343 0.10163860383709122
1767 0.36434543097194316 0.3268502052350063
1768 0.7453895549546834 0.1273395730034359
1769 0.13828393095023384 0.322039088535512
1770 0.5334801769554517 0.621465362149213
1771 0.7245036307879317 0.7422896232794525
1772 0.0337490138215637 0.6401566341301301
1773 0.920804714599453 0.2041064645223759
1774 0.18414919419008247 0.6924030873827597
1775 0.17894959205298133 0.19312393520741433
1776 0.7331888923063636 0.20351570329170166
1777 0.7022256752337139 0.7891143854516003
1778 0.87241905783077 0.4391967981310486
1779 0.7445970627804098 0.04902008717655826
1780 0.7061725800050919 0.16382436628687003
1781 0.2786816006284465 0.38399795273225323
1782 0.5948732943467969 0.19503110374331512
1783 0.6802483555940444 0.8430625888076427
1784 0.47644269699746256 0.7640548599781625
1785 0.28987162671310907 0.14891903371287118
1786 0.21835717881330308 0.5976367742748504
1787 0.6692100590180012 0.1599542991071391
1788 0.5228186092517556 0.792998000320739
1789 0.11631793921732125 0.9661119070174348
1790 0.969835037170896 0.05640021369994952
1791 0.5297901390773615 0.9588379667461506
1792 0.3457156196115262 0.9776101600077676
1793 0.8346858620689782 0.30885662676728054
1794 0.9031604121138832 0.14276205000917974
1795 0.2956672881539978 0.7551034205597464
1796 0.393689594224809 0.9368021897395422
1797 0.5144736576241444 0.09861898874044783
1798 0.7336255818174361 0.41365099234134284
1799 0.08420456420338118 0.8418877563393864
1800 0.3582663958979919 0.2299802051749984
1801 0.11216439219274321 0.6567342325132076
1802 0.8239592372152776 0.8861261689189894
1803 0.7483057816325879 0.7459770926421259
1804 0.09281112237825528 0.9203070847210478
1805 0.6248957907037677 0.40026756843989075
1806 0.49070203856421457 0.07369461923616849
1807 0.9234140573946303 0.9061008131399463
1808 0.28429004364227717 0.6050771122038086
1809 0.4525371544309772 0.6925826399243555
1810 0.4201548735186138 0.008315127559136104
1811 0.37152948773484207 0.10989461081651541
1812 0.8039907055296579 0.12559053488630845
1813 0.38062764300348084 0.378202002060851
1814 0.33641397670313067 0.2725812293154981
1815 0.15763199287652707 0.37772274573028597
1816 0.14698038207453434 0.7187481392998735
1817 0.19164972137973013 0.11410792807980086
1818 0.04204843469016173 0.43571352369265126
1819 0.35706480041688116 0.505958521319701
1820 0.521659400613522 0.21642246009228683
1821 0.9783662198554914 0.4328748586896318
1822 0.2848090077879132 0.05932934776493626
1823 0.18854054064344306 0.20431010031213515
1824 0.6731395992730532 0.7564582023598329
1825 0.47398021775148147 0.983230339156737
1826 0.9811237028990244 0.649416606241049
1827 0.8286499357671336 0.6057433990262435
1828 0.31476197679305673 0.06306130498936002
1829 0.9224728950292445 0.08645320652954824
1830 0.30918685864856454 0.7974033041320409
1831 0.12415165856322308 0.28461877891036136
1832 0.3730735967179154 0.45281026686464
1833 0.8669944098065318 0.9907982400473266
1834 0.2747024958137315 0.15222440157934636
1835 0.17068930552462636 0.04686885312817701
1836 0.24460270931388872 0.41260977347223715
1837 0.584510203666593 0.3614359207273493
1838 0.8439407873797798 0.5279124051966159
1839 0.8251297710737475 0.08179641623541456
1840 0.5886701209148582 0.988909742296354
1841 0.017795392966719947 0.7561576358627093
1842 0.8951259735644246 0.7027786471570884
1843 0.6149384095530115 0.40828703316829307
1844 0.7759884885034168 0.05586451619091626
1845 0.4941783432306037 0.49945001049043725
1846 0.6025320149013791 0.3236345490999579
1847 0.5924715273768568 0.5889901266069392
1848 0.6764404981849296 0.08478380399267815
1849 0.9915708510557935 0.9955208710023415
1850 0.3918347599192744 0.9606551442492837
1851 0.7421453805713437 0.8620132757567981
1852 0.15208310540266656 0.99099441006209
1853 0.33028742695570645 0.6161209133079987
1854 0.657622862019128 0.06676644864453618
1855 0.1906260180870225 0.632897402350372
1856 0.9679281681115834 0.8619607883170208
1857 0.04126359802868507 0.5971168096950327
1858 0.8257859592032423 0.9591779310701855
1859 0.8071668511873529 0.6511178740926112
1860 0.06754197114822491 0.5744355390719933
1861 0.858665838936047 0.6986518856794391
1862 0.07057901415229006 0.8222785071777343
1863 0.10252373503426693 0.37985682936597676
1864 0.7005652319932991 0.4211385022488162
1865 0.6606723644626308 0.43461797572668137
1866 0.3486336315453481 0.6273591552124774
1867 0.7362923284006014 0.3551405080975194
1868 0.044090382925826455 0.21964376840051925
1869 0.8785656897940621 0.1452467582216781
1870 0.8101788085650329 0.1119327424499097
1871 0.6410170620354805 0.06547433008831705
1872 0.4853971852898056 0.5674473870099842
1873 0.01812203557855352 0.5200538606407554
1874 0.38687022528235715 0.8032289580663523
1875 0.7561209642253726 0.7844869299975709
1876 0.9886402943512707 0.8556192394804176
1877 0.9594682354514529 0.7581497914340803
1878 0.6538008620435924 0.5826882546458654
1879 0.9161698957134808 0.6910826327362026
1880 0.7138608892598216 0.9509646892504086
1881 0.8658995463621019 0.4471301427804317
1882 0.40297386102651267 0.9172818596442469
1883 0.6746890182306021 0.6211240529987203
1884 0.1923359329216875 0.6448701652858647
1885 0.09297519639365781 0.853823060442816
1886 0.11009198499280382 0.23575693224241123
1887 0.8718992657326242 0.2162076907731142
1888 0.3930288808449881 0.7207917500742518
1889 0.31533119123916 0.23820509611981244
1890 0.9055527627349864 0.38832388255993266
1891 0.6054776081056112 0.9251957843874317
1892 0.3302625026780577 0.9424570535895476
1893 0.26929212586957896 0.2286078391479789
1894 0.22712548273873334 0.6865113012745868
1895 0.6749993436288635 0.8706921351642662
1896 0.1949375454562099 0.9660815226029242
1897 0.7747257521289831 0.8817747433068717
1898 0.26930460680604196 0.49586777292125694
1899 0.34613480111595385 0.046847702560742555
1900 0.020590803439949235 0.7593402730777289
1901 0.1154474187512603 0.66569651894564
1902 0.033737492359644294 0.27071887137771267
1903 0.1770116565162727 0.29416036136015467
1904 0.4732061831322757 0.8094095976147755
1905 0.37947598375470726 0.7640868272116266
1906 0.6106747087670288 0.744167487911747
1907 0.16216690146160462 0.2839234939399755
1908 0.07859259620525572 0.8941844868129893
1909 0.8292417296053061 0.6635364952996049
1910 0.26265069050927103 0.9646685334597733
1911 0.19057312970827656 0.09923487513100504
1912 0.851461626888859 0.710560083125984
1913 0.5887840205421464 0.001174375747497236
1914 0.19652256070433383 0.6348469163195924
1915 0.6817975909912908 0.984722582637542
1916 0.10059655768967313 0.03436086087815604
1917 0.19640956648766061 0.9438915583545143
1918 0.8520294940981062 0.10270130275327549
1919 0.06713638488699125 0.37655905946366575
1920 0.1062220029743135 0.09179065441698586
1921 0.006162881624186767 0.4767348035899276
1922 0.0297425770406895 0.015049550775427467
1923 0.08646985452279865 0.44024917151079257
1924 0.5056002975693866 0.5171339135510898
1925 0.3321856721461598 0.461230883433964
1926 0.6113443434850866 0.12396845537915724
1927 0.21746265009236 0.8409996093588086
1928 0.23972720593905505 0.3954231016526467
1929 0.5788888077934947 0.11974293480661558
1930 0.42099902416138935 0.8220620395407741
1931 0.3213683385014533 0.9305724169798812
1932 0.9013355187050066 0.5893365109747598
1933 0.2760648254032875 0.07618386056478921
1934 0.903561956085896 0.4807023682839662
1935 0.174250839107836 0.006471454132057741
1936 0.9558648013732194 0.47473663970365554
1937 0.5897156745926764 0.9348611943179796
1938 0.7339207726900132 0.6545941225528265
1939 0.04026200831884996 0.23160775807892997
1940 0.4284002942511381 0.5240525612804726
1941 0.587017096515885 0.37783484457987915
1942 0.8638043739432972 0.09420124503381033
1943 0.1608791183712477 0.002806312584111903
1944 0.41091609687585673 0.5513210779912318
1945 0.07413309920477362 0.8989031540680241
1946 0.01894065042432158 0.32152099753547503
1947 0.30914311840842923 0.5823666075898799
1948 0.9497724471564373 0.5445267333446776
1949 0.4481810817733872 0.17073800356424063
1950 0.9947602529304401 0.10513476726837345
1951 0.2855952613950058 0.38162132090496526
1952 0.8752450245294169 0.3113550891141488
1953 0.48553182021535346 0.00885389638184697
1954 0.07154714999121137 0.4542710633444802
1955 0.6670595809118496 0.5935710938097916
1956 0.004399381038707406 0.9784900858860408
1957 0.8842155931178486 0.10896054035496605
1958 0.4118858535069284 0.7560975078432596
1959 0.7495209251308057 0.3436456224715261
1960 0.9813223026936849 0.5332335189262254
1961 0.9219656058214353 0.35750931794443663
1962 0.09719730314983355 0.34355481673620225
1963 0.7649364346771859 0.2522407342557914
1964 0.3651533241384086 0.5723088440423031
1965 0.2588586475049559 0.10029516328700527
1966 0.2554130212812178 0.566722510406118
1967 0.24830227793515602 0.46918165652989086
1968 0.24549617139778102 0.6139984980334616
1969 0.31090995989833126 0.21248643718841076
1970 0.4185733765198413 0.036206900289337485
1971 0.6805323164811321 0.3607875241266878
1972 0.1823232172654028 0.9987069275359071
1973 0.15898034765835234 0.3275969304053039
1974 0.015247099407493137 0.8015682648487528
1975 0.4897812883888808 0.40276172372157837
1976 0.2898865142859316 0.7548230176801178
1977 0.7043271146996684 0.4407933114031617
1978 0.35794741002544916 0.3620536900542922
1979 0.17262527386189241 0.9228004062296605
1980 0.41738147171998075 0.9508685054065512
1981 0.009766996254222948 0.46992694856035
1982 0.921173046695342 0.5158493656523551
1983 0.4383795845261025 0.6833483677486528
1984 0.04301885616650758 0.8108963856626327
1985 0.23253823894104575 0.11404846044809436
1986 0.3763515404381358 0.43805353823840343
1987 0.10503260587380969 0.8479472552824318
1988 0.35690302504566573 0.8666004965687176
1989 0.9170103287841189 0.26623045845560944
1990 0.7022366711559015 0.3218158976275307
1991 0.5801485000343606 0.35316545014545275
1992 0.4450336153424589 0.02265705644745386
1993 0.2626533296725221 0.11371475179249602
1994 0.7023665542814326 0.8661533151972236
1995 0.976219204089705 0.6075348381309136
1996 0.5980605737332568 0.20589361749412471
1997 0.29779480952971515 0.6595170541327061
1998 0.9396819372502329 0.9097863549676337
1999 0.8744090383319089 0.6017068616141611
2000 0.9549485006655971 0.8671312946410443
2001 0.6826854458841632 0.5438981114940054
DEMAND_SECTION
1 0
2 1
3 1
4 1
5 4
6 3
7 3
8 8
9 4
10 1
11 6
12 9
13 7
14 7
15 7
16 3
17 4
18 9
19 4
20 7
21 8
22 3
23 2
24 3
25 6
26 7
27 8
28 5
29 4
30 2
31 3
32 3
33 1
34 5
35 8
36 4
37 1
38 8
39 1
40 9
41 8
42 5
43 5
44 2
45 2
46 8
47 9
48 2
49 6
50 5
51 6
52 7
53 8
54 4
55 6
56 9
57 3
58 2
59 6
60 8
61 3
62 6
63 1
64 2
65 8
66 4
67 2
68 5
69 1
70 2
71 1
72 1
73 9
74 1
75 4
76 8
77 2
78 1
79 7
80 7
81 5
82 7
83 8
84 9
85 6
86 9
87 2
88 5
89 7
90 5
91 5
92 4
93 1
94 4
95 8
96 4
97 4
98 5
99 5
100 2
101 6
102 1
103 1
104 3
105 8
106 8
107 6
108 7
109 9
110 1
111 1
112 6
113 5
114 9
115 1
116 4
117 2
118 6
119 3
120 5
121 3
122 2
123 4
124 1
125 5
126 7
127 6
128 5
129 9
130 4
131 8
132 2
133 4
134 8
135 2
136 3
137 4
138 1
139 7
140 8
141 9
142 2
143 7
144 9
145 3
146 4
147 5
148 2
149 2
150 7
151 6
152 6
153 4
154 5
155 1
156 3
157 9
158 6
159 3
160 6
161 7
162 3
163 7
164 2
165 5
166 7
167 3
168 5
169 2
170 5
171 3
172 7
173 7
174 4
175 2
176 8
177 5
178 6
179 1
180 7
181 1
182 3
183 1
184 8
185 2
186 3
187 9
188 7
189 3
190 4
191 3
192 8
193 2
194 1
195 4
196 6
197 1
198 2
199 1
200 8
201 1
202 6
203 4
204 4
205 4
206 2
207 9
208 6
209 8
210 1
211 4
212 9
213 3
214 2
215 8
216 3
217 8
218 5
219 3
220 8
221 8
222 3
223 7
224 9
225 2
226 3
227 3
228 5
229 8
230 2
231 1
232 7
233 3
234 4
235 4
236 8
237 7
238 1
239 2
240 9
241 3
242 1
243 6
244 6
245 8
246 6
247 1
248 7
249 6
250 7
251 8
252 4
253 3
254 4
255 4
256 4
257 7
258 7
259 9
260 2
261 6
262 3
263 1
264 4
265 3
266 4
267 6
268 2
269 4
270 4
271 8
272 9
273 8
274 2
275 2
276 8
277 2
278 7
279 2
280 4
281 8
282 7
283 7
284 7
285 5
286 7
287 5
288 8
289 6
290 2
291 2
292 4
293 2
294 3
295 3
296 3
297 8
298 1
299 3
300 2
301 9
302 5
303 8
304 5
305 1
306 7
307 9
308 7
309 8
310 8
311 8
312 2
313 7
314 5
315 4
316 5
317 3
318 3
319 8
320 9
321 5
322 8
323 6
324 9
325 5
326 6
327 9
328 2
329 6
330 5
331 1
332 2
333 3
334 7
335 5
336 7
337 3
338 9
339 1
340 4
341 3
342 4
343 7
344 7
345 6
346 7
347 6
348 4
349 7
350 6
351 7
352 4
353 3
354 5
355 8
356 2
357 6
358 5
359 6
360 6
361 3
362 5
363 7
364 1
365 4
366 8
367 3
368 8
369 4
370 2
371 8
372 1
373 4
374 2
375 3
376 4
377 1
378 9
379 3
380 6
381 1
382 2
383 8
384 9
385 6
386 6
387 2
388 3
389 1
390 9
391 2
392 6
393 1
394 9
395 3
396 6
397 7
398 3
399 7
400 9
401 7
402 3
403 2
404 4
405 7
406 1
407 9
408 1
409 4
410 6
411 5
412 2
413 5
414 8
415 9
416 3
417 7
418 6
419 1
420 6
421 1
422 4
423 1
424 6
425 9
426 4
427 2
428 4
429 5
430 2
431 6
432 1
433 4
434 2
435 5
436 1
437 9
438 9
439 4
440 5
441 8
442 8
443 2
444 4
445 5
446 7
447 5
448 6
449 1
450 2
451 8
452 5
453 7
454 1
455 4
456 4
457 7
458 5
459 1
460 4
461 7
462 7
463 6
464 5
465 4
466 8
467 6
468 4
469 7
470 2
471 7
472 2
473 2
474 2
475 1
476 6
477 7
478 2
479 9
480 6
481 2
482 4
483 3
484 9
485 9
486 2
487 1
488 2
489 8
490 7
491 7
492 1
493 7
494 4
495 2
496 7
497 4
498 5
499 8
500 4
501 2
502 7
503 5
504 4
505 6
506 5
507 1
508 1
509 7
510 1
511 6
512 3
513 3
514 8
515 2
516 4
517 2
518 5
519 6
520 3
521 4
522 8
523 1
524 7
525 4
526 4
527 5
528 5
529 6
530 9
531 6
532 5
533 4
534 4
535 5
536 2
537 3
538 8
539 7
540 4
541 1
542 3
543 4
544 5
545 3
546 1
547 6
548 2
549 4
550 2
551 9
552 6
553 6
554 5
555 7
556 8
557 5
558 7
559 9
560 1
561 2
562 6
563 5
564 8
565 6
566 4
567 9
568 7
569 1
570 2
571 5
572 5
573 5
574 2
575 6
576 6
577 6
578 4
579 5
580 6
581 8
582 6
583 9
584 6
585 2
586 6
587 3
588 4
589 3
590 2
591 4
592 9
593 8
594 6
595 6
596 6
597 2
598 2
599 8
600 8
601 1
602 2
603 4
604 1
605 9
606 3
607 3
608 9
609 6
610 3
611 3
612 5
613 5
614 9
615 3
616 6
617 3
618 4
619 7
620 8
621 9
622 3
623 3
624 5
625 3
626 9
627 2
628 4
629 6
630 9
631 3
632 3
633 9
634 6
635 3
636 5
637 6
638 9
639 6
640 7
641 2
642 6
643 6
644 3
645 1
646 8
647 2
648 9
649 8
650 6
651 1
652 8
653 6
654 9
655 4
656 6
657 4
658 8
659 2
660 6
661 1
662 5
663 9
664 2
665 3
666 5
667 9
668 4
669 2
670 7
671 4
672 4
673 5
674 4
675 2
676 5
677 1
678 6
679 7
680 4
681 1
682 4
683 3
684 2
685 3
686 3
687 8
688 7
689 6
690 6
691 7
692 3
693 4
694 6
695 2
696 3
697 7
698 3
699 7
700 9
701 1
702 9
703 6
704 5
705 1
706 9
707 1
708 5
709 8
710 5
711 6
712 6
713 5
714 1
715 4
716 2
717 3
718 4
719 7
720 9
721 2
722 2
723 4
724 2
725 4
726 7
727 3
728 9
729 3
730 3
731 1
732 6
733 4
734 2
735 7
736 6
737 5
738 7
739 3
740 2
741 9
742 8
743 5
744 3
745 2
746 3
747 8
748 4
749 7
750 2
751 4
752 8
753 9
754 4
755 6
756 8
757 7
758 6
759 8
760 7
761 4
762 1
763 7
764 2
765 3
766 8
767 9
768 7
769 9
770 8
771 2
772 1
773 2
774 1
775 9
776 5
777 6
778 4
779 9
780 8
781 4
782 5
783 1
784 8
785 4
786 9
787 9
788 4
789 2
790 9
791 2
792 7
793 7
794 6
795 3
796 1
797 8
798 8
799 5
800 5
801 1
802 1
803 8
804 9
805 4
806 8
807 2
808 3
809 4
810 9
811 8
812 5
813 5
814 9
815 2
816 7
817 1
818 8
819 4
820 6
821 2
822 7
823 5
824 3
825 7
826 2
827 7
828 9
829 4
830 3
831 8
832 7
833 8
834 1
835 5
836 5
837 4
838 2
839 3
840 4
841 7
842 6
843 6
844 4
845 7
846 8
847 3
848 3
849 9
850 4
851 6
852 6
853 3
854 5
855 6
856 4
857 5
858 8
859 9
860 1
861 9
862 2
863 3
864 7
865 8
866 5
867 2
868 1
869 8
870 2
871 7
872 4
873 4
874 2
875 7
876 8
877 9
878 5
879 3
880 4
881 5
882 4
883 4
884 2
885 5
886 5
887 6
888 6
889 8
890 4
891 6
892 6
893 5
894 3
895 1
896 1
897 8
898 7
899 9
900 9
901 1
902 1
903 6
904 8
905 3
906 1
907 2
908 5
909 3
910 3
911 1
912 4
913 7
914 8
915 4
916 6
917 7
918 4
919 5
920 1
921 7
922 6
923 9
924 6
925 3
926 7
927 7
928 8
929 8
930 3
931 1
932 4
933 7
934 9
935 6
936 5
937 2
938 5
939 5
940 8
941 7
942 5
943 7
944 1
945 3
946 9
947 1
948 4
949 4
950 6
951 3
952 7
953 7
954 7
955 3
956 7
957 5
958 8
959 5
960 6
961 5
962 6
963 2
964 9
965 5
966 1
967 1
968 7
969 4
970 2
971 1
972 6
973 2
974 4
975 4
976 1
977 5
978 3
979 7
980 1
981 5
982 6
983 1
984 2
985 2
986 5
987 1
988 1
989 1
990 8
991 4
992 2
993 3
994 8
995 6
996 9
997 7
998 8
999 6
1000 6
1001 7
1002 5
1003 9
1004 6
1005 6
1006 7
1007 7
1008 8
1009 4
1010 6
1011 7
1012 9
1013 3
1014 4
1015 9
1016 1
1017 7
1018 4
1019 9
1020 5
1021 4
1022 6
1023 9
1024 3
1025 5
1026 7
1027 2
1028 7
1029 6
1030 1
1031 7
1032 3
1033 2
1034 9
1035 1
1036 3
1037 5
1038 1
1039 5
1040 5
1041 3
1042 2
1043 2
1044 5
1045 7
1046 8
1047 5
1048 5
1049 9
1050 1
1051 6
1052 5
1053 8
1054 4
1055 5
1056 1
1057 7
1058 6
1059 1
1060 9
1061 6
1062 7
1063 1
1064 8
1065 7
1066 6
1067 2
1068 6
1069 6
1070 2
1071 1
1072 9
1073 6
1074 1
1075 3
1076 9
1077 2
1078 1
1079 4
1080 5
1081 7
1082 6
1083 2
1084 6
1085 7
1086 8
1087 9
1088 1
1089 5
1090 1
1091 8
1092 4
1093 3
1094 5
1095 7
1096 1
1097 2
1098 3
1099 2
1100 8
1101 1
1102 1
1103 7
1104 9
1105 1
1106 3
1107 2
1108 8
1109 7
1110 1
1111 8
1112 1
1113 9
1114 6
1115 1
1116 2
1117 6
1118 4
1119 6
1120 6
1121 3
1122 6
1123 2
1124 6
1125 4
1126 3
1127 1
1128 5
1129 3
1130 7
1131 2
1132 9
1133 3
1134 5
1135 9
1136 1
1137 3
1138 9
1139 3
1140 4
1141 2
1142 9
1143 5
1144 3
1145 8
1146 5
1147 5
1148 4
1149 9
1150 5
1151 3
1152 8
1153 2
1154 1
1155 1
1156 3
1157 7
1158 3
1159 6
1160 4
1161 3
1162 3
1163 7
1164 6
1165 1
1166 9
1167 6
1168 9
1169 6
1170 9
1171 1
1172 6
1173 3
1174 7
1175 6
1176 2
1177 5
1178 1
1179 9
1180 2
1181 1
1182 2
1183 4
1184 8
1185 3
1186 5
1187 3
1188 5
1189 1
1190 2
1191 8
1192 1
1193 6
1194 1
1195 9
1196 5
1197 3
1198 7
1199 2
1200 1
1201 8
1202 5
1203 2
1204 1
1205 9
1206 4
1207 5
1208 2
1209 7
1210 9
1211 1
1212 7
1213 2
1214 3
1215 4
1216 9
1217 8
1218 8
1219 5
1220 3
1221 1
1222 7
1223 6
1224 9
1225 8
1226 7
1227 3
1228 5
1229 5
1230 6
1231 3
1232 9
1233 9
1234 7
1235 4
1236 4
1237 4
1238 4
1239 7
1240 9
1241 6
1242 3
1243 2
1244 4
1245 1
1246 4
1247 1
1248 5
1249 2
1250 4
1251 9
1252 5
1253 7
1254 3
1255 2
1256 5
1257 2
1258 5
1259 7
1260 7
1261 3
1262 1
1263 9
1264 4
1265 4
1266 5
1267 9
1268 9
1269 9
1270 1
1271 3
1272 9
1273 6
1274 9
1275 7
1276 2
1277 2
1278 7
1279 9
1280 3
1281 9
1282 9
1283 8
1284 7
1285 8
1286 9
1287 6
1288 7
1289 3
1290 8
1291 4
1292 4
1293 9
1294 8
1295 7
1296 7
1297 2
1298 7
1299 4
1300 6
1301 3
1302 5
1303 3
1304 8
1305 5
1306 9
1307 8
1308 9
1309 8
1310 7
1311 5
1312 5
1313 2
1314 5
1315 6
1316 5
1317 6
1318 4
1319 1
1320 7
1321 2
1322 2
1323 5
1324 5
1325 5
1326 3
1327 9
1328 5
1329 5
1330 8
1331 2
1332 3
1333 3
1334 9
1335 9
1336 3
1337 4
1338 1
1339 9
1340 1
1341 3
1342 3
1343 2
1344 2
1345 9
1346 2
1347 2
1348 1
1349 9
1350 2
1351 6
1352 5
1353 2
1354 9
1355 4
1356 6
1357 6
1358 7
1359 7
1360 3
1361 3
1362 5
1363 1
1364 6
1365 1
1366 9
1367 9
1368 8
1369 5
1370 6
1371 1
1372 1
1373 2
1374 3
1375 1
1376 7
1377 5
1378 1
1379 3
1380 1
1381 9
1382 6
1383 6
1384 4
1385 5
1386 9
1387 1
1388 2
1389 3
1390 4
1391 3
1392 6
1393 3
1394 3
1395 7
1396 1
1397 6
1398 5
1399 1
1400 1
1401 9
1402 5
1403 3
1404 7
1405 7
1406 4
1407 2
1408 2
1409 4
1410 3
1411 4
1412 4
1413 6
1414 5
1415 6
1416 4
1417 4
1418 5
1419 1
1420 7
1421 3
1422 1
1423 6
1424 4
1425 8
1426 7
1427 7
1428 5
1429 2
1430 3
1431 7
1432 8
1433 6
1434 1
1435 6
1436 3
1437 3
1438 9
1439 7
1440 8
1441 2
1442 5
1443 3
1444 2
1445 7
1446 3
1447 7
1448 5
1449 5
1450 2
1451 1
1452 3
1453 4
1454 3
1455 2
1456 7
1457 8
1458 6
1459 7
1460 4
1461 2
1462 6
1463 6
1464 8
1465 3
1466 8
1467 5
1468 2
1469 4
1470 6
1471 5
1472 1
1473 2
1474 1
1475 2
1476 9
1477 5
1478 1
1479 9
1480 4
1481 4
1482 2
1483 5
1484 1
1485 7
1486 5
1487 8
1488 7
1489 2
1490 8
1491 1
1492 2
1493 4
1494 6
1495 3
1496 5
1497 2
1498 8
1499 1
1500 5
1501 3
1502 4
1503 5
1504 6
1505 1
1506 1
1507 4
1508 2
1509 3
1510 9
1511 8
1512 8
1513 5
1514 1
1515 5
1516 6
1517 5
1518 6
1519 7
1520 4
1521 8
1522 9
1523 8
1524 4
1525 9
1526 8
1527 6
1528 1
1529 6
1530 8
1531 1
1532 9
1533 7
1534 4
1535 6
1536 6
1537 3
1538 7
1539 5
1540 4
1541 4
1542 2
1543 8
1544 7
1545 1
1546 8
1547 6
1548 6
1549 6
1550 2
1551 2
1552 9
1553 4
1554 1
1555 2
1556 2
1557 4
1558 5
1559 5
1560 5
1561 9
1562 1
1563 2
1564 4
1565 7
1566 6
1567 7
1568 5
1569 1
1570 3
1571 2
1572 7
1573 8
1574 6
1575 7
1576 7
1577 4
1578 2
1579 2
1580 3
1581 9
1582 7
1583 5
1584 9
1585 3
1586 7
1587 8
1588 7
1589 1
1590 3
1591 3
1592 5
1593 4
1594 6
1595 1
1596 7
1597 5
1598 6
1599 4
1600 2
1601 6
1602 8
1603 3
1604 9
1605 5
1606 4
1607 9
1608 1
1609 6
1610 9
1611 8
1612 5
1613 3
1614 9
1615 1
1616 4
1617 4
1618 8
1619 6
1620 4
1621 5
1622 4
1623 5
1624 5
1625 3
1626 7
1627 4
1628 9
1629 8
1630 3
1631 8
1632 4
1633 7
1634 5
1635 8
1636 5
1637 1
1638 7
1639 1
1640 5
1641 8
1642 7
1643 8
1644 9
1645 1
1646 2
1647 7
1648 9
1649 8
1650 8
1651 7
1652 6
1653 1
1654 2
1655 1
1656 8
1657 7
1658 4
1659 3
1660 9
1661 4
1662 9
1663 9
1664 1
1665 5
1666 9
1667 3
1668 8
1669 8
1670 3
1671 6
1672 1
1673 7
1674 3
1675 5
1676 3
1677 5
1678 7
1679 9
1680 6
1681 3
1682 5
1683 7
1684 2
1685 8
1686 3
1687 3
1688 7
1689 2
1690 7
1691 4
1692 5
1693 2
1694 6
1695 3
1696 1
1697 1
1698 6
1699 2
1700 9
1701 8
1702 2
1703 5
1704 6
1705 9
1706 8
1707 3
1708 3
1709 5
1710 6
1711 6
1712 6
1713 2
1714 9
1715 6
1716 6
1717 3
1718 4
1719 9
1720 3
1721 2
1722 3
1723 5
1724 9
1725 6
1726 7
1727 5
1728 5
1729 2
1730 5
1731 2
1732 2
1733 9
1734 2
1735 5
1736 6
1737 9
1738 8
1739 7
1740 4
1741 3
1742 2
1743 8
1744 6
1745 1
1746 3
1747 9
1748 8
1749 8
1750 4
1751 4
1752 6
1753 5
1754 4
1755 9
1756 4
1757 8
1758 2
1759 8
1760 7
1761 7
1762 3
1763 7
1764 3
1765 8
1766 5
1767 9
1768 6
1769 5
1770 6
1771 8
1772 7
1773 3
1774 4
1775 8
1776 3
1777 5
1778 4
1779 3
1780 7
1781 7
1782 2
1783 3
1784 4
1785 2
1786 7
1787 8
1788 1
1789 4
1790 1
1791 1
1792 5
1793 7
1794 1
1795 3
1796 1
1797 1
1798 8
1799 1
1800 6
1801 4
1802 8
1803 9
1804 7
1805 8
1806 1
1807 4
1808 1
1809 7
1810 8
1811 9
1812 7
1813 6
1814 4
1815 3
1816 2
1817 1
1818 3
1819 7
1820 4
1821 3
1822 2
1823 3
1824 8
1825 6
1826 8
1827 5
1828 1
1829 4
1830 3
1831 5
1832 1
1833 8
1834 9
1835 7
1836 4
1837 7
1838 3
1839 8
1840 7
1841 4
1842 1
1843 4
1844 6
1845 9
1846 8
1847 5
1848 4
1849 4
1850 3
1851 5
1852 3
1853 1
1854 7
1855 6
1856 7
1857 1
1858 2
1859 9
1860 8
1861 5
1862 3
1863 7
1864 3
1865 9
1866 9
1867 7
1868 6
1869 7
1870 1
1871 5
1872 4
1873 9
1874 4
1875 9
1876 7
1877 7
1878 4
1879 9
1880 3
1881 1
1882 9
1883 9
1884 6
1885 4
1886 3
1887 3
1888 4
1889 3
1890 8
1891 2
1892 2
1893 5
1894 6
1895 3
1896 3
1897 6
1898 6
1899 8
1900 8
1901 1
1902 2
1903 4
1904 7
1905 8
1906 2
1907 4
1908 7
1909 1
1910 6
1911 8
1912 9
1913 8
1914 9
1915 5
1916 3
1917 5
1918 9
1919 3
1920 7
1921 6
1922 3
1923 5
1924 6
1925 2
1926 9
1927 4
1928 6
1929 5
1930 5
1931 5
1932 5
1933 3
1934 9
1935 6
1936 3
1937 7
1938 3
1939 1
1940 4
1941 7
1942 3
1943 5
1944 7
1945 4
1946 1
1947 2
1948 9
1949 7
1950 9
1951 6
1952 3
1953 9
1954 1
1955 8
1956 9
1957 8
1958 1
1959 5
1960 9
1961 6
1962 9
1963 2
1964 9
1965 5
1966 9
1967 5
1968 9
1969 7
1970 4
1971 7
1972 8
1973 2
1974 1
1975 8
1976 3
1977 1
1978 9
1979 6
1980 5
1981 9
1982 7
1983 6
1984 8
1985 8
1986 2
1987 4
1988 6
1989 1
1990 4
1991 1
1992 4
1993 6
1994 9
1995 5
1996 5
1997 9
1998 8
1999 1
2000 9
2001 4
DEPOT_SECTION
1
-1
EOF
