NAME : gen2000_006
COMMENT : uniform customers, demands 1..9, generated by bench/make_tuning_set.py
TYPE : CVRP
DIMENSION : 2001
EDGE_WEIGHT_TYPE : EUC_2D
CAPACITY : 300
NODE_COORD_SECTION
1 0.8630240879192599 0.7004638608264587
2 0.43260030545888484 0.5377292456732533
3 0.06355545348529257 0.3775809278074854
4 0.3109839560760931 0.9764471657940896
5 0.1576939500622928 0.6507517541817672
6 0.9135280683073945 0.8973596082271307
7 0.8401752831999291 0.4583466272944591
8 0.6800670786503281 0.6044807646048289
9 0.7726650990675284 0.42138728352878907
10 0.15632140697500319 0.8465469594320314
11 0.19201785731327403 0.9823594580998398
12 0.3534330398058888 0.3618888567440385
13 0.2895017866691555 0.5998043903370515
14 0.6712499637472136 0.5983605400827383
15 0.4980667028168372 0.594471707975566
16 0.27586187113456906 0.1401715372056559
17 0.5711444870161608 0.9009278227062593
18 0.2327997785328163 0.5983928479028351
19 0.8901879537918905 0.17944442728953547
20 0.3354925822291436 0.6874565418044318
21 0.6347632435912786 0.7038213541848042
22 0.8779017905800662 0.30507149496207564
23 0.36858646697123476 0.07142175415643659
24 0.7490427335188904 0.7445793986989376
25 0.33520082681282803 0.9057263508145252
26 0.8197103204311853 0.3719102420064342
27 0.7918609154621283 0.7740169939766517
28 0.80178485545591 0.7254691217235825
29 0.6322024424347368 0.7894841175666588
30 0.9946777529680788 0.8341565886987169
31 0.6752237727522917 0.8234738628730027
32 0.09697405597301967 0.7601594732745138
33 0.9532433678647166 0.7386730782356545
34 0.9862148871397302 0.19480631553472583
35 0.4931049250545356 0.876616934782892
36 0.5207551453571694 0.5982877367770881
37 0.13791956842594388 0.03699427282039236
38 0.29741604389783827 0.2546009971114511
39 0.38467908453710487 0.5141105026293421
40 0.3372047587193554 0.4521453285936633
41 0.9363084628178399 0.7256411576014756
42 0.51888976385014 0.8020977173200028
43 0.7505044515887852 0.8893977376233866
44 0.39850536984603535 0.8926477685417957
45 0.42174252397934364 0.4898820046025374
46 0.8755521096047012 0.29187183454064924
47 0.2451980604395867 0.9778157415924108
48 0.08323999859418574 0.18669586035708452
49 0.9319473386976399 0.6501447734544438
50 0.9918630669294907 0.9512798875301077
51 0.2272412003518055 0.43596218335445047
52 0.9557348969623629 0.7153309786675934
53 0.0018982430173065667 0.4683816159533065
54 0.5659301082573496 0.5197468062526712
55 0.2065799246696982 0.15622647932332845
56 0.4961495039504944 0.383714148203977
57 0.12869841439058916 0.26469652794612886
58 0.07163162980616178 0.19699329153130662
59 0.935051118383734 0.9585106127977536
60 0.6445502854917947 0.397534880846661
61 0.48471386894457547 0.4809597185254407
62 0.023386410810928737 0.19638985602481152
63 0.44744810212607733 0.67632515317896
64 0.4526945714090753 0.842329352961158
65 0.4473659815082325 0.5725086165812574
66 0.06310049223951653 0.6500730505069303
67 0.8570305396010136 0.9202669864536918
68 0.5766729956359286 0.14375570788063796
69 0.4709290608142369 0.28779155243665566
70 0.3847111594097694 0.21579950430403572
71 0.7378885972482444 0.7117654347542379
72 0.3770772495233099 0.2514094078616841
73 0.9167612918421669 0.033013609048504144
74 0.20763503431993258 0.49565937127638315
75 0.07650340088550478 0.7270254527446512
76 0.03252689432434219 0.678692412397039
77 0.8871060386759689 0.9863582569875298
78 0.5839320853460366 0.42912723832800337
79 0.9954632959406895 0.037529897377744925
80 0.24408385305953684 0.4157955504566161
81 0.13323599324516344 0.8380825399259063
82 0.19990326042418993 0.3710524398492163
83 0.3190751214692298 0.9301407299088134
84 0.7707821918222894 0.826737167233536
85 0.1452613834657056 0.6762812621067943
86 0.3318912422948015 0.8273147822121942
87 0.8392493062934739 0.21765192075686113
88 0.7422930888404861 0.938739591115287
89 0.5391143799120385 0.034554087996491845
90 0.5170226086266603 0.8042331610917278
91 0.11544752706627992 0.5455627138072331
92 0.5060657070147985 0.08607630157871426
93 0.18895442613072544 0.42423439971176635
94 0.23990560914810333 0.6894843098617374
95 0.5313985519034407 0.6392662236591116
96 0.9939941043717094 0.5161275025313461
97 0.8271974357219357 0.9148783868700967
98 0.45518483578155533 0.582243566642181
99 0.05611159292910184 0.01213401839501338
100 0.08568467266934487 0.883243848601163
101 0.7866121016281248 0.55460385787722
102 0.13456998444832846 0.598751955892704
103 0.43285575563460754 0.3218218646241183
104 0.8326779823843078 0.7467609593203908
105 0.8778346160997367 0.16355176866768495
106 0.23662496652003184 0.3665153068169069
107 0.3623971573210034 0.5627645031468945
108 0.263916003188303 0.3050913117568427
109 0.4616230308292161 0.7369832030678265
110 0.8557210247578843 0.5027847016249276
111 0.0570222478707928 0.3298179854460799
112 0.26516459770206013 0.04530768859923251
113 0.8281277658871866 0.9914209400782134
114 0.06104683988864357 0.5742856019805576
115 0.5779732343755043 0.5542317115383439
116 0.7052098653695644 0.7615721860061919
117 0.9814914426293583 0.33373045663819567
118 0.42637712119512106 0.4452797213471029
119 0.39163417778808496 0.8288981356066178
120 0.7282974124734012 0.5414500059160461
121 0.31839237783227026 0.24147049912426521
122 0.7012546256531342 0.840142278774152
123 0.5896773846903349 0.5755501042899729
124 0.7060021384881661 0.6673733327444396
125 0.7829724171815263 0.7583649804257633
126 0.638741380540053 0.04254282053561809
127 0.6470651310063643 0.5826761320574826
128 0.09919693071845936 0.02907853401837268
129 0.248223450493549 0.4560359918042397
130 0.47860719621612735 0.9652519179717791
131 0.6107076797917081 0.9231765772428855
132 0.8270297022006494 0.8557627885303896
133 0.7252093779608219 0.9894716739884365
134 0.3628738630171462 0.13157713541023863
135 0.09887456460816224 0.1794906004405833
136 0.3828119384811596 0.22414397992947888
137 0.5505256897107055 0.4001480063490739
138 0.5494530123346361 0.38276320602002134
139 0.49211943712388284 0.9093069110611259
140 0.08094367185078144 0.043100930832569384
141 0.004921139342424552 0.9103789763653674
142 0.46302717192817444 0.931187718369569
143 0.06222128922733672 0.3981409758094894
144 0.11076282661857484 0.2897137110881126
145 0.21869446775728996 0.192081248218953
146 0.10117578720622733 0.7243268865474884
147 0.12231448673405132 0.1985621314214876
148 0.6547496517147197 0.16605133905032765
149 0.19712369385521078 0.719997405400099
150 0.9351475859797326 0.8385128251555023
151 0.22894390068505965 0.9845845244701155
152 0.09666825912266763 0.7376840963855276
153 0.7259672672589857 0.05607809616612891
154 0.18805630247685579 0.8980835444224087
155 0.9645278634677229 0.8290996972145301
156 0.9888020714010854 0.4932723311868852
157 0.6148005532555104 0.5402048202686868
158 0.22314572332476712 0.20213422957048643
159 0.21943978361815564 0.9391760783686013
160 0.5901266308383799 0.615513250359842
161 0.2534480174857483 0.38467277583237647
162 0.2693726880957179 0.4931336350080264
163 0.5266794426433651 0.05642776416734585
164 0.7754325709226718 0.127115584246288
165 0.289490988155261 0.9401907123862335
166 0.40398978878192104 0.6523902605223673
167 0.6990665567672819 0.7208202409010132
168 0.7651230835604923 0.08608916449224624
169 0.720071868754988 0.9899244576068527
170 0.9937359385868176 0.1462712983974871
171 0.9256578748887815 0.10147197061696944
172 0.6755625515634816 0.3022713229506686
173 0.69176422016948 0.33889839280462464
174 0.6606944791407259 0.4909641360700452
175 0.36149820962356205 0.11566228476327511
176 0.8913307372532169 0.5809432694054759
177 0.5497340974535133 0.05975091374856123
178 0.07973091355275275 0.9185038855749312
179 0.9496056558450705 0.765663584974481
180 0.08408603006415505 0.4989115327298763
181 0.4227419487862468 0.4315555151000551
182 0.3574570474586558 0.05984360416825141
183 0.9538352306039137 0.34705501476821066
184 0.8216139858569569 0.12405085643093405
185 0.4985032931578576 0.09478602458423402
186 0.37143191355467453 0.08960829816781457
187 0.10526964373601655 0.45329118854988704
188 0.24760957785943905 0.6001296793545292
189 0.9775664576060157 0.1618669845472379
190 0.889696196175785 0.7735792941478653
191 0.5741121393320082 0.14296719598758023
192 0.5128968836614313 0.03639237376470772
193 0.23404864501476785 0.03138621856622603
194 0.16266245500718346 0.20891765860068245
195 0.9135298910071774 0.8644941289062399
196 0.2838557535853301 0.5137702727647617
197 0.688202434239789 0.6257505927708483
198 0.3248910502164959 0.41145774474625696
199 0.9564321452446723 0.523192037856327
200 0.7211586451274543 0.16530955922382884
201 0.18789121054305713 0.743276389891145
202 0.07846278120824024 0.4774063188606015
203 0.30263718493936353 0.3645164547562457
204 0.3461796053019355 0.25858844872308673
205 0.7093774338064527 0.03285809914447124
206 0.4331631767201557 0.5861971474195641
207 0.3619236276053286 0.5374910342470526
208 0.4429702604918856 0.1319102965356388
209 0.9454983285280111 0.6375362386515809
210 0.011315821829312567 0.2171927429876498
211 0.9814964298480163 0.09804403315576538
212 0.07627841826572046 0.7699678349861283
213 0.7563640442318406 0.4716924001080903
214 0.975260109829705 0.08198963807830961
215 0.9505310263503616 0.0067099975186551974
216 0.789063378001612 0.061393157913747665
217 0.4360144722488489 0.979262092081818
218 0.421789817197302 0.8857147156104919
219 0.486696549647582 0.3628527486760037
220 0.07578754106089336 0.06951880657991305
221 0.39226300036812944 0.14425984082450594
222 0.45019883239026304 0.08383124591789703
223 0.6699243589176151 0.8525294295084136
224 0.838455470780071 0.09985370039353159
225 0.8273798162457966 0.9862104516120639
226 0.16960876113401213 0.5602109732945615
227 0.5201504075210738 0.5431622119819806
228 0.12099710626459104 0.5750692725448844
229 0.9572815739296605 0.5139960854079708
230 0.6174745612887104 0.9525568155508506
231 0.5625351762699148 0.15484229037249675
232 0.6109492223946066 0.13960637128769715
233 0.5205249494226923 0.42119895045776035
234 0.6558575981081476 0.6238304744547944
235 0.3435317969497429 0.7205809059664269
236 0.2807266491031498 0.8518452210031945
237 0.24735627898577417 0.10188277664749101
238 0.6365199809376146 0.41327433820830595
239 0.3142493095699255 0.7102791988755053
240 0.008540868451589967 0.294087622089808
241 0.181337129585042 0.352330881469457
242 0.06920281916433335 0.16949233970246658
243 0.2111228374479791 0.1907569870896021
244 0.010672216010129798 0.5390128363855448
245 0.30440434938331207 0.17558726494132204
246 0.7264941473522746 0.11898635060216955
247 0.12196685491294434 0.3435566472268391
248 0.580866979206204 0.1621826738572456
249 0.3610472673071855 0.6474645598235691
250 0.8565537517756583 0.3369366829067064
251 0.6479811135940184 0.08198108686252403
252 0.7635880613521407 0.8500158380861756
253 0.1347836117384522 0.5797133231748786
254 0.42741252368576166 0.15697128547950423
255 0.23266916639276902 0.22803578573332683
256 0.6542880179556917 0.4859154525343826
257 0.3112347125980932 0.5328205316808722
258 0.8165157525683353 0.884955677846287
259 0.11276211365821509 0.6956462585248607
260 0.8072463796698466 0.6284699321785467
261 0.8047500871429263 0.6225132310589118
262 0.708521113207716 0.06533371170261515
263 0.07444939198815792 0.9085050471051945
264 0.11579836829650947 0.07731804320475333
265 0.2865520980939654 0.6126799029773539
266 0.8912182971510071 0.08255243329562867
267 0.13791791178784196 0.7179527024015157
268 0.7260306764594496 0.5723394121959613
269 0.8770431822412488 0.9783471566922233
270 0.30926629240042847 0.5585106549152974
271 0.1505813822274712 0.7477657442466741
272 0.179047149321384 0.49357889256911847
273 0.8232428820535638 0.3723859536610058
274 0.29623086825748857 0.148121837576215
275 0.7646831558685924 0.9569775706325128
276 0.19566391447708054 0.6976139042948074
277 0.14771727480457653 0.47372576395414734
278 0.30421523996100275 0.029094585026041453
279 0.16434088511792166 0.326012292137417
280 0.3467940120244726 0.009682272585883056
281 0.4737681383267217 0.6140920902435527
282 0.20302538916497792 0.6273371616769289
283 0.41790091327423773 0.6740587909193172
284 0.30474459761409944 0.007044009185773414
285 0.05749030333676863 0.9869057799788665
286 0.968630874700428 0.016261344909831
287 0.5773258086532114 0.8198796736551833
288 0.0435353843030295 0.8645910637505524
289 0.5901937520596009 0.6263740039069479
290 0.13628290687589806 0.38083985057495884
291 0.03754742771070596 0.30693602859106295
292 0.019858883375752256 0.558522392039454
293 0.14490565621440876 0.8590543606044942
294 0.4249683979780944 0.023006415047325923
295 0.1435024001996199 0.3355495221070016
296 0.6666970069841803 0.28687152958730155
297 0.8299130117685961 0.6826303764638645
298 0.7378259500375223 0.6031672610921744
299 0.8003921130316978 0.2058372691838548
300 0.6008831119385121 0.9884363221135936
301 0.4714344905661543 0.5203514907016235
302 0.7728352197883446 0.7006099195625721
303 0.1584676937025451 0.49181720976385035
304 0.8193673724419936 0.26821889061589943
305 0.3651913104482879 0.8406738189006723
306 0.613621119736418 0.8021437675709996
307 0.09222125666187442 0.4812760213509887
308 0.09320984790677889 0.7408801071161912
309 0.6122777727635149 0.2393237246246568
310 0.8905008200334383 0.2615601061238416
311 0.4462426813020982 0.947671288751551
312 0.887561040277322 0.7684978350389342
313 0.5864468739924301 0.5064213262086539
314 0.8288489470162506 0.38676037288303955
315 0.10050028654191623 0.796189957651785
316 0.9103907013843884 0.3431053992561405
317 0.7823633118034511 0.14846536742356276
318 0.48402537338855667 0.803144914112503
319 0.6411104661177212 0.2590494616805087
320 0.38723179039084454 0.6742818085712967
321 0.41203181239457265 0.30695245185224407
322 0.7818709349581273 0.8825265144201629
323 0.676237197803983 0.9176431310761239
324 0.355796031363111 0.46171192626143576
325 0.6823388807196609 0.8221079286168312
326 0.15098606222251565 0.8649455078818179
327 0.678819818630596 0.19478296779234028
328 0.7656355785926777 0.1661690582748223
329 0.5755761877787645 0.5436781763664714
330 0.577405559908664 0.15984216317275846
331 0.400475074655974 0.44176376942838347
332 0.10616652841629293 0.15660163533609261
333 0.7208871766266041 0.42020571400638895
334 0.5481515924684903 0.2795197347553131
335 0.5225487531279526 0.8205589345979479
336 0.2540285300377798 0.2586213329700773
337 0.5166582629942603 0.7288442092367631
338 0.16932603987878037 0.21227982478082075
339 0.12698369826483313 0.337416966572327
340 0.5014911349242706 0.38027733171519085
341 0.3819240315178516 0.8098719114617386
342 0.13502332193553834 0.7183929033241448
343 0.4973619947705563 0.2976684353093816
344 0.9191399996806793 0.6220973406449454
345 0.26094706058975414 0.8910968835439809
346 0.05414576223043588 0.3192874533184331
347 0.814244276297768 0.8001479562101553
348 0.43427343520041106 0.20960854594907663
349 0.00047333474991428925 0.180792475598605
350 0.19947069954572594 0.049728627890237576
351 0.4944276384031099 0.11508104801624519
352 0.2673945562325202 0.4035341807295365
353 0.777524130992335 0.27847871874779895
354 0.3954723395493438 0.37392499057460415
355 0.099498158107592 0.24230044668135053
356 0.9481684361932536 0.8994075014758779
357 0.5080182408396446 0.9943463373524557
358 0.28761191859804613 0.6734121492030122
359 0.31145680744889914 0.9763306165945657
360 0.30590365262301533 0.34954949779850686
361 0.4211921163192732 0.8706062709127532
362 0.5400696247655654 0.09488483550333038
363 0.9892814588108556 0.4054116886160941
364 0.8291096069063965 0.4317339950358897
365 0.45011285819974944 0.01503588772538611
366 0.7522937079823899 0.6722178234182468
367 0.8918438864220799 0.04816744484648616
368 0.9776423666604461 0.7579078596540763
369 0.9015138325282169 0.2131529837480054
370 0.2977594386787271 0.58347708530798
371 0.511909391422255 0.08258285003296428
372 0.9341621719464764 0.9597904572558464
373 0.2338016759493161 0.12428160950341327
374 0.4282523656420648 0.358878196021727
375 0.4087008851735441 0.8278583802946373
376 0.8176721899231698 0.5719954691734351
377 0.05306732508042444 0.867573690856098
378 0.7786838054428012 0.8129791065478016
379 0.5924274902643135 0.5459814510864556
380 0.05181587664062426 0.5002660848670634
381 0.9637133174998592 0.6515643987656
382 0.9547876635469796 0.7599960126856709
383 0.1886715727614119 0.3650043722848735
384 0.7573830034438518 0.8569843523666998
385 0.7016368242483129 0.62856381253674
386 0.545445460896659 0.8083879720773564
387 0.05678301971125588 0.9877688544672923
388 0.634082249523275 0.13311799872401575
389 0.07297998659702021 0.29285771278082795
390 0.027752491019613523 0.5667986042694468
391 0.2805598724198035 0.8331579262500953
392 0.5677488175458003 0.5608652530939225
393 0.5725126783830563 0.8185266973857154
394 0.7087904736740936 0.6138416287809983
395 0.9821219793564772 0.5305512135750348
396 0.27593914282119025 0.011871885169902119
397 0.032591796749206314 0.13171212525005982
398 0.43549806591352413 0.3621435088709417
399 0.5515361766665985 0.7026006202333378
400 0.7113507910972199 0.8623711695845292
401 0.17995869830943956 0.16801343199498164
402 0.2082471075685114 0.08352380707738316
403 0.8410094920682992 0.787148257730279
404 0.390555746428526 0.22526411607934704
405 0.3428099303418992 0.18615100287474484
406 0.7136490338854881 0.6055286881145749
407 0.28051736259007387 0.7219575877199701
408 0.7947210186219499 0.04396657405106219
409 0.4342638167809648 0.15628968811184807
410 0.022399585045842496 0.28158941239998336
411 0.1518938357571613 0.2715409133436143
412 0.8217998392656536 0.39716266007964374
413 0.8823988602622377 0.8270356842018913
414 0.8362537224398147 0.3890226704946065
415 0.8618060799037315 0.10041593359844436
416 0.6452522430811324 0.7037217776594498
417 0.22551209292811258 0.562413929593737
418 0.05056358605992339 0.4806540054485934
419 0.902501790309069 0.1139955247759421
420 0.26820055196819215 0.7525967422573849
421 0.08690625124426932 0.46815113719318124
422 0.4837616907447797 0.5169503935361903
423 0.9335871871206334 0.7693986565649417
424 0.3668668791741144 0.8227364545270711
425 0.04486769629074938 0.6302296644172283
426 0.1850605215448955 0.3538821424121553
427 0.9746870151914233 0.8848842363710047
428 0.8112016942867175 0.5658371001702825
429 0.3627151459415541 0.2595935611825537
430 0.5484031996737346 0.7312954460743795
431 0.6249056868635762 0.8191667336598858
432 0.8974678261444262 0.9977221853656345
433 0.21496619933575478 0.9359257329397881
434 0.40347656955224864 0.8421326007636146
435 0.27641620902476627 0.13271046070295844
436 0.10834372284463734 0.40879632534707133
437 0.24112824812876765 0.06751583797406724
438 0.7977338867609609 0.9919197438545924
439 0.6383952799590762 0.3142461882066713
440 0.664663086513764 0.7315025842408334
441 0.7647126660281424 0.07033264253526039
442 0.12680975494876146 0.8404246688478954
443 0.8224710746493792 0.021621035327812232
444 0.817722082037193 0.405415627386541
445 0.7874046554073177 0.6073877613702051
446 0.5793608900969667 0.9513469437660261
447 0.6710540584863207 0.5548108026209713
448 0.03047966460255913 0.05236953501279451
449 0.6543964866136023 0.10180218432155952
450 0.22572989920338182 0.7909661753696465
451 0.8802692295948087 0.14632080419445048
452 0.07799318820273116 0.5001166726865819
453 0.18155692645800936 0.965991931663308
454 0.7549691133667121 0.4655066446609858
455 0.26067109715971704 0.9385959639117525
456 0.9763566554882752 0.6546586949787307
457 0.854508589443513 0.4141426012245284
458 0.28083272463541586 0.677298322228668
459 0.4393922016099666 0.6839473521838868
460 0.3394613642508819 0.8121645656458663
461 0.5619151265053004 0.28613658218242277
462 0.30436963257725735 0.046547765890959436
463 0.8761403140275272 0.2175512887039961
464 0.439416558017792 0.032715682156808756
465 0.18073874694426328 0.1646462437839441
466 0.990149113628539 0.6193667444628134
467 0.0941756777342615 0.7333622085910408
468 0.15078009544559423 0.09945045190706203
469 0.04839559870997501 0.7687613241828
470 0.2728946596851637 0.9770878486333473
471 0.5046046903002736 0.2604856223571438
472 0.14972236935466265 0.7174694405846851
473 0.17598295554940835 0.838949073360473
474 0.7431027123187813 0.81227402212552
475 0.5305934287907615 0.023344210225972772
476 0.09451671993210053 0.2551218043970124
477 0.05760511152513004 0.7724467361996259
478 0.7840728928256145 0.4315612581168953
479 0.7061735934347501 0.25228362225570033
480 0.5979666167847982 0.002907639406494522
481 0.6401629673317619 0.0683881742874819
482 0.5189282714921689 0.5124127447396878
483 0.04978818834597165 0.00663194046895943
484 0.33880489009581827 0.15484402324972102
485 0.2596477132952917 0.656614955941088
486 0.3789008477140592 0.5546321056535927
487 0.4496366884001378 0.17041011532737205
488 0.6607053054983728 0.46732721625983875
489 0.5659378121663498 0.2620370826222098
490 0.32807559387568486 0.78218341163057
491 0.5445601803505647 0.9647151147564896
492 0.4734191601512465 0.2339625742063891
493 0.349655119656323 0.3184124254666072
494 0.053317127646082096 0.2690330870397295
495 0.46128170643987276 0.3370067156426506
496 0.6065245172854021 0.0748993742871279
497 0.8808319990495728 0.9819062508616216
498 0.1979663607471953 0.5379064226364411
499 0.16290202531765918 0.04238528302110778
500 0.6405825452600462 0.23233993737524317
501 0.027530937277518985 0.9640655061097482
502 0.490853216856207 0.8135267227203039
503 0.2670763462367354 0.7609772025405984
504 0.5282999896695084 0.5129146492577876
505 0.7798720638379109 0.8890515543808816
506 0.24369045521169697 0.8841339674925793
507 0.20274296440922945 0.6083507538593043
508 0.37309366572226244 0.8650741850566668
509 0.6597520804331698 0.7482065472239445
510 0.4324527442657239 0.8334415239367737
511 0.23941448790154962 0.7246784806858679
512 0.058712506908880635 0.6267169128231644
513 0.052052149998588315 0.43484270276362025
514 0.5646721624468208 0.6921854236620504
515 0.7471263799252078 0.16075722961022276
516 0.24014040676139414 0.5852331403022565
517 0.40129684770044416 0.4499169746182007
518 0.11346133334939645 0.4941640464336152
519 0.6394810419522452 0.24967484908112259
520 0.9197254292031524 0.6071580120799667
521 0.8852669670622916 0.8087362932950422
522 0.1825182232952517 0.17325536502282968
523 0.041892615266464706 0.36498797275613537
524 0.9564266875045369 0.02912418443529885
525 0.08697746826837338 0.6753849012199453
526 0.03682441933319769 0.09615762391995675
527 0.6179774356411497 0.1820180639325265
528 0.5430636544805906 0.23068877220729755
529 0.7661056148237567 0.4329288744054097
530 0.8089542312365929 0.7357073889776277
531 0.7680430654057914 0.2117403465700468
532 0.10175723218274701 0.5885207685261103
533 0.42534766040476946 0.3208527767882339
534 0.31542008198851235 0.17408317639548265
535 0.8970179652050786 0.7935958088612028
536 0.2266174207114363 0.7298511956625919
537 0.7047385675864436 0.351271926467438
538 0.26790345250848957 0.24581060088398365
539 0.5004153595197693 0.3277090291251057
540 0.5732072146448848 0.7107193189486427
541 0.462250687810159 0.34569900598258685
542 0.6849334441010564 0.17382265568576183
543 0.9355175112102977 0.5962191480060176
544 0.9650372339006886 0.07119279824376146
545 0.97361806335575 0.7179049545229297
546 0.09571943904954339 0.7243662173335451
547 0.9432346533675962 0.4745203902106083
548 0.09935678581567287 0.6085713225043604
549 0.8941380252609861 0.43687096030737826
550 0.7144585699105487 0.21461564345219397
551 0.11545234753200828 0.3911571718705332
552 0.5615154729531522 0.22161981510162188
553 0.057440990524981084 0.2707711855589272
554 0.5430377229992113 0.7210275578059842
555 0.293191695064976 0.6674057547952488
556 0.41951994296064865 0.9359676318759577
557 0.9228725284532795 0.29722282769452324
558 0.9984036082515862 0.987843792736998
559 0.22005972170047872 0.7279678700570466
560 0.792027540211317 0.18243344951920637
561 0.5929810495750337 0.9248559724174109
562 0.14549552880495875 0.3899812334518241
563 0.1331831821059205 0.902521243204734
564 0.5912212497316602 0.9809759765726996
565 0.5880082055934285 0.6843414893185329
566 0.0019437777021367175 0.6616697248330269
567 0.6019453666254454 0.4842017068823532
568 0.6619652062142037 0.8962789042831176
569 0.604385256094553 0.8976187771704464
570 0.9057178027323841 0.16554974146417645
571 0.10505683864244231 0.5129409918630449
572 0.26348896876439665 0.08546915130640287
573 0.38835606365994013 0.9001236025644868
574 0.484543681119715 0.26870896172222736
575 0.5757589734952827 0.002779245901142202
576 0.33482287241909914 0.8703158066337416
577 0.5373150433439702 0.24145740103280644
578 0.7980709444531487 0.4383523763072116
579 0.38540819761645473 0.6050126158950313
580 0.3053197952275031 0.9163264741792725
581 0.9167993486037402 0.941253971880613
582 0.5487814561689411 0.6679890144123309
583 0.8945271295710076 0.6249421682248167
584 0.9115951099199172 0.09456067269549084
585 0.5395289402218193 0.3990278081514804
586 0.48395894483512214 0.3803149418532301
587 0.6496866985209621 0.45231622752502787
588 0.344113682994878 0.1943028605614544
589 0.04903625290692726 0.04911230605473804
590 0.92596768261509 0.2837155295349222
591 0.42023074790344106 0.527371529173393
592 0.7852410114859767 0.6189177864170319
593 0.6920801957141675 0.7217415417252168
594 0.9305419604758344 0.6351860727763923
595 0.09691227787808188 0.5436672289734066
596 0.7720812056074317 0.7606416427026912
597 0.18277097483550286 0.29819926280593
598 0.8627340500991173 0.24056275634247248
599 0.42142780025543847 0.6092393754579716
600 0.7462755227398461 0.13643783988081115
601 0.9456456837879872 0.4496403223927655
602 0.3648873624921528 0.12017147929640082
603 0.6671648218391487 0.56085415286184
604 0.27405412053385814 0.4686434664328264
605 0.05963898230507936 0.5377182768643644
606 0.37467305840526344 0.7203905161588032
607 0.6205712425944084 0.773395451720639
608 0.13020533019402658 0.3486676161296437
609 0.13768189863000202 0.4075455239246242
610 0.7883443623555199 0.7012955150600836
611 0.7397709016727477 0.43042580460773694
612 0.8219075622089416 0.03853285523034433
613 0.8115251909173508 0.48719691431177814
614 0.6417873376255995 0.02071419264331731
615 0.4515384983442886 0.7052530456535714
616 0.5145622669541645 0.0062183167977042375
617 0.6358284633836959 0.3719939109022967
618 0.8118709251061207 0.8936946974748132
619 0.08045760788340606 0.9377066142280137
620 0.0943683365041742 0.634508744124105
621 0.9752653805897128 0.03576839325505121
622 0.4073597246919106 0.06330057052838778
623 0.718395683423453 0.5190769796519759
624 0.8957244705959921 0.7641827067427096
625 0.21845253348604732 0.7035761172390406
626 0.8923560257768866 0.5567168460078925
627 0.21679846565395322 0.5399453676160872
628 0.6478554983489245 0.49516070544664637
629 0.21470352136388982 0.8725888529522978
630 0.5617627339323116 0.30441424803780504
631 0.17294255084036902 0.6719691752814327
632 0.3449518925050722 0.07525299797744345
633 0.19958298164264698 0.8471068496278334
634 0.17236622200534546 0.9393864501160893
635 0.26147019432317675 0.3373379577702259
636 0.8963130277731691 0.45595062325417024
637 0.5522494253001011 0.31094041601505684
638 0.5851516247242904 0.8054080600731118
639 0.4634895257121565 0.8871108837954683
640 0.7120843120890441 0.20271536006401047
641 0.4575704726721338 0.6739408134385031
642 0.20933601096213705 0.9223953398040478
643 0.8242859904745621 0.7348647138931566
644 0.17753147387880452 0.39439451258000313
645 0.8981514840777509 0.5091138468237032
646 0.29662100378692957 0.6158937693180732
647 0.6315910754308947 0.5954071231971378
648 0.21627194082002965 0.44401910634546515
649 0.2365293929224943 0.15183657815900387
650 0.5369857541236814 0.3619181613657878
651 0.05451555809813258 0.11088231554387495
652 0.5449650871194645 0.9246692846392497
653 0.8434471278899577 0.4152349978389196
654 0.41622974671486523 0.967656015444087
655 0.17225617171903895 0.5315409606119423
656 0.32382111523693535 0.772150758973457
657 0.2535451636886541 0.09281664598192907
658 0.41841876086041996 0.24243115374620094
659 0.5896907020468886 0.31641641787661534
660 0.580190367152191 0.9125255971005538
661 0.5801544571944898 0.8566865531565029
662 0.4667974648124392 0.24432455678908982
663 0.1947844455244503 0.09393466930715699
664 0.3158492354290221 0.9787949986549795
665 0.10300500615240493 0.015114254844639907
666 0.7283890585816013 0.172645373118691
667 0.0645825000997029 0.5104312691207764
668 0.7546386081574037 0.887433852147707
669 0.43508506254939694 0.21311143538064892
670 0.16336197298792599 0.5293057047570815
671 0.7859970698900912 0.39693713444890255
672 0.6754932799495869 0.8058729214082766
673 0.20194843801866513 0.8519201566048931
674 0.8948530605361065 0.8996768183308889
675 0.14206105791057144 0.7797615254872564
676 0.6490809539941171 0.30370162480182317
677 0.54201779188473 0.37470864128095605
678 0.1424647338644024 0.8407513791694535
679 0.9489983518784312 0.12124855025613568
680 0.36413324825301285 0.09280972807895482
681 0.013786357583216446 0.36825360612738745
682 0.9325811246302996 0.4689148294807123
683 0.029419379610261864 0.39184894808778614
684 0.49161722055254276 0.949436936776332
685 0.8036220620245819 0.7436118499357339
686 0.8169374957459711 0.5468037317796243
687 0.5130842515885052 0.016602583773826618
688 0.5544562212260575 0.8623454011633307
689 0.7452278859309538 0.571485032049695
690 0.8111357327347388 0.43079349861394756
691 0.20567039928687192 0.010987894316116242
692 0.10281713662395342 0.2034116687003905
693 0.6509738993254457 0.49971596217562375
694 0.24473255758250811 0.6456131499063995
695 0.8334726977218436 0.29837504888359956
696 0.7681055477308775 0.42184996845883316
697 0.8905598180669324 0.7825523704558967
698 0.6703720763975445 0.062033174715505957
699 0.7184147110210627 0.40604606798219856
700 0.2332595556901833 0.3422455388670357
701 0.6454806074260792 0.2422188113333148
702 0.3090394967376915 0.9140810144113605
703 0.037118479189414355 0.9979596638247041
704 0.29972151148738224 0.09683724917377645
705 0.6991824313544972 0.7678367323925288
706 0.6873751745664635 0.7697219031018745
707 0.9487677464821433 0.9754970275587768
708 0.39746322536377954 0.8231995876353019
709 0.35613214745812793 0.726707029223459
710 0.5829075563812902 0.9902487433544724
711 0.40959522383867875 0.8760628169155019
712 0.7905607363072737 0.5569390573288407
713 0.9495020422169881 0.8749892177265822
714 0.8882999701573293 0.699296328749599
715 0.7658948223726936 0.4177152634228024
716 0.5844772715093918 0.13864663214843076
717 0.46356312805925304 0.1264734390466581
718 0.1786929934195377 0.10496610172607346
719 0.17365438664582944 0.46034170064772073
720 0.3110730959936353 0.9118920452320567
721 0.848109617573756 0.5831455380633193
722 0.8976699424421228 0.3462866134464213
723 0.7205294477172228 0.3347427246184158
724 0.32939596386316505 0.7693474251764428
725 0.9450553611574407 0.3095965772835074
726 0.12711582597395066 0.7978417787533068
727 0.668243202997715 0.16112595519242356
728 0.40349390024412946 0.662895129520991
729 0.7770924644109837 0.2600150232073152
730 0.9151912422544073 0.6124984686744285
731 0.73506903174816 0.48686849371789953
732 0.9520360520396209 0.8400195563895756
733 0.4882701384288808 0.11807368414769548
734 0.6874646518920496 0.8260958935976753
735 0.7032131727935301 0.5762571285770226
736 0.5714703656333127 0.6297106054646419
737 0.26241912448036575 0.9595081166619498
738 0.4888713277997718 0.0007530098625946335
739 0.8699386245838979 0.48114189406480035
740 0.2767662718324877 0.7058801486237163
741 0.004074655424617268 0.2515465964567368
742 0.2585523005099758 0.5749942141744903
743 0.5977495172497799 0.4361900026676181
744 0.9391700818194224 0.28263050915762755
745 0.7370593086007086 0.5257705197592247
746 0.8334561775902456 0.1941148136385228
747 0.1997346134682252 0.879089662320345
748 0.5093494708180165 0.6726848759755313
749 0.8318115950302721 0.268594733578604
750 0.23061011072069437 0.9803103895099456
751 0.9422891577879372 0.9578989801972845
752 0.08896986080032121 0.398792298162989
753 0.4549067041528655 0.9696160004420423
754 0.9606762576936688 0.4573475804574807
755 0.854514669798132 0.9733052797323749
756 0.780091470371414 0.7519972474037504
757 0.5932427959447865 0.19006925805009967
758 0.7454867694001118 0.3740698637848928
759 0.9886002662940032 0.21323448226481023
760 0.5009176481401955 0.459783068549363
761 0.3248828103491228 0.835504744119231
762 0.4834865897047791 0.2295020739233985
763 0.4395372884055986 0.22447462853998768
764 0.7553171613638303 0.7733973435959244
765 0.1347935880884874 0.15821973345216067
766 0.9109053827229723 0.831326734026768
767 0.9350690626519719 0.31167187713332345
768 0.5156741019768368 0.03956584652952422
769 0.7036881997162426 0.5744967774816441
770 0.5369882806163472 0.6171683200435355
771 0.385758674674209 0.027008013342909587
772 0.1748553956529446 0.37804444572110407
773 0.9048666718375844 0.17086857539440026
774 0.8573641402028714 0.44573018640223727
775 0.22953313635060757 0.16311124900904161
776 0.6920229712568667 0.8805772863377853
777 0.6824701180791044 0.29761367238256864
778 0.6448984071041043 0.3097309011002476
779 0.5591967620934164 0.8150953009248229
780 0.8770655742705821 0.7820249549931817
781 0.35427862869900284 0.7798865669462078
782 0.35189350812763 0.8716821494095964
783 0.9034839901587683 0.6917085296709852
784 0.951243293601941 0.7112522848227769
785 0.8112032214218677 0.7946035701430164
786 0.4763241360633991 0.9532330841380192
787 0.779650537774231 0.4711601547476899
788 0.9480126489256863 0.48631314599078757
789 0.10022132592433652 0.8048766676697395
790 0.6641392625402955 0.9930401187931667
791 0.4186768909748452 0.2335062325672308
792 0.1867488869003735 0.7174567407943254
793 0.11986066521220606 0.6112896245644003
794 0.5926876913805083 0.6820568146069124
795 0.6790299500192704 0.3869192661818994
796 0.5234414073199878 0.053008191924976855
797 0.9524699725860949 0.04169338885516927
798 0.7665186710107649 0.3138968294085892
799 0.2584164019513068 0.8834571530528569
800 0.7834783577941786 0.5712043228868604
801 0.1531959808556177 0.9678203630702027
802 0.2810669571983815 0.6675162682317596
803 0.34608297486433914 0.9022138618931995
804 0.7641452040136835 0.6119375916790704
805 0.7636854848331113 0.010127840568138313
806 0.9111181629245931 0.5823381407398323
807 0.5304737579082647 0.071378594617722
808 0.14546365827818408 0.10767006174805527
809 0.7352810667772652 0.9975525237988758
810 0.5482789031779891 0.6492991831484405
811 0.4769691674919142 0.38918068703093134
812 0.07307293775790513 0.4108079782997145
813 0.8822097368930123 0.2480109971656732
814 0.7466812038562521 0.9837016093853761
815 0.41995638771895294 0.6166281374976023
816 0.36605379239802793 0.8580171116901462
817 0.2983350671182272 0.9518055200830936
818 0.5381340804515005 0.7604639386153976
819 0.825277032937072 0.5642623358861978
820 0.9425056517686291 0.7298827295947417
821 0.6337823322663068 0.6670829432368494
822 0.8709767156759007 0.8877585639928229
823 0.09042396380588791 0.48303368427904647
824 0.1840372913860736 0.38352117159951005
825 0.42823988942942737 0.9380352484557405
826 0.2724027681705655 0.8114127337088035
827 0.435916984438696 0.11241812809132123
828 0.12926151852620105 0.3704543685984676
829 0.20056765986653724 0.4201825420437849
830 0.8018387849693841 0.4389463753427525
831 0.8018539120725477 0.4703433253474244
832 0.80111897299466 0.9326476202144485
833 0.6804471851983576 0.30002051953511577
834 0.43695662537025093 0.7181010994314757
835 0.8897835708296978 0.41400289510538524
836 0.9385570753086524 0.8694124460049093
837 0.558440217524649 0.9723435662600505
838 0.2526548616382064 0.6377170731979929
839 0.9395761528942109 0.5728405687209296
840 0.2680699811091126 0.12736107018452736
841 0.9788388248961349 0.16836451386242013
842 0.4622274185976579 0.3570148984470005
843 0.8965592526995997 0.8301514836720854
844 0.08795309858394085 0.9730703833407691
845 0.3887676251230414 0.17146818298350341
846 0.22774771812940864 0.4511659359803736
847 0.8394521963451419 0.25579030345355036
848 0.6575773836015079 0.5426564058054145
849 0.41706610019183465 0.6449828422540039
850 0.6042011850038129 0.3977846410967545
851 0.6337675912929117 0.6652316458709449
852 0.8267167160668792 0.6120098122219599
853 0.27232763464830156 0.899782533027347
854 0.7946274085942421 0.19598910324733976
855 0.7538281152423608 0.8300301083839493
856 0.5737738305088302 0.19698246838691913
857 0.8784075127915618 0.9290437361544751
858 0.28862887892479416 0.5161950400341178
859 0.9648589681821699 0.7355910602294263
860 0.6440309430679337 0.540914581695645
861 0.5818660137904481 0.30158220963188076
862 0.4486939612098062 0.8212106222888614
863 0.5150971164079228 0.6108510447279243
864 0.20585930372984595 0.9372145604596845
865 0.5085922912410702 0.9153703212567579
866 0.36516883862745075 0.12922109179553942
867 0.08112539005559816 0.5453885324442093
868 0.819603307924445 0.08059384514054402
869 0.7825770418027814 0.07082504584100757
870 0.6514954197430013 0.8624085540963233
871 0.2706865548082328 0.905804154802164
872 0.7800271946755745 0.6999902991223219
873 0.4250553569860531 0.285291014068763
874 0.6581434087831237 0.20552844273126392
875 0.117625542467796 0.2771011507858402
876 0.5689292438022256 0.5280202199722756
877 0.21418387081907286 0.9822848443995168
878 0.3715835952788321 0.933768337372004
879 0.23635908418201845 0.5855354432705888
880 0.34751576410915197 0.5226571612539576
881 0.6546273583437764 0.09686221165939168
882 0.16488472445463098 0.14027499408771682
883 0.38269327329484626 0.185322523995743
884 0.22808951970760216 0.12325811153937494
885 0.575919508905188 0.6883181111469292
886 0.05606440547554559 0.6041497572375838
887 0.23594030674928135 0.5406963998706519
888 0.5155794276888034 0.6606031651936535
889 0.7392092803930072 0.5978972664276626
890 0.8068334765928875 0.29066489170056475
891 0.724271574990476 0.25199476443097824
892 0.9192539705719097 0.1340102250439501
893 0.760825720999961 0.04359729668871315
894 0.6351840992948581 0.8835360329476892
895 0.640088719941983 0.902733170854971
896 0.3955429078374 0.9189368816195433
897 0.9470946354162382 0.4889607607344282
898 0.22236810172820387 0.6522168973538106
899 0.08651470232633585 0.35487682645058183
900 0.3097604769487108 0.9656093930828527
901 0.11786321046917914 0.6078482688662213
902 0.1710501143227089 0.22054994267183958
903 0.595679117892665 0.32439668012727874
904 0.8155199942439747 0.4472457817000579
905 0.9854236574356464 0.7407487445495704
906 0.31597561086321047 0.22533187745482963
907 0.2721910274981144 0.7983301734568359
908 0.9294257021913275 0.28388846160894854
909 0.5187992011329248 0.559450770984997
910 0.02663332698499654 0.7403342899031222
911 0.5063587291753734 0.9801828707811783
912 0.1441840141949302 0.3867967812405091
913 0.7343234409812466 0.11779048907221101
914 0.5136350660443079 0.12402283051075746
915 0.8275181557963922 0.3417663237918893
916 0.2406724566440107 0.8667248390999949
917 0.9766214460136778 0.01912883249415498
918 0.48206193878824966 0.4822559656116454
919 0.9377051948233769 0.40654711635364627
920 0.6210542564640895 0.23162215665968322
921 0.6336633180375802 0.024895512043398127
922 0.2753305750541576 0.6467762415214797
923 0.2966914717674417 0.5798161907453752
924 0.09455782623824371 0.7408176018681991
925 0.9948130539863937 0.07178154079356014
926 0.9277453077558195 0.027928327520422402
927 0.41425775351132865 0.29602432105054133
928 0.755085657478949 0.6115718083608767
929 0.8240630021918639 0.02821614969544195
930 0.11983746187577804 0.004748509499043041
931 0.026322614689000434 0.8533646722525366
932 0.8828458633588473 0.590825927836538
933 0.6567861493968161 0.938386403485912
934 0.24732493794731636 0.33076833090624036
935 0.09420090951484672 0.16160367326444058
936 0.28184548563307055 0.061227334503673014
937 0.2669170800797145 0.28593475321938777
938 0.4250132551669764 0.40500720802091783
939 0.6945742678611752 0.5608215638013576
940 0.3242587554925306 0.1493453506952107
941 0.011437027305434389 0.4540365399660722
942 0.03586811434511017 0.35338635266492635
943 0.8102033417174128 0.7461474450284072
944 0.6103247816115861 0.04192965400333126
945 0.7434754390250651 0.3553499866653176
946 0.4773224080418348 0.5117980959621125
947 0.9436880264606629 0.7545854616065234
948 0.9989014476492566 0.6849202254153236
949 0.42888221654771064 0.7905849056739694
950 0.10526166798122161 0.41786455312836923
951 0.8698940519844159 0.8134674303904427
952 0.42893713414648105 0.6062781452773328
953 0.9496006712556172 0.5329052858731088
954 0.8230993778203824 0.6120063088422188
955 0.8305573740765451 0.35097712420438987
956 0.3461108137265637 0.3643746423734552
957 0.32928448081490913 0.2868244420144659
958 0.003548341745672867 0.8100883748571805
959 0.5118515818471246 0.6518777298330097
960 0.6622823561352703 0.7073557701619281
961 0.9346141337579821 0.2131658766891945
962 0.8947716891932765 0.15205208487587496
963 0.14782772717739545 0.03396109620704024
964 0.07030763617336466 0.9697183874071786
965 0.882386073297908 0.8368930608795186
966 0.19075517066217884 0.8587790332250766
967 0.20352412010029886 0.31886460408014805
968 0.9708269926250713 0.5967905857495484
969 0.5985369780081751 0.25049998942440177
970 0.4799800555471999 0.8883409467184312
971 0.3418639172499678 0.5692856763533933
972 0.023483187302629105 0.24553506468651687
973 0.3883597266999711 0.1569168889100827
974 0.364468871366332 0.5644356427086994
975 0.5427447293725837 0.06390703003270237
976 0.97099261811017 0.8540712165507429
977 0.529226958010516 0.5036869718664627
978 0.6842592992960591 0.4032599276296335
979 0.5901264098859084 0.5882865678167437
980 0.15913460747774788 0.6920319558028063
981 0.5312323120953449 0.6539027504266093
982 0.3080067388416573 0.9607895578850569
983 0.9772839417749813 0.8163080661180245
984 0.039054989882213564 0.28791057738163517
985 0.8465336699207247 0.7630526573320203
986 0.6097968446291506 0.974159749488569
987 0.16235950814931366 0.31798472221513274
988 0.13084601718809896 0.5769257092995138
989 0.009697678085244243 0.041722543317911254
990 0.5819475128993977 0.12188866165470247
991 0.5142925025557846 0.028786975694038208
992 0.5823587060688027 0.8709317904627661
993 0.49766137539769084 0.14658032921950692
994 0.9308678101755935 0.6641730368038772
995 0.8971710544596643 0.7615931084770947
996 0.9314418410792513 0.7235317092416875
997 0.9859041100525195 0.6493829337751382
998 0.9674804769849309 0.21419127665012783
999 0.602399999311679 0.5869231411350216
1000 0.5858485708909478 0.9585838478377648
1001 0.7216232579012443 0.2891154603131386
1002 0.4426044517658567 0.8017840868071143
1003 0.35435044011802896 0.10138788218571892
1004 0.2760165871091347 0.0257121713862013
1005 0.7975291902750049 0.6447859517044526
1006 0.2846679636197722 0.7978806158400934
1007 0.07923964999153188 0.938418266835586
1008 0.8984016305355875 0.6200129658721748
1009 0.5941609560954176 0.8150059845010998
1010 0.49288745348452123 0.0349831650680954
1011 0.3843119202285763 0.3647422258737265
1012 0.3086101133524787 0.790484504411857
1013 0.8594026428124344 0.16056051107113967
1014 0.4450577366033326 0.21732778194133662
1015 0.3004475512252689 0.08322443103533028
1016 0.6365391815789849 0.21907450107163895
1017 0.11509224545428232 0.6408500083381045
1018 0.8395889189887763 0.7454228940955806
1019 0.10827457704850163 0.08995528050456991
1020 0.2726910778717647 0.13667661165145373
1021 0.21394212871809037 0.1511697698098562
1022 0.16425512433954115 0.10879651877011776
1023 0.2303641807010287 0.8038642868875279
1024 0.1951523543130368 0.14521998888763388
1025 0.6109199530710647 0.7132779960782704
1026 0.8237894695914048 0.9227236759723845
1027 0.010776275536747426 0.10545363143798547
1028 0.22555992683298698 0.6752339853497158
1029 0.8227335171880865 0.41780707426812735
1030 0.9369860097067153 0.7206241414362118
1031 0.9964194842565489 0.352664292482454
1032 0.7063944023244729 0.6822850216231277
1033 0.9273209240231275 0.21130561214097343
1034 0.6774102217762042 0.6909985530999136
1035 0.27920592226171415 0.2338021197851894
1036 0.5135553035158661 0.28754252244560685
1037 0.676427391251332 0.18087234381948103
1038 0.5047242363667304 0.14121279142915366
1039 0.7102373301146333 0.681491137263834
1040 0.9411666316340588 0.27180131024017795
1041 0.7016365461305522 0.715341978407704
1042 0.6656778719433561 0.0842553797443949
1043 0.914869235381848 0.3147025707399974
1044 0.7471109369713991 0.38500970195330264
1045 0.3866019890213048 0.23582409875899013
1046 0.17221492791240545 0.7952350027380326
1047 0.6964663559334284 0.2517070804711209
1048 0.43396911815414274 0.2675801859497722
1049 0.40030483547571305 0.9603848570175249
1050 0.17508573868288013 0.0757536121175384
1051 0.6664887084362636 0.06645891707703488
1052 0.606580217466411 0.8791391537201289
1053 0.25350634511532255 0.4261945600769068
1054 0.5062548035393719 0.19321987396705698
1055 0.20889029882513177 0.8955661400836955
1056 0.5081513455925242 0.3547672563838604
1057 0.6026506210074909 0.927766286896895
1058 0.26609170560810225 0.9304246777007122
1059 0.13459304767389912 0.722754278043472
1060 0.0029278797683121027 0.8995331264453088
1061 0.17139105460067772 0.25579717215121534
1062 0.9084219141652776 0.6895523788750524
1063 0.11524086556225455 0.4170091402523697
1064 0.23866323558203462 0.020179358003673986
1065 0.3431275214529015 0.4101621946896383
1066 0.3906491165348164 0.13919900591925793
1067 0.6080805263096565 0.17350161714595924
1068 0.46502834047569874 0.9600385355478147
1069 0.9099794597326648 0.911294295687959
1070 0.8145951219363035 0.49977778304714104
1071 0.636770462398373 0.9301267338551753
1072 0.9470461843182381 0.1749466530341458
1073 0.9683224675061378 0.49172483215723295
1074 0.520400570914503 0.22575016090343347
1075 0.9664170332792749 0.8229300421198822
1076 0.6110222717792316 0.9327219021172526
1077 0.31605578872055784 0.5469207684251993
1078 0.48341604170339814 0.8808671200403486
1079 0.5696377078014174 0.5492030448951436
1080 0.7578719913690005 0.8205960694559836
1081 0.8484228555395833 0.7137511002651237
1082 0.8085765216588442 0.9548550381593105
1083 0.25097136473534376 0.7271476073942694
1084 0.7960871047319473 0.00937178894050994
1085 0.1335677806647214 0.5234058350239582
1086 0.4949241851361973 0.9935078175269793
1087 0.8966850630203832 0.7512106302497213
1088 0.820140963967457 0.6760605613189042
1089 0.2766387747867427 0.08007276744261904
1090 0.0231526394379602 0.3311104192724994
1091 0.15779664651159042 0.5323190773086404
1092 0.6321217814324069 0.7914224923156704
1093 0.15490817395391931 0.885543657217359
1094 0.5580001278162969 0.6915710522486375
1095 0.8276103077850765 0.8913785282628063
1096 0.7493988998354786 0.5321978558764622
1097 0.3042388664983343 0.1741253297565083
1098 0.7808036005881084 0.15576450819643373
1099 0.5311740283356066 0.07247857737852081
1100 0.40370353011253457 0.45282056127089887
1101 0.9522221779313491 0.5592481526571711
1102 0.46309238617223847 0.5062829001264672
1103 0.3620878038296237 0.1426375398842501
1104 0.3369975220763418 0.521741349028515
1105 0.39975677623046046 0.23425904613604265
1106 0.3369773400589102 0.9020525356988616
1107 0.3729476733466349 0.9336042155462762
1108 0.12302206579972541 0.1515913979561434
1109 0.7008038919981262 0.5373216469387826
1110 0.9568310717025897 0.6951859736322986
1111 0.6962178659694714 0.24205183051532297
1112 0.6096381647108207 0.5264215799283665
1113 0.683762198147463 0.5191890700238555
1114 0.980190225916126 0.4161285104983382
1115 0.9906756119157429 0.3966320345907486
1116 0.8209719036525415 0.43026108002104957
1117 0.7308432933800714 0.20428493903179568
1118 0.5998048005424588 0.49805614509278906
1119 0.974792164586388 0.929447625951477
1120 0.4008962760450461 0.6307377187622506
1121 0.6094368313530057 0.8983167299433503
1122 0.8774029464963514 0.2245492791103475
1123 0.7587068804324185 0.895178186119976
1124 0.5109463037145163 0.059471314624537364
1125 0.6708602797481886 0.2515216478403087
1126 0.8703881671248517 0.5024980384598935
1127 0.17396108834903568 0.26726036523866015
1128 0.9547637819476957 0.8121560587629997
1129 0.9902323035763507 0.06207277518547949
1130 0.39016319577004743 0.28396641152697344
1131 0.6065979859493791 0.8905126945962929
1132 0.568480263626185 0.9300217817437474
1133 0.11312179087774732 0.24773861040211365
1134 0.5073412426268367 0.4256957543732659
1135 0.2782291676028804 0.7584452208022286
1136 0.8423028363851897 0.25093867034196604
1137 0.7560924653667068 0.3945866197905915
1138 0.04410522302843978 0.24810077673630826
1139 0.020359814363030804 0.43520279277007035
1140 0.27407464275219207 0.47331937137038105
1141 0.5236633996051412 0.02995307760336341
1142 0.09422599944039345 0.5687281549228501
1143 0.12287765918330917 0.4078096431049033
1144 0.37967365120624075 0.2435646018603691
1145 0.2434147757971542 0.745093573568804
1146 0.04803905054589119 0.7821494245210454
1147 0.15467668816931324 0.8777366138199008
1148 0.8482441999877679 0.5715287815189707
1149 0.7969966835074054 0.219149492390167
1150 0.35896536501871545 0.3239555434994985
1151 0.04065129859556793 0.004830645139567102
1152 0.0378622772258288 0.3026632669624215
1153 0.23171651795599468 0.2758808803364313
1154 0.4173523982623266 0.16784078543969028
1155 0.5696080495048955 0.5945933981184535
1156 0.20390937432115275 0.502523745094555
1157 0.5493852899425543 0.3246408456879697
1158 0.696824092086231 0.9002391802857875
1159 0.7856660923555916 0.2497059603984889
1160 0.03595064542647153 0.5148206966950866
1161 0.3960367590345458 0.7940124989604389
1162 0.7237806174131204 0.02968685344310995
1163 0.33753552603131187 0.10641896078091584
1164 0.722142014234452 0.322830339243691
1165 0.7151895572350333 0.16915584919194326
1166 0.25115530789000007 0.4670947643704525
1167 0.4833185478508669 0.2929325022382404
1168 0.33755145658925956 0.2961551777179924
1169 0.29284552750134585 0.6796953595643523
1170 0.3054969312090232 0.461253544749601
1171 0.6705249532440957 0.17131924117261121
1172 0.5606403656284121 0.5436021637142803
1173 0.21267644666596253 0.14370674493744084
1174 0.545142601472624 0.4193564153836551
1175 0.20923126982750018 0.8003594264090623
1176 0.6530731413100502 0.42846686187196115
1177 0.19417743042604718 0.7391833149527394
1178 0.0830074635605188 0.626729075497421
1179 0.31111698678914756 0.7413426542151543
1180 0.8997491272369836 0.24864161444255728
1181 0.8236808402656979 0.4445282783152954
1182 0.28295023871004166 0.11876746291008788
1183 0.46902579489015195 0.003402155077664948
1184 0.04551790657019106 0.3134695941986305
1185 0.49421459427509595 0.029549409134933313
1186 0.8329923150340913 0.5843388367084378
1187 0.022372834312939127 0.005036556412291948
1188 0.6122284702132662 0.1555963789378212
1189 0.4756873593917955 0.8717611834686062
1190 0.8391484100263413 0.9477584473169502
1191 0.18659997151896035 0.39687719590374826
1192 0.5396239376656556 0.7188652351305479
1193 0.8122367835638313 0.4363627611950178
1194 0.4520720131021504 0.7809661853575209
1195 0.7264645238807848 0.1321487395839338
1196 0.8956757240223762 0.28312395224110776
1197 0.31695933606885485 0.056747807636206016
1198 0.9623872004335786 0.24096031432448106
1199 0.7749299633048784 0.03571290234460189
1200 0.21300908285642817 0.19434119076967837
1201 0.04969533535812953 0.9401795348410774
1202 0.9949869817411665 0.6452659847929709
1203 0.43731669883049684 0.8066496734611452
1204 0.5656196547602513 0.3706855317779053
1205 0.05700419234846121 0.4591039580070022
1206 0.3558701547089659 0.35349095060732094
1207 0.34072248570429675 0.8324352698752432
1208 0.3911600681486571 0.37562180867308714
1209 0.8188554237037151 0.8472164529578908
1210 0.6363176887214809 0.6805513012955029
1211 0.597310588217961 0.23228592897778377
1212 0.2340444046626261 0.897564077121666
1213 0.493571709298507 0.47612354918758526
1214 0.7598962440474556 0.7855934178133522
1215 0.811223192413904 0.7864981038960923
1216 0.472422166503184 0.10451438636203436
1217 0.7471000249267133 0.9397762980710223
1218 0.42584593446110397 0.43353118753974196
1219 0.5064912982711568 0.6729312487168592
1220 0.5423039801320969 0.02366577855537433
1221 0.006619218814635119 0.9403553987480946
1222 0.7590267854481259 0.07955023458595945
1223 0.36215763471797724 0.18493033683112858
1224 0.9098158464540304 0.07460902549159654
1225 0.3681630381601231 0.6035648093286426
1226 0.23932538430571415 0.7387453066935147
1227 0.051117096482680924 0.1463719544216333
1228 0.8306876118775952 0.7875372291057003
1229 0.3012522742277287 0.17722757035374903
1230 0.08959492343065778 0.5764081109052505
1231 0.6157113889217841 0.7049114638917507
1232 0.24726542015715613 0.15423263325531733
1233 0.1678996547675936 0.20815307246793435
1234 0.28019559803717153 0.7017814083184171
1235 0.5378061924062282 0.11998625411216346
1236 0.31371870229546817 0.023346569511327186
1237 0.8346354332201373 0.973084670293714
1238 0.22798352093862762 0.5925791542575177
1239 0.6958051893833433 0.7202014191566
1240 0.4681028383485454 0.5362882279135393
1241 0.5414426866075001 0.868445883102281
1242 0.7503504316820933 0.9697768524226417
1243 0.6086145628000215 0.31735463862247093
1244 0.9166513746128988 0.5641861312067084
1245 0.07879919842462446 0.7801927702583915
1246 0.9636781897176714 0.2876343208490043
1247 0.3221790623169394 0.23734087481980537
1248 0.9469161213446504 0.7814554936639967
1249 0.41437955445610564 0.24605829862521822
1250 0.05199084361470696 0.3978741509991396
1251 0.4700084394011389 0.20214496954571104
1252 0.9184091169533193 0.5758291165984291
1253 0.5280214812195468 0.8424842828687693
1254 0.8426472598092051 0.829250464804192
1255 0.133492216875031 0.40963085505576924
1256 0.4653995722953954 0.6364471546468159
1257 0.9239928330782246 0.07207089738065753
1258 0.32925967347127216 0.9383554508151775
1259 0.2862542981009033 0.7648227944672021
1260 0.4231315415559276 0.5713413054509239
1261 0.20724750329980623 0.7256389906129731
1262 0.880921866760237 0.6160790498326945
1263 0.697240744863858 0.9854053963753996
1264 0.42296655377808834 0.6014244417264349
1265 0.6589587240638144 0.5314730336845143
1266 0.48510377721911624 0.7216603032442369
1267 0.6968258698321718 0.49515359573275997
1268 0.7306990582440791 0.08385014214835973
1269 0.8298864386975379 0.05803447978823206
1270 0.7089441424264883 0.10331042229092446
1271 0.4069478744737023 0.49452019816766224
1272 0.5494896920552995 0.33226499448131164
1273 0.4604671610087744 0.333182217549293
1274 0.8002537226261274 0.5322662456604559
1275 0.9041342971976015 0.4920593877607138
1276 0.8359519048351616 0.5148573017142936
1277 0.5394887875856136 0.5175111221741174
1278 0.8099627607833219 0.18954121016437409
1279 0.896155332229629 0.7339491538778339
1280 0.7365249893590782 0.7029188075006805
1281 0.7598843164853315 0.4257473183213667
1282 0.017435243329541827 0.8728076219832527
1283 0.2848052182325511 0.21099427747393074
1284 0.23713659533474407 0.6716819005766238
1285 0.8339894615750124 0.5503170748733722
1286 0.833939631808454 0.5725266271657506
1287 0.7494607274222834 0.3781815123011535
1288 0.9061066527699005 0.42525650387260705
1289 0.4930308263655917 0.5138919260444843
1290 0.029797848324629728 0.2552111196151565
1291 0.9208500980567192 0.47143569099977023
1292 0.35911628288704145 0.300242213659506
1293 0.5321224189373097 0.7165044201334249
1294 0.8777620740144869 0.7611677375835879
1295 0.09297074740270161 0.9577917390481843
1296 0.5614040531011055 0.8310346258530721
1297 0.3022021032873573 0.27946202150536814
1298 0.727514771115919 0.903063417939675
1299 0.813454194765649 0.6691945043929158
1300 0.5959106760820335 0.39815032501915226
1301 0.7061062079956242 0.8333415068124196
1302 0.7834567622297983 0.9731894040378937
1303 0.9440202776070933 0.16377140433829884
1304 0.9636377422015053 0.43716266632623124
1305 0.008175738632178797 0.10832691731282629
1306 0.7553658742119277 0.7703458329293407
1307 0.8070079990736534 0.9027016583416685
1308 0.3913103516572244 0.5082613506956368
1309 0.9478740156512152 0.19986245485481335
1310 0.7980179212602759 0.9136344619477097
1311 0.18589854062320932 0.3972692619002366
1312 0.06779327180823247 0.8532524555272
1313 0.5706821538217132 0.5874878317066826
1314 0.7184154283223438 0.950397384495398
1315 0.731238690335187 0.14889834532696755
1316 0.886367660784442 0.3279704605581133
1317 0.9399255315502223 0.6813590012143551
1318 0.19487320220490856 0.19183218450187056
1319 0.3942444738545168 0.2657020721729876
1320 0.9911696143717827 0.5369917952290282
1321 0.98820664051886 0.7961623661631297
1322 0.7792069302868483 0.47115242693637605
1323 0.4080796323092266 0.9804764284091263
1324 0.7920481673078289 0.5587704259663311
1325 0.20996729097461353 0.6515689483335653
1326 0.2848698321008387 0.40686182029704687
1327 0.12249229336307854 0.7845787679072839
1328 0.3250984134654491 0.5587701385867403
1329 0.4654281786605976 0.8156405901192564
1330 0.14221403227138274 0.5328276237251618
1331 0.3592771656302498 0.21352042265487914
1332 0.03892398392417584 0.9664742407226695
1333 0.037518447872468386 0.6995193183134009
1334 0.1075766355487896 0.11010051632065732
1335 0.1268632165644269 0.1891224105424526
1336 0.5105173463658675 0.7524998713734142
1337 0.8356099853933489 0.13589952717990017
1338 0.27805158509373495 0.20121250004849767
1339 0.4529107644418213 0.27181019377196214
1340 0.8763006923169445 0.21977276514451682
1341 0.9216231090891966 0.8398684727996555
1342 0.7253906798604538 0.33859092047292416
1343 0.41960177257216114 0.34565492176806745
1344 0.14171218885731818 0.13689038949497412
1345 0.189240948923331 0.47737634546923813
1346 0.19568026752134215 0.5569911287453283
1347 0.32593586199128666 0.13781380754522365
1348 0.14198073274379674 0.7684439164354038
1349 0.6189293675402827 0.9230384688752581
1350 0.0852133228267794 0.7777700552595004
1351 0.15135296459149805 0.5203528518471504
1352 0.9643452062289823 0.8738678152198479
1353 0.12267141779920743 0.4545176412332257
1354 0.6842165748221414 0.7782488170604499
1355 0.385343500597223 0.6548012350011889
1356 0.22441728334746125 0.9915206469879119
1357 0.5515225530562228 0.7796197618606675
1358 0.27749067514227244 0.8996808348442895
1359 0.5591594483052283 0.5722055323819044
1360 0.9114397305653169 0.9814064033999077
1361 0.07965895333812922 0.2427505283260064
1362 0.14192096646370778 0.3467843666270305
1363 0.6995453335175857 0.11773482343541497
1364 0.262486397842448 0.6021356193780344
1365 0.8214203367726782 0.25519390589306945
1366 0.800491756706223 0.8593279996526806
1367 0.8776834979132355 0.49968139614584073
1368 0.7317825235502827 0.7469831408543782
1369 0.14592200248613352 0.9929415856992774
1370 0.24088271617992074 0.6103697069450535
1371 0.04401815195821901 0.15511514810380078
1372 0.6078674918870717 0.2694866377877351
1373 0.8625092815886984 0.4314732518296889
1374 0.07924048920012683 0.6641643112321046
1375 0.7892487372276621 0.09475190945409995
1376 0.06343301789530487 0.6279994253424132
1377 0.6321791563186028 0.6601179476919783
1378 0.47552755110326295 0.12574151144311985
1379 0.864546376217755 0.9809646258649412
1380 0.13584159924679395 0.23600044845647017
1381 0.21792447546512972 0.21916395839393432
1382 0.30312482494193194 0.8151624172598754
1383 0.06794547721975241 0.3854914022072441
1384 0.727808156537616 0.03458017343849484
1385 0.4528380431225012 0.052270327938762406
1386 0.769674987367379 0.3656332666493093
1387 0.8276534552269718 0.8497586168753499
1388 0.9504169332845952 0.5166073863506158
1389 0.5288473612041054 0.5076502265323048
1390 0.9813950000858799 0.8227970863952869
1391 0.4531522177670292 0.8779840331321354
1392 0.9991153293742346 0.650518211810636
1393 0.8362222297367333 0.6076056685430488
1394 0.4924103785363524 0.43416215925691215
1395 0.06838356057966644 0.09648539734395367
1396 0.4642112698489431 0.7092674777168061
1397 0.21644110778298176 0.07809137669278621
1398 0.9148903094145224 0.09229160296537253
1399 0.9444810336388192 0.7106398792251502
1400 0.9946481469738303 0.8231451769773265
1401 0.5899282083233103 0.44250633357680447
1402 0.9505401888781736 0.11286553663000365
1403 0.3283414414301783 0.2941899002202255
1404 0.11688688141717585 0.6024214791533444
1405 0.6073082252726678 0.410987515793773
1406 0.8812816229081456 0.6040857131126237
1407 0.3478887390098073 0.7276278675629743
1408 0.40679243211423155 0.10088682075398536
1409 0.24908195147607626 0.5839124329022406
1410 0.580734484750451 0.7217973145365649
1411 0.6634694294304944 0.02224742836418747
1412 0.1811689008323879 0.9834442926997908
1413 0.8447372873828528 0.042746092022501125
1414 0.842345798290191 0.002944043042036104
1415 0.7527824693042928 0.22850786075783058
1416 0.6074600600702723 0.6748042192308348
1417 0.15463006962284775 0.9742764300477001
1418 0.7947733172661264 0.5022414868697058
1419 0.12921785867964375 0.11251455711004721
1420 0.3521693906356267 0.840573301317291
1421 0.44852408157918344 0.12402552022257285
1422 0.9208889370962187 0.9640947314945854
1423 0.3125193780228922 0.7858539328858164
1424 0.677802747540742 0.877214064180214
1425 0.3987142084380121 0.10841769048536165
1426 0.120011502260852 0.5429830005247014
1427 0.8587735636796919 0.42330130668255905
1428 0.49187277992320566 0.5285098108537009
1429 0.23449231228488698 0.11324815377160458
1430 0.7386331264447614 0.1151613765080226
1431 0.28500370378787476 0.7807478358299121
1432 0.81314649237006 0.647989932628285
1433 0.024723575071788684 0.41129352916147
1434 0.4244779435290197 0.5730951335777059
1435 0.31313957308331575 0.1657637817780615
1436 0.7473506197625202 0.9356891725206562
1437 0.8254834009310532 0.8231596044884523
1438 0.7613264021169962 0.993478113895764
1439 0.4789310732938711 0.8772008243479968
1440 0.8439748665607851 0.21424523535057116
1441 0.05944451344831814 0.2680940623331195
1442 0.2241795491558577 0.887092316932862
1443 0.042744299876960934 0.30117226016606813
1444 0.9194025231829219 0.43970514088420065
1445 0.15297043424024304 0.8599537440922801
1446 0.12318942650118059 0.12118706869796836
1447 0.5991936247856712 0.5383192319914909
1448 0.3673512839467552 0.11306115813770079
1449 0.4582582854891035 0.5693547524092168
1450 0.5447237026990073 0.9538809417103961
1451 0.39710147633363146 0.9923322149043463
1452 0.7306685695977898 0.13129823730004775
1453 0.8210967013505732 0.7042207691362442
1454 0.772548441344638 0.013613484777270202
1455 0.6798549651120922 0.47428323215292023
1456 0.9515514881618516 0.4229168732080296
1457 0.3083982488557996 0.46770029245930167
1458 0.46605089128838273 0.45390241666509124
1459 0.75096090062147 0.9888996049333318
1460 0.7693101813214804 0.5716713095896965
1461 0.22479342136833969 0.5230385955297108
1462 0.5829505876121193 0.9330529233472808
1463 0.24522584565235594 0.05150176076015389
1464 0.21065794120627668 0.5410606410404271
1465 0.6135938180697914 0.9050604124665234
1466 0.1390945527964217 0.5151355548692309
1467 0.07977146186478623 0.5567983083309604
1468 0.6983892886329566 0.011355614703065009
1469 0.5259034356647293 0.9500958359737144
1470 0.7552884989732241 0.655154716273247
1471 0.5426951403730884 0.1935045289661893
1472 0.37874874565817696 0.971562456482979
1473 0.6151017233873871 0.48509059533706334
1474 0.5631618444031647 0.952312589439914
1475 0.0449190570185215 0.41338046763192593
1476 0.9698702909577046 0.009790377451544985
1477 0.22129317923780745 0.6496444769074015
1478 0.4806000646324794 0.9027912052770467
1479 0.889658441431833 0.8413926965127652
1480 0.33008331846692196 0.5302734104218231
1481 0.7718430502460117 0.7414299529798906
1482 0.8279711071475507 0.6481642815112967
1483 0.8941322388721196 0.7208051932941001
1484 0.06220333679691337 0.6890963932698704
1485 0.27736414236131457 0.6371221877220619
1486 0.5642925898564385 0.37992675405055387
1487 0.7182586712948082 0.21015069041409418
1488 0.9221924027467153 0.8002316155779877
1489 0.42249187570741853 0.6812098240135567
1490 0.05783601256655957 0.7507006402320027
1491 0.47506121235792464 0.3577295189296571
1492 0.8085653217830263 0.2642090300106005
1493 0.15039454106812133 0.5618607074919032
1494 0.43469145658087616 0.7125209966907502
1495 0.5966020387609449 0.7950627144288401
1496 0.008773660121021876 0.37370059470329253
1497 0.7403438227358754 0.8007292069256804
1498 0.25628539542345774 0.6386992345650353
1499 0.3322233719813795 0.6658518117624688
1500 0.27497948178259324 0.8121378724122015
1501 0.6557618544472059 0.4984171399842746
1502 0.9042060676537845 0.2557474047846494
1503 0.20374980487761607 0.11012696480447748
1504 0.5184540245736098 0.8930372545320979
1505 0.5660965108152777 0.3177194549317238
1506 0.30865536101308455 0.03948759466347862
1507 0.6431347336603297 0.4016566031962594
1508 0.8399948128305597 0.6445395775831997
1509 0.5804527353541933 0.692504901234736
1510 0.9146701670392978 0.9983486191287921
1511 0.6898312459172651 0.4400372207062587
1512 0.9336778251298233 0.2441748375363123
1513 0.5582094909373224 0.8647238574513577
1514 0.5528835009814573 0.2286396013468588
1515 0.1807454626920837 0.5998977051045093
1516 0.9970043718064778 0.6505014207370636
1517 0.4681937529258894 0.03456653895779016
1518 0.8723511435578047 0.02994521851515819
1519 0.4614989796502793 0.786237545982928
1520 0.6028325087617741 0.14678364033525892
1521 0.8013189942003834 0.08493225949135841
1522 0.6675202270014826 0.8582790856697958
1523 0.16882779910857992 0.8635264166763602
1524 0.4937893558489791 0.5127443741392055
1525 0.7858661393240528 0.7194190240225995
1526 0.7301166361414667 0.9600584127289502
1527 0.40029564244746896 0.41254175554076344
1528 0.8465099287390258 0.26696845300184824
1529 0.12980929925424656 0.20443362071021232
1530 0.46248271594098467 0.0731893123823536
1531 0.5525105201049848 0.38203204390689816
1532 0.32109908117230357 0.9909957044744424
1533 0.25124623553610126 0.6843804420334586
1534 0.4604462869085808 0.9048122194987416
1535 0.13761040920544254 0.7893082703790082
1536 0.2981732584126511 0.26923874891425603
1537 0.38824045708179733 0.0824620198777819
1538 0.30443418928498234 0.23314334899529432
1539 0.235389618685238 0.8999377974301493
1540 0.1942897747014254 0.7585178702250558
1541 0.26757771224835214 0.20789236236551611
1542 0.06446697602097107 0.8411767465456502
1543 0.01627192241228559 0.8864483115223953
1544 0.4913434369091598 0.9274651708103302
1545 0.20716838600075604 0.05808905827309585
1546 0.49676748442104857 0.90921269325025
1547 0.1805383499032871 0.8736173994158721
1548 0.33446581189871993 0.7820381991440174
1549 0.5617916402178995 0.5512461124732898
1550 0.19350250028070903 0.9506250111433204
1551 0.9269904790168539 0.24911597799081509
1552 0.5097289988908178 0.730051752121613
1553 0.8092364756385139 0.7866573890673806
1554 0.5710182439914885 0.6563206320852621
1555 0.30197270910455387 0.6804244490896229
1556 0.3117762387282417 0.5108940230194122
1557 0.8367465892857852 0.28230070877193625
1558 0.07567477085756602 0.001464725024454827
1559 0.229272933098835 0.88386905545932
1560 0.7600863578835834 0.3863397252409756
1561 0.47170424521406695 0.018858958078748156
1562 0.4130796604666658 0.5295519720876924
1563 0.9425347713080995 0.4670465294943368
1564 0.8306376504642878 0.10729617310687112
1565 0.8217446902670585 0.8023824864853099
1566 0.22050631468796733 0.500089316040278
1567 0.29154698986891714 0.4044868740765253
1568 0.9677548797636459 0.9687765928829811
1569 0.8168241523524434 0.4637934037468936
1570 0.5995179726956278 0.45851895204915105
1571 0.10967247805702818 0.7800263564469855
1572 0.05768546736878244 0.3364714667086127
1573 0.09966296630821214 0.9815791501989394
1574 0.3652627100215081 0.2243812015753861
1575 0.18186760743421992 0.010290375432382981
1576 0.6269568681205141 0.5795840509602613
1577 0.771346969600059 0.7692399975115326
1578 0.8138502194224317 0.34251726975658114
1579 0.553087155912799 0.01709175329446211
1580 0.17258757241419542 0.217202144105056
1581 0.7883413546709975 0.1165231495073753
1582 0.300556550503158 0.9317670387861289
1583 0.12266240649596494 0.7029715979404215
1584 0.44281518487818816 0.35108245888825496
1585 0.6960632898799196 0.2886021216915715
1586 0.3916617621491526 0.9372254961220244
1587 0.020931720253384967 0.19472771992638216
1588 0.8788641624321433 0.08222541923560867
1589 0.6893848827198737 0.6208930001106234
1590 0.39831952215470967 0.03232593823280716
1591 0.6516261376477682 0.02186116253021675
1592 0.5048322905235997 0.03813221997645777
1593 0.706598423890248 0.6778920968280916
1594 0.4841822864057126 0.9866482527243946
1595 0.48109459345998684 0.41350510199428836
1596 0.5199318896362101 0.7395122172543405
1597 0.6587969072042142 0.9102725194774105
1598 0.5526349914659442 0.14520633431803032
1599 0.6454377121881958 0.41867743195926166
1600 0.9531108924755313 0.30331817586726506
1601 0.36451329658351306 0.3452099065680786
1602 0.2560550461599712 0.9526995253140306
1603 0.6425069941429303 0.28053480939182074
1604 0.5386138109676166 0.24478677851842623
1605 0.9410710779605947 0.2861610471353422
1606 0.47816338182553264 0.36501388663050904
1607 0.7567117257460425 0.5150513383252755
1608 0.20268406855247556 0.8356664842646635
1609 0.7954910231389286 0.9125451821086279
1610 0.7034611668823595 0.08612430259513493
1611 0.42121340850175726 0.28693388266863373
1612 0.4970570812811157 0.20250014906740998
1613 0.5888827963468356 0.8674871879391582
1614 0.6511295410297044 0.5159038045020736
1615 0.9058953805347418 0.8245047500882682
1616 0.842664113473489 0.5400208345221329
1617 0.2797076672174237 0.7178710013633434
1618 0.28006164964270786 0.45459775623182086
1619 0.7789685772220434 0.5131785749378669
1620 0.6885472043488029 0.1524704813201363
1621 0.7248605138526862 0.9919897088399646
1622 0.23233781272113285 0.35352074447260107
1623 0.794051886129933 0.10855388123657117
1624 0.9326956960942152 0.813183511226424
1625 0.09351417532511941 0.6284084251261159
1626 0.04525498561861041 0.7785479651021426
1627 0.3592623096610531 0.38134177649033674
1628 0.3970122299954638 0.7099493553622359
1629 0.2499449852287975 0.4017773184316564
1630 0.6607846208885653 0.8199840355630811
1631 0.46014777967913856 0.3689058655400772
1632 0.7442361572365604 0.9171429413186786
1633 0.18240650682946946 0.4245122454550412
1634 0.18350301248250522 0.46175188953785107
1635 0.9352807212405018 0.3644443936276136
1636 0.936201457401281 0.6246836086058654
1637 0.7603743873295745 0.1735357833897373
1638 0.200007825235207 0.3938365321652234
1639 0.4658955365774562 0.687334101406261
1640 0.0008511081724977831 0.4919434676452875
1641 0.05447757363775352 0.23803707230154925
1642 0.44510437405874803 0.9402094504078031
1643 0.22463764107519324 0.34782746544315823
1644 0.8688121215123292 0.08171336720943356
1645 0.028203577128356305 0.4615642523383223
1646 0.8890053052375717 0.9221908086531689
1647 0.8556844723270325 0.8546130362233503
1648 0.3470652936458213 0.28370330034879876
1649 0.7772304834147814 0.7455452831921685
1650 0.27870645263583693 0.45226188658842637
1651 0.6817864940237369 0.45350235682247675
1652 0.9657460725419728 0.6262457854573535
1653 0.8000520888327958 0.48005988790989884
1654 0.1048016306761198 0.12406753639476831
1655 0.3383270884714711 0.16373151908409
1656 0.34229422445271496 0.6594613799412067
1657 0.707643686492904 0.5190565646911199
1658 0.3956609549368185 0.17294521900283621
1659 0.7428853134196803 0.44403328247182383
1660 0.45592284655048876 0.014734850415676015
1661 0.16580562463205384 0.47458449623729504
1662 0.936921716077402 0.9240941068677836
1663 0.708771727984788 0.062389784376429724
1664 0.6562947014392483 0.8685285398952329
1665 0.26368501916438614 0.47227974860182764
1666 0.34172767783560043 0.5885135339436364
1667 0.19504738930220378 0.8922926575378148
1668 0.40964439116668994 0.6049613429350249
1669 0.170787311592684 0.8540210666302323
1670 0.1365311291433573 0.14080616297430626
1671 0.1324462338937592 0.37421895919777115
1672 0.35755731919842015 0.6127905916835619
1673 0.6292854102332316 0.654100406283895
1674 0.8126999661774952 0.9227146057490969
1675 0.9394178870963054 0.5252165624373822
1676 0.019010877440902463 0.32983259031553613
1677 0.08040057811247892 0.5272604021834921
1678 0.7332156001615517 0.6268791855377824
1679 0.11177431424999651 0.975717289316631
1680 0.28905920237024985 0.9742708246952084
1681 0.2709348060640675 0.7986980734581899
1682 0.8999404598032168 0.422933875327123
1683 0.14104360839903496 0.014156708852000155
1684 0.5309627491983858 0.2735567445048144
1685 0.14179119757654812 0.9784349078151877
1686 0.8450013139737861 0.3774893842699868
1687 0.24898103666094118 0.48573385416323256
1688 0.4302135392703772 0.7878583843636204
1689 0.8807608827826072 0.5360069946905041
1690 0.36961523984331135 0.7337029537315737
1691 0.29508662150201703 0.6794663195643392
1692 0.7298174219783368 0.8333350136401252
1693 0.38570597136852736 0.7219961244049651
1694 0.5447739378738564 0.8270894877111741
1695 0.8347836614174781 0.3377305331613353
1696 0.8204574162224173 0.5148881098640754
1697 0.6812451180840119 0.42834431492662317
1698 0.9342768492908404 0.37449319208873744
1699 0.6607741180888681 0.34609873714956885
1700 0.3194485091781244 0.1599404087435271
1701 0.08906733191242067 0.769009327859302
1702 0.194703240969892 0.8577988177865473
1703 0.13753146406629924 0.5323250886928653
1704 0.4740869660087581 0.16826583088225955
1705 0.24153549646936312 0.5017769328831188
1706 0.28503101701075106 0.4401822919542756
1707 0.7531410596365773 0.34433790274391807
1708 0.015219512955426895 0.4229703159966638
1709 0.32184427140578675 0.5048303062392113
1710 0.19809707112865083 0.5730257491433839
1711 0.6446686410533592 0.9492241173136413
1712 0.4695021017652663 0.7131625055879973
1713 0.934452126069856 0.3285899464976334
1714 0.21742752584498126 0.31852448154698787
1715 0.13695189580881462 0.4381438325640694
1716 0.42692008298917095 0.947901944087481
1717 0.802391257302446 0.4786453232902259
1718 0.4995175929136352 0.8542283092554398
1719 0.2940883721685731 0.7357204543948255
1720 0.21972722112130094 0.19098030157826718
1721 0.6136993795341623 0.9975504881627761
1722 0.27217954922786425 0.804337047697168
1723 0.9253091585237583 0.15447652164249548
1724 0.11090253611930367 0.2856264736355093
1725 0.7977306536271239 0.408354787530378
1726 0.5638021346549157 0.43189622486131196
1727 0.28698223677786294 0.43792824158850596
1728 0.1315071011376343 0.7036429980649404
1729 0.39278707409821256 0.4716881533770947
1730 0.15640167568537033 0.49777242949183076
1731 0.306503983133227 0.7919116231317973
1732 0.2537141601964287 0.8831582832055637
1733 0.9317207397622363 0.5771033716461316
1734 0.42767556672468277 0.09380981516540199
1735 0.9794192361429603 0.5898497016983771
1736 0.18114573959804658 0.9738746908343
1737 0.7410716706364154 0.5075426172101543
1738 0.33196147233163475 0.9831291944728353
1739 0.7596990491885857 0.1446085977746835
1740 0.49143900208254565 0.9896411157695876
1741 0.9894595834730214 0.8079668943962707
1742 0.09531520706376895 0.38574524214617867
1743 0.9024719063005168 0.41113154238918015
1744 0.005242382259815104 0.913340727568358
1745 0.365945226262147 0.8439518036047825
1746 0.3448750545881596 0.6389986885068927
1747 0.5628615801419459 0.48002756265759394
1748 0.5726787068364898 0.3882859484384591
1749 0.3565131749625571 0.816293450959779
1750 0.9391664017344803 0.6001764207527512
1751 0.9015688491182353 0.5828204852412795
1752 0.8092956241043944 0.08113663727447995
1753 0.7362315087783048 0.016992936642016288
1754 0.5356847408040835 0.30014114644066225
1755 0.0892236041300336 0.714382454387578
1756 0.18413475931974554 0.9124328005798655
1757 0.21762389964231976 0.11138868106815814
1758 0.8060991209127553 0.7719594685729099
1759 0.5779591306540971 0.44657799488114414
1760 0.762847497609901 0.027514326361692598
1761 0.3768936395949528 0.2720304848353252
1762 0.5548628474120335 0.6742826232358047
1763 0.6783274419045184 0.026171654086298735
1764 0.5774967361649863 0.9007956920810429
1765 0.2713842561772213 0.9056310817887107
1766 0.6028509568237084 0.9829855422521034
1767 0.6655022892620559 0.23528376448215327
1768 0.6776909049712947 0.8287920020427164
1769 0.39761275492726245 0.7453413239112315
1770 0.18737798538637018 0.012005488767153683
1771 0.5485110279677174 0.7580098457377821
1772 0.6033594151711851 0.46778704216492895
1773 0.8329307400522767 0.08355076921348925
1774 0.8131967801367792 0.3984276172571011
1775 0.4540173910403569 0.9352234554647236
1776 0.4434762004439964 0.07028534306423084
1777 0.6693254624669074 0.059924249206699365
1778 0.6707164405750136 0.7394424129892394
1779 0.8721843779912786 0.7222294494277806
1780 0.41196522971243543 0.04702846625927626
1781 0.415983089798141 0.7188354669402414
1782 0.34726492194412006 0.3009859531594653
1783 0.10864433381301719 0.657818177430247
1784 0.22008208821149833 0.182570843191602
1785 0.19151002141793827 0.5839824753339902
1786 0.49860649892490605 0.8252813101601787
1787 0.7799997444956405 0.6200346535480864
1788 0.9348883138949629 0.4419138172722801
1789 0.09157579784946646 0.9048155876976168
1790 0.41623453740123795 0.1821841886463883
1791 0.9810491807211632 0.6675187120306478
1792 0.35791057991103437 0.31658769549717913
1793 0.029866536422864187 0.2014881319889431
1794 0.39134993672498974 0.6945092746506286
1795 0.6230354426025313 0.5255640328562129
1796 0.6732209994714387 0.6076055220851125
1797 0.7030411820898114 0.17170995757024354
1798 0.5657946432515023 0.3573552563981174
1799 0.7058577605318797 0.5269991465187366
1800 0.46620514010015257 0.04996051168807247
1801 0.5849061365981088 0.08889113813590488
1802 0.6367277836257018 0.9041283983048319
1803 0.06384197482940579 0.18993036166221877
1804 0.38841166550454553 0.9764738649414085
1805 0.3675396658711758 0.6163566889232376
1806 0.5318513322917879 0.775590474193271
1807 0.8130779756793336 0.5205298530364897
1808 0.990588931823119 0.9949475252227242
1809 0.09990993020849703 0.9065898725849563
1810 0.7793387816339581 0.5825970186051915
1811 0.499174316914917 0.03784117633166073
1812 0.9779958869069199 0.44522190970993036
1813 0.1654081106535683 0.7005549857972251
1814 0.9007689344715211 0.7820994945753672
1815 0.7481935710954297 0.18412045997080717
1816 0.005102915544460962 0.9066139818527462
1817 0.03717338058325925 0.8633081930269748
1818 0.5569891742207687 0.6196669773089633
1819 0.49831046639939613 0.30085855153020136
1820 0.4903300602352172 0.20764603220041478
1821 0.5443007237061311 0.307279488242324
1822 0.629283895783222 0.41946087196211346
1823 0.8483727148834534 0.054280954952657834
1824 0.4581968512859047 0.008981173636578577
1825 0.6213003323190823 0.08731761608888877
1826 0.44576962497474737 0.940606747730988
1827 0.8826180172848421 0.8497599974839012
1828 0.7973975395165525 0.6919179219240008
1829 0.6562141161594144 0.4723059204948056
1830 0.5316923554493036 0.16765891589011384
1831 0.3663301788431318 0.49200432953901363
1832 0.744123174928355 0.5392547194534487
1833 0.1713780405417804 0.606884427177201
1834 0.8205456060649216 0.8303552183592855
1835 0.9346466720812446 0.022581951935213618
1836 0.3249425518865644 0.24364231441290662
1837 0.03944546197840704 0.7680258054379292
1838 0.9177170115889834 0.6081417173732422
1839 0.1000099088369103 0.5759850218753041
1840 0.6807645997829993 0.27346071996624843
1841 0.4165326046395711 0.32836083310176667
1842 0.7818965479785005 0.8622779779154801
1843 0.5711504476576906 0.650019216020236
1844 0.9601823873192463 0.1909024074876995
1845 0.4557248374064572 0.6855458129464125
1846 0.2673731945549003 0.08915085569258574
1847 0.4747591901197399 0.3036075925550409
1848 0.8879928733790607 0.9828444181603514
1849 0.8430871482232641 0.8371103257863131
1850 0.8485434579865403 0.6850015320015926
1851 0.9434898810128762 0.7660755276501808
1852 0.47748439316232794 0.5021710424626906
1853 0.8235230758705382 0.41562281431875514
1854 0.8344863521256893 0.1791623324584365
1855 0.7791732692567651 0.09198593803710775
1856 0.8879088917711939 0.24454074436187712
1857 0.26958691529425693 0.18736304293530748
1858 0.7529857746019575 0.7463920666145156
1859 0.6628149413638564 0.07541756265821897
1860 0.39934380855249973 0.8443813237518538
1861 0.38542361881628506 0.9334136769546512
1862 0.9797899324702233 0.9315258527330739
1863 0.8880625688982862 0.8668569732409154
1864 0.8234414265000362 0.6008165742495845
1865 0.0799479669870663 0.34944997408624257
1866 0.6740887545891446 0.7943049380849984
1867 0.6588538040260288 0.11288218290524177
1868 0.5291561489131399 0.4815428506700563
1869 0.43077030139811034 0.939736322010356
1870 0.6660355273644127 0.6813729128682937
1871 0.9996305301276077 0.09991640572054383
1872 0.9148548991587891 0.4829949987477422
1873 0.047100924367638575 0.45037225384488444
1874 0.6279381140015062 0.21114230147262592
1875 0.7156302712211419 0.8504634606172794
1876 0.16181756911707834 0.5499101232124183
1877 0.5502170239102673 0.3824164994801117
1878 0.5521646563217975 0.8317551469580504
1879 0.7944463037233004 0.16222371994425222
1880 0.5920798115998064 0.10726984807945261
1881 0.49432550943306264 0.7415093387111376
1882 0.8529695937534549 0.13978920517777438
1883 0.5387979790079142 0.29466265593882657
1884 0.29047039770921257 0.752319922822892
1885 0.4957489336921822 0.09454173385134468
1886 0.182980238763212 0.5672902792084995
1887 0.9344230862013353 0.9330870613049788
1888 0.019638414677155547 0.3434992274923486
1889 0.09818548878989619 0.6015799250612515
1890 0.7091581385458585 0.7715070067451565
1891 0.25209548470620935 0.6838522173829567
1892 0.6337058253983037 0.27832610536883784
1893 0.10498115264034069 0.663674322940568
1894 0.41874721135552473 0.7576691974257989
1895 0.8454322168570608 0.8856033495029147
1896 0.7615967195565826 0.37496129869669137
1897 0.5121142289815208 0.40930085414165485
1898 0.6109716049904645 0.7495243762050365
1899 0.1478523397671203 0.5389381036434274
1900 0.10468670503707234 0.3015820299744064
1901 0.18125309481632568 0.57801365938342
1902 0.7220997389186308 0.374340311412951
1903 0.25133029856040934 0.6534022403277974
1904 0.722310965427336 0.834819865960952
1905 0.59587592099872 0.8607403788314858
1906 0.8758805197626865 0.30649924290135966
1907 0.9274052475223936 0.39640281339214334
1908 0.7032188836149008 0.36613498012663026
1909 0.3998577845649005 0.219066648735749
1910 0.5097142636939765 0.9976668292065666
1911 0.6110199122335036 0.06868599675950693
1912 0.27043402040603914 0.2448598662268201
1913 0.3456381299536908 0.5210409142219296
1914 0.4136989748426997 0.8755825305691151
1915 0.1952013233401818 0.019490553265045008
1916 0.05959324626272822 0.8556330007145438
1917 0.8564624321059343 0.9323285314712108
1918 0.248149235558772 0.8967040020403638
1919 0.7899832544015556 0.7698738531298833
1920 0.6002531792394474 0.5497476579021832
1921 0.8716989532209262 0.655050343928563
1922 0.7685261577218919 0.4077754626628617
1923 0.7461902299169065 0.18309042575838663
1924 0.04011781588362029 0.254458217550932
1925 0.6136802972781799 0.6617927792329308
1926 0.007219404833047505 0.47094063188383817
1927 0.7907801614171824 0.17858971660573686
1928 0.09399382314982707 0.2687526511966859
1929 0.09256033676523867 0.6445847461786419
1930 0.08783066884322088 0.4526089022305875
1931 0.08729920438086025 0.43044681093065285
1932 0.8963051525277115 0.9760590570005927
1933 0.937311362811223 0.7071520861876869
1934 0.1678727450374764 0.4728467351635355
1935 0.7797735158085298 0.07197811474027271
1936 0.4640695694349448 0.7857341290407999
1937 0.47439090129692674 0.07818972911455879
1938 0.9692406651002071 0.3526705596448183
1939 0.14236146727845644 0.406837478340926
1940 0.5340924069887097 0.5659995509855617
1941 0.14145474680584502 0.2635083678565172
1942 0.5771328285381974 0.6913763361749988
1943 0.5566079473201251 0.7387920531332781
1944 0.30986177731167996 0.8090862470793181
1945 0.16264236961706635 0.8255696289501137
1946 0.9253409367473578 0.616647627135164
1947 0.9691622800424515 0.7300467172132605
1948 0.010576603072213975 0.18004052567781004
1949 0.008946708137249737 0.5440566082862623
1950 0.9092897416655464 0.2828784465601145
1951 0.992799985556368 0.3409716151664307
1952 0.3343657717636007 0.38183781374205905
1953 0.6421805546787503 0.8292141823049128
1954 0.4630061234245707 0.3504142674413685
1955 0.15388874853963652 0.46261599822115085
1956 0.32219800804745335 0.18039144496882453
1957 0.6953264416644571 0.5438371870571362
1958 0.8494308410849887 0.6556182789885081
1959 0.5724575454014413 0.18750369571179815
1960 0.3759573419378266 0.5096551275506288
1961 0.9387479098051282 0.6831194982214923
1962 0.3618475919822439 0.30525617639882774
1963 0.22061333114829762 0.1862125039774356
1964 0.40537073196317996 0.13125027153465452
1965 0.8110526883745361 0.024581855470267144
1966 0.5993253938846557 0.639591257401286
1967 0.24744462877811102 0.18405410695129942
1968 0.9819084377001954 0.08686109954105181
1969 0.0334870096096187 0.6765735868533261
1970 0.006891365151594275 0.2887698486479179
1971 0.9587782451717213 0.4194297985672659
1972 0.31427421069551753 0.9240354728349708
1973 0.5084860479918992 0.19992013057468727
1974 0.8902112173676702 0.01136233561520672
1975 0.16168708177049518 0.6133083463511002
1976 0.10332016558726742 0.24311413525227732
1977 0.8154225854814181 0.7635120742795521
1978 0.10786267181699905 0.42020551262688566
1979 0.19240066225408736 0.781860167288804
1980 0.7704090749740877 0.6821924707180254
1981 0.8908744351571773 0.3178480100801504
1982 0.6416413964328621 0.7546438581989381
1983 0.10911055564444372 0.06683227838368178
1984 0.5624507345848119 0.15989382923007722
1985 0.6698482353784019 0.01349274584103799
1986 0.8038356160882488 0.4942933308444899
1987 0.8813177576165727 0.14506736407948717
1988 0.9795049039645701 0.7454503285225627
1989 0.2662188779167157 0.3334175032962188
1990 0.7247944023309832 0.8661285887898399
1991 0.48405729417652976 0.46484315057715697
1992 0.9304390870010673 0.46457232336177035
1993 0.5366125987829578 0.21211047775418967
1994 0.8609623662795431 0.9919605733600025
1995 0.17099946276110523 0.7901323301097575
1996 0.10552734314303924 0.1925178383601831
1997 0.8100160705725096 0.7993824837740274
1998 0.1655354157604556 0.10213533193337498
1999 0.5478706824694131 0.42731708102807675
2000 0.9915390573813524 0.04428712140740787
2001 0.3961559569938884 0.366507685611268
DEMAND_SECTION
1 0
2 5
3 9
4 6
5 7
6 9
7 4
8 8
9 6
10 9
11 4
12 5
13 3
14 8
15 1
16 7
17 7
18 8
19 3
20 6
21 2
22 1
23 7
24 6
25 9
26 2
27 5
28 7
29 7
30 1
31 6
32 4
33 6
34 9
35 4
36 1
37 8
38 7
39 8
40 3
41 8
42 4
43 2
44 3
45 6
46 7
47 6
48 6
49 4
50 2
51 9
52 4
53 9
54 4
55 9
56 8
57 1
58 7
59 5
60 2
61 5
62 6
63 6
64 8
65 7
66 5
67 9
68 1
69 2
70 1
71 2
72 5
73 4
74 4
75 2
76 9
77 1
78 4
79 7
80 6
81 7
82 1
83 2
84 5
85 6
86 4
87 5
88 1
89 5
90 3
91 9
92 2
93 4
94 3
95 4
96 4
97 3
98 6
99 4
100 8
101 9
102 2
103 4
104 1
105 5
106 4
107 1
108 5
109 7
110 8
111 8
112 6
113 1
114 5
115 3
116 7
117 1
118 1
119 3
120 7
121 2
122 4
123 8
124 7
125 7
126 4
127 9
128 1
129 3
130 1
131 1
132 6
133 6
134 3
135 1
136 8
137 5
138 2
139 8
140 6
141 6
142 8
143 6
144 4
145 1
146 8
147 4
148 5
149 1
150 2
151 8
152 6
153 2
154 7
155 9
156 1
157 2
158 7
159 9
160 3
161 4
162 6
163 1
164 7
165 6
166 3
167 1
168 7
169 7
170 7
171 2
172 1
173 1
174 3
175 6
176 8
177 5
178 2
179 9
180 7
181 4
182 3
183 7
184 2
185 4
186 6
187 6
188 9
189 4
190 9
191 2
192 3
193 8
194 7
195 6
196 3
197 5
198 8
199 3
200 1
201 2
202 3
203 3
204 7
205 9
206 8
207 1
208 1
209 9
210 2
211 7
212 1
213 4
214 2
215 6
216 4
217 1
218 1
219 4
220 5
221 2
222 1
223 5
224 6
225 1
226 2
227 5
228 7
229 7
230 1
231 2
232 9
233 6
234 9
235 3
236 1
237 9
238 4
239 9
240 4
241 7
242 3
243 7
244 4
245 6
246 9
247 8
248 2
249 8
250 7
251 5
252 7
253 8
254 1
255 9
256 4
257 8
258 7
259 7
260 8
261 1
262 3
263 6
264 9
265 5
266 2
267 5
268 5
269 2
270 5
271 8
272 5
273 4
274 3
275 2
276 5
277 3
278 4
279 4
280 7
281 5
282 7
283 1
284 3
285 6
286 4
287 2
288 9
289 2
290 4
291 7
292 2
293 4
294 6
295 8
296 1
297 5
298 4
299 2
300 7
301 3
302 6
303 4
304 9
305 1
306 3
307 9
308 6
309 5
310 9
311 2
312 8
313 7
314 2
315 3
316 6
317 4
318 4
319 3
320 8
321 9
322 1
323 6
324 2
325 4
326 3
327 7
328 9
329 6
330 2
331 4
332 9
333 7
334 5
335 8
336 3
337 5
338 1
339 3
340 4
341 5
342 1
343 6
344 8
345 3
346 8
347 7
348 8
349 6
350 3
351 4
352 1
353 5
354 1
355 8
356 5
357 6
358 6
359 9
360 8
361 1
362 2
363 7
364 4
365 1
366 4
367 1
368 2
369 7
370 7
371 1
372 2
373 3
374 9
375 9
376 4
377 9
378 3
379 3
380 7
381 6
382 4
383 1
384 1
385 5
386 5
387 1
388 3
389 4
390 9
391 1
392 2
393 1
394 3
395 1
396 9
397 2
398 6
399 4
400 6
401 5
402 8
403 4
404 6
405 8
406 5
407 3
408 1
409 3
410 9
411 9
412 2
413 8
414 2
415 9
416 4
417 1
418 1
419 9
420 1
421 5
422 6
423 7
424 9
425 6
426 3
427 8
428 1
429 9
430 2
431 5
432 4
433 4
434 7
435 5
436 3
437 4
438 2
439 3
440 3
441 1
442 5
443 4
444 7
445 3
446 2
447 4
448 4
449 6
450 7
451 1
452 1
453 3
454 6
455 7
456 3
457 8
458 4
459 3
460 9
461 1
462 6
463 6
464 3
465 6
466 4
467 4
468 7
469 3
470 6
471 3
472 9
473 2
474 1
475 5
476 1
477 1
478 1
479 8
480 9
481 4
482 2
483 9
484 4
485 2
486 7
487 2
488 3
489 3
490 8
491 7
492 1
493 9
494 7
495 4
496 7
497 7
498 1
499 4
500 3
501 2
502 1
503 1
504 1
505 6
506 9
507 9
508 2
509 3
510 9
511 8
512 1
513 6
514 1
515 9
516 9
517 4
518 8
519 9
520 7
521 5
522 9
523 7
524 6
525 9
526 7
527 1
528 9
529 5
530 6
531 2
532 8
533 3
534 3
535 4
536 2
537 9
538 3
539 6
540 6
541 2
542 1
543 8
544 5
545 4
546 7
547 2
548 2
549 2
550 4
551 6
552 7
553 4
554 2
555 4
556 6
557 6
558 8
559 7
560 1
561 5
562 4
563 6
564 5
565 4
566 7
567 6
568 2
569 9
570 9
571 9
572 1
573 9
574 1
575 7
576 8
577 8
578 6
579 2
580 1
581 2
582 6
583 1
584 2
585 9
586 8
587 3
588 4
589 5
590 7
591 3
592 9
593 4
594 4
595 2
596 4
597 4
598 6
599 7
600 3
601 6
602 1
603 9
604 6
605 3
606 5
607 2
608 8
609 7
610 8
611 9
612 5
613 1
614 5
615 2
616 9
617 1
618 8
619 5
620 1
621 3
622 3
623 2
624 5
625 4
626 6
627 1
628 4
629 3
630 9
631 2
632 3
633 3
634 4
635 3
636 7
637 3
638 6
639 6
640 8
641 9
642 2
643 8
644 9
645 2
646 9
647 3
648 1
649 5
650 4
651 9
652 4
653 1
654 5
655 6
656 3
657 3
658 1
659 8
660 5
661 1
662 6
663 4
664 6
665 7
666 7
667 5
668 4
669 9
670 5
671 4
672 5
673 5
674 8
675 2
676 5
677 9
678 6
679 7
680 2
681 6
682 3
683 6
684 5
685 5
686 9
687 3
688 4
689 7
690 4
691 2
692 9
693 7
694 9
695 2
696 2
697 3
698 4
699 5
700 4
701 3
702 2
703 8
704 7
705 2
706 2
707 6
708 3
709 1
710 5
711 5
712 5
713 6
714 8
715 8
716 2
717 5
718 3
719 8
720 9
721 7
722 2
723 1
724 3
725 9
726 3
727 1
728 5
729 3
730 7
731 9
732 7
733 2
734 3
735 2
736 3
737 3
738 9
739 6
740 9
741 5
742 7
743 9
744 7
745 5
746 4
747 3
748 3
749 7
750 7
751 2
752 6
753 9
754 3
755 6
756 1
757 9
758 2
759 7
760 3
761 4
762 8
763 8
764 3
765 5
766 5
767 6
768 2
769 2
770 8
771 5
772 7
773 2
774 2
775 4
776 7
777 8
778 8
779 2
780 4
781 5
782 4
783 6
784 5
785 6
786 3
787 7
788 1
789 2
790 8
791 1
792 1
793 7
794 9
795 3
796 2
797 8
798 3
799 4
800 2
801 1
802 2
803 1
804 5
805 3
806 7
807 3
808 6
809 3
810 9
811 5
812 4
813 7
814 5
815 7
816 2
817 3
818 7
819 9
820 7
821 8
822 1
823 7
824 5
825 3
826 4
827 7
828 9
829 1
830 1
831 2
832 7
833 6
834 2
835 4
836 1
837 5
838 1
839 1
840 1
841 5
842 9
843 4
844 8
845 4
846 5
847 4
848 6
849 6
850 6
851 9
852 3
853 5
854 9
855 2
856 7
857 1
858 7
859 7
860 5
861 1
862 7
863 8
864 9
865 4
866 1
867 7
868 6
869 7
870 7
871 4
872 7
873 3
874 7
875 1
876 2
877 1
878 7
879 4
880 1
881 7
882 1
883 8
884 4
885 3
886 5
887 2
888 5
889 3
890 9
891 6
892 6
893 6
894 1
895 6
896 7
897 8
898 8
899 3
900 9
901 3
902 7
903 2
904 3
905 3
906 8
907 9
908 2
909 4
910 7
911 3
912 8
913 1
914 6
915 1
916 3
917 7
918 6
919 9
920 6
921 5
922 8
923 8
924 1
925 9
926 2
927 7
928 6
929 1
930 4
931 7
932 5
933 6
934 5
935 5
936 5
937 4
938 3
939 3
940 2
941 3
942 3
943 8
944 6
945 1
946 2
947 3
948 1
949 7
950 3
951 5
952 8
953 9
954 2
955 5
956 2
957 2
958 4
959 1
960 2
961 1
962 1
963 7
964 1
965 9
966 5
967 9
968 1
969 1
970 9
971 8
972 4
973 8
974 9
975 6
976 4
977 1
978 2
979 7
980 2
981 4
982 9
983 1
984 4
985 4
986 8
987 2
988 9
989 8
990 9
991 6
992 8
993 3
994 6
995 7
996 2
997 2
998 4
999 2
1000 5
1001 6
1002 7
1003 7
1004 2
1005 7
1006 1
1007 7
1008 6
1009 4
1010 6
1011 5
1012 4
1013 6
1014 1
1015 3
1016 6
1017 2
1018 9
1019 6
1020 1
1021 5
1022 7
1023 9
1024 7
1025 6
1026 7
1027 5
1028 9
1029 3
1030 5
1031 6
1032 3
1033 3
1034 8
1035 9
1036 4
1037 9
1038 9
1039 3
1040 4
1041 3
1042 7
1043 7
1044 9
1045 7
1046 6
1047 1
1048 5
1049 5
1050 8
1051 5
1052 1
1053 6
1054 3
1055 9
1056 7
1057 2
1058 8
1059 3
1060 7
1061 5
1062 4
1063 2
1064 3
1065 3
1066 5
1067 4
1068 1
1069 8
1070 5
1071 5
1072 4
1073 2
1074 3
1075 6
1076 1
1077 4
1078 5
1079 1
1080 7
1081 4
1082 1
1083 5
1084 5
1085 8
1086 8
1087 1
1088 3
1089 3
1090 8
1091 9
1092 7
1093 2
1094 8
1095 3
1096 5
1097 9
1098 5
1099 4
1100 5
1101 2
1102 5
1103 9
1104 6
1105 3
1106 9
1107 5
1108 8
1109 7
1110 7
1111 6
1112 5
1113 7
1114 8
1115 3
1116 6
1117 3
1118 2
1119 8
1120 7
1121 1
1122 4
1123 4
1124 2
1125 7
1126 1
1127 4
1128 7
1129 5
1130 7
1131 2
1132 4
1133 4
1134 7
1135 5
1136 7
1137 4
1138 5
1139 5
1140 5
1141 3
1142 6
1143 7
1144 4
1145 3
1146 9
1147 3
1148 9
1149 7
1150 9
1151 5
1152 1
1153 3
1154 1
1155 5
1156 7
1157 6
1158 8
1159 6
1160 7
1161 9
1162 2
1163 6
1164 4
1165 6
1166 6
1167 3
1168 6
1169 6
1170 7
1171 3
1172 9
1173 3
1174 9
1175 3
1176 3
1177 8
1178 6
1179 3
1180 1
1181 5
1182 8
1183 8
1184 9
1185 4
1186 7
1187 6
1188 6
1189 9
1190 2
1191 3
1192 2
1193 2
1194 9
1195 7
1196 4
1197 1
1198 6
1199 4
1200 1
1201 7
1202 4
1203 5
1204 5
1205 8
1206 5
1207 7
1208 8
1209 4
1210 5
1211 9
1212 3
1213 6
1214 1
1215 6
1216 9
1217 7
1218 8
1219 7
1220 9
1221 5
1222 2
1223 8
1224 4
1225 7
1226 9
1227 7
1228 1
1229 2
1230 6
1231 1
1232 9
1233 2
1234 6
1235 6
1236 6
1237 3
1238 5
1239 5
1240 9
1241 3
1242 5
1243 9
1244 2
1245 5
1246 2
1247 2
1248 7
1249 4
1250 9
1251 8
1252 8
1253 1
1254 3
1255 5
1256 8
1257 4
1258 6
1259 5
1260 7
1261 8
1262 8
1263 9
1264 7
1265 9
1266 7
1267 1
1268 9
1269 1
1270 6
1271 1
1272 8
1273 3
1274 7
1275 6
1276 2
1277 5
1278 9
1279 4
1280 1
1281 3
1282 8
1283 9
1284 8
1285 6
1286 9
1287 1
1288 9
1289 8
1290 8
1291 9
1292 1
1293 1
1294 5
1295 9
1296 1
1297 2
1298 1
1299 4
1300 4
1301 5
1302 7
1303 8
1304 3
1305 1
1306 4
1307 6
1308 2
1309 1
1310 1
1311 9
1312 2
1313 5
1314 5
1315 2
1316 9
1317 9
1318 8
1319 7
1320 6
1321 5
1322 2
1323 2
1324 4
1325 6
1326 1
1327 1
1328 5
1329 1
1330 5
1331 5
1332 3
1333 7
1334 4
1335 4
1336 4
1337 5
1338 7
1339 4
1340 8
1341 7
1342 9
1343 9
1344 4
1345 6
1346 2
1347 4
1348 7
1349 8
1350 5
1351 7
1352 8
1353 5
1354 9
1355 4
1356 4
1357 2
1358 1
1359 8
1360 2
1361 5
1362 1
1363 9
1364 3
1365 2
1366 6
1367 6
1368 2
1369 9
1370 7
1371 1
1372 9
1373 4
1374 6
1375 1
1376 1
1377 3
1378 2
1379 9
1380 1
1381 7
1382 9
1383 9
1384 4
1385 7
1386 6
1387 1
1388 4
1389 8
1390 9
1391 5
1392 4
1393 8
1394 6
1395 7
1396 4
1397 4
1398 5
1399 5
1400 6
1401 3
1402 1
1403 3
1404 2
1405 8
1406 2
1407 6
1408 2
1409 5
1410 2
1411 2
1412 6
1413 4
1414 8
1415 9
1416 9
1417 5
1418 6
1419 7
1420 5
1421 5
1422 5
1423 5
1424 2
1425 5
1426 5
1427 2
1428 3
1429 5
1430 4
1431 1
1432 8
1433 7
1434 1
1435 3
1436 3
1437 3
1438 1
1439 9
1440 6
1441 2
1442 4
1443 8
1444 1
1445 2
1446 8
1447 1
1448 8
1449 2
1450 6
1451 8
1452 3
1453 4
1454 6
1455 8
1456 4
1457 1
1458 7
1459 6
1460 7
1461 4
1462 5
1463 1
1464 4
1465 2
1466 6
1467 8
1468 9
1469 2
1470 5
1471 5
1472 1
1473 5
1474 5
1475 6
1476 6
1477 5
1478 1
1479 4
1480 2
1481 4
1482 2
1483 9
1484 6
1485 8
1486 7
1487 4
1488 3
1489 5
1490 9
1491 7
1492 6
1493 3
1494 4
1495 8
1496 4
1497 1
1498 4
1499 8
1500 8
1501 6
1502 8
1503 4
1504 7
1505 6
1506 5
1507 8
1508 6
1509 4
1510 5
1511 9
1512 8
1513 4
1514 7
1515 9
1516 3
1517 8
1518 5
1519 8
1520 3
1521 7
1522 9
1523 3
1524 1
1525 6
1526 5
1527 8
1528 2
1529 1
1530 7
1531 8
1532 7
1533 5
1534 3
1535 4
1536 6
1537 3
1538 9
1539 3
1540 9
1541 5
1542 9
1543 9
1544 5
1545 6
1546 3
1547 2
1548 2
1549 1
1550 3
1551 3
1552 9
1553 1
1554 3
1555 8
1556 6
1557 7
1558 5
1559 6
1560 4
1561 5
1562 5
1563 5
1564 1
1565 6
1566 5
1567 1
1568 7
1569 8
1570 7
1571 4
1572 3
1573 6
1574 2
1575 1
1576 4
1577 6
1578 8
1579 9
1580 1
1581 9
1582 6
1583 1
1584 4
1585 9
1586 7
1587 1
1588 9
1589 7
1590 3
1591 3
1592 9
1593 1
1594 6
1595 2
1596 7
1597 7
1598 4
1599 7
1600 9
1601 8
1602 2
1603 7
1604 5
1605 9
1606 7
1607 3
1608 7
1609 5
1610 7
1611 8
1612 8
1613 4
1614 7
1615 6
1616 1
1617 7
1618 2
1619 5
1620 2
1621 8
1622 5
1623 6
1624 6
1625 8
1626 2
1627 6
1628 6
1629 2
1630 2
1631 2
1632 7
1633 3
1634 9
1635 9
1636 5
1637 9
1638 8
1639 7
1640 7
1641 8
1642 4
1643 5
1644 8
1645 5
1646 1
1647 4
1648 5
1649 7
1650 9
1651 3
1652 9
1653 5
1654 4
1655 9
1656 3
1657 7
1658 3
1659 8
1660 6
1661 9
1662 2
1663 3
1664 4
1665 3
1666 4
1667 6
1668 7
1669 8
1670 3
1671 1
1672 3
1673 6
1674 6
1675 5
1676 5
1677 8
1678 4
1679 8
1680 5
1681 8
1682 7
1683 9
1684 9
1685 8
1686 6
1687 4
1688 8
1689 8
1690 2
1691 4
1692 3
1693 3
1694 4
1695 5
1696 8
1697 6
1698 8
1699 7
1700 8
1701 9
1702 6
1703 7
1704 4
1705 5
1706 6
1707 2
1708 4
1709 4
1710 8
1711 6
1712 6
1713 3
1714 8
1715 8
1716 2
1717 6
1718 4
1719 2
1720 8
1721 9
1722 2
1723 3
1724 6
1725 4
1726 1
1727 5
1728 4
1729 4
1730 6
1731 3
1732 3
1733 4
1734 5
1735 9
1736 5
1737 3
1738 6
1739 1
1740 9
1741 1
1742 4
1743 7
1744 5
1745 7
1746 5
1747 6
1748 4
1749 8
1750 9
1751 5
1752 6
1753 1
1754 1
1755 8
1756 5
1757 3
1758 8
1759 2
1760 2
1761 2
1762 3
1763 3
1764 6
1765 5
1766 1
1767 1
1768 9
1769 1
1770 7
1771 7
1772 4
1773 1
1774 4
1775 4
1776 4
1777 9
1778 5
1779 4
1780 3
1781 1
1782 4
1783 4
1784 4
1785 2
1786 8
1787 6
1788 4
1789 8
1790 5
1791 7
1792 7
1793 8
1794 7
1795 1
1796 3
1797 9
1798 8
1799 3
1800 8
1801 9
1802 3
1803 9
1804 4
1805 4
1806 7
1807 4
1808 2
1809 3
1810 1
1811 4
1812 7
1813 1
1814 8
1815 1
1816 6
1817 1
1818 5
1819 4
1820 9
1821 3
1822 8
1823 8
1824 4
1825 1
1826 8
1827 2
1828 7
1829 8
1830 4
1831 7
1832 8
1833 9
1834 3
1835 2
1836 1
1837 3
1838 2
1839 7
1840 9
1841 7
1842 3
1843 5
1844 9
1845 2
1846 3
1847 3
1848 9
1849 7
1850 7
1851 2
1852 1
1853 1
1854 3
1855 5
1856 9
1857 2
1858 3
1859 2
1860 2
1861 9
1862 1
1863 8
1864 5
1865 9
1866 9
1867 9
1868 7
1869 3
1870 2
1871 5
1872 3
1873 8
1874 8
1875 3
1876 9
1877 7
1878 9
1879 9
1880 5
1881 6
1882 7
1883 4
1884 5
1885 5
1886 2
1887 1
1888 8
1889 6
1890 4
1891 8
1892 2
1893 5
1894 8
1895 4
1896 8
1897 9
1898 5
1899 1
1900 3
1901 1
1902 8
1903 4
1904 7
1905 1
1906 8
1907 8
1908 6
1909 6
1910 9
1911 3
1912 6
1913 3
1914 5
1915 9
1916 7
1917 1
1918 3
1919 3
1920 1
1921 7
1922 9
1923 6
1924 6
1925 7
1926 5
1927 5
1928 4
1929 6
1930 2
1931 1
1932 6
1933 4
1934 4
1935 7
1936 8
1937 9
1938 7
1939 7
1940 1
1941 3
1942 1
1943 1
1944 6
1945 4
1946 5
1947 6
1948 1
1949 9
1950 8
1951 1
1952 4
1953 8
1954 4
1955 6
1956 4
1957 6
1958 2
1959 8
1960 4
1961 1
1962 6
1963 3
1964 2
1965 9
1966 7
1967 6
1968 8
1969 2
1970 5
1971 8
1972 5
1973 2
1974 4
1975 3
1976 3
1977 3
1978 2
1979 6
1980 5
1981 4
1982 6
1983 4
1984 2
1985 6
1986 7
1987 6
1988 2
1989 7
1990 5
1991 9
1992 9
1993 4
1994 2
1995 3
1996 2
1997 5
1998 3
1999 9
2000 4
2001 8
DEPOT_SECTION
1
-1
EOF
