NAME : gen2000_000
COMMENT : uniform customers, demands 1..9, generated by bench/make_tuning_set.py
TYPE : CVRP
DIMENSION : 2001
EDGE_WEIGHT_TYPE : EUC_2D
CAPACITY : 300
NODE_COORD_SECTION
1 0.6732624624168134 0.5154570713386459
2 0.3492954705057082 0.5592520484926411
3 0.5066690822341151 0.8034605767045544
4 0.6874170752423651 0.7316021305202502
5 0.8274499770171869 0.14073459848977077
6 0.9124063393266211 0.060877037469725725
7 0.7402036153116058 0.6967820723519943
8 0.8980922762854353 0.14027123788997586
9 0.37029776669700387 0.20721673896343917
10 0.049051613231866575 0.7704865202823095
11 0.25455981992987897 0.8678019381101444
12 0.6999341986918737 0.09970494391680473
13 0.8827324206228488 0.2678338206480283
14 0.7637770480595287 0.9078385358194624
15 0.04591429451157614 0.4239630381505244
16 0.43812114568435123 0.7155368744478388
17 0.03473025286391207 0.3005488764831603
18 0.3681842000668156 0.7024169343977403
19 0.24468264969984865 0.12042740324114476
20 0.8065487969687918 0.6989600472623508
21 0.8861737167334156 0.03281260536734332
22 0.2214875244909965 0.7624187360986172
23 0.1381147275168636 0.5971134172269855
24 0.24824539725245476 0.9976966891403424
25 0.8031431057330454 0.3147288745564474
26 0.039524694768861224 0.5175230834826667
27 0.6101560350808248 0.5228839151759277
28 0.10642217005378718 0.3598666835210814
29 0.7683223574669865 0.6677347139569698
30 0.8479499617953115 0.9521267418934471
31 0.19621990018827917 0.9079779301284496
32 0.1537307266121517 0.2029285057771706
33 0.21369320747353926 0.27677556397666536
34 0.09550813954901693 0.24062088832381712
35 0.2507163853701634 0.5211451022807346
36 0.768159814460914 0.8942676937289853
37 0.4028205633195058 0.2611700521272835
38 0.0761741982371773 0.9320707652434769
39 0.17511747978686598 0.109646094660935
40 0.8535389918837182 0.9014703132618047
41 0.12181458356406971 0.7269345258662927
42 0.1562951754711308 0.6955491122582081
43 0.8066944361992381 0.5660467998428645
44 0.7521949536336848 0.1989236120855341
45 0.6062380089507922 0.6870052758956974
46 0.7679364867353176 0.7302856046524382
47 0.9564369423634377 0.29002395814279447
48 0.37118032135112455 0.876247722416799
49 0.5217365559592911 0.7190084482687934
50 0.8483710207396059 0.7669569867540708
51 0.0895588564294707 0.405081131385849
52 0.7411263723856348 0.622598720631604
53 0.1279660547148409 0.8099013791528068
54 0.031089147665329886 0.8120981601100565
55 0.8179911629925279 0.45643443930097405
56 0.6907884769707348 0.8710735269679638
57 0.3673014625556259 0.3823683043503482
58 0.1373829496268838 0.4420621242575904
59 0.8882714006941701 0.9386371450935191
60 0.7221816082905581 0.5749385464088066
61 0.9894133675322945 0.9558895636819533
62 0.8072866300420352 0.6487338010374929
63 0.5263906826017014 0.3034093620037681
64 0.3594417853165415 0.4911628697150675
65 0.04243772584156391 0.9168443498944752
66 0.5715333328690906 0.6145828168083134
67 0.46804041605337976 0.7870022506210527
68 0.9448857969164062 0.2263054510054221
69 0.4838772968136016 0.40356722471363726
70 0.4706956325830558 0.18310341409049002
71 0.244936845100872 0.8673493465842245
72 0.5544208272524371 0.21608285458771548
73 0.6963914229025994 0.9337985574040422
74 0.5832353313937733 0.8219095830238374
75 0.4410122254638361 0.24230433965577836
76 0.22094363414038565 0.8723416807934525
77 0.5466423593165476 0.0856957470553491
78 0.6720339806139892 0.4530510723873432
79 0.41831453619526104 0.8985677497946349
80 0.7275322523226546 0.5042956418073309
81 0.715606927594853 0.05624323488104077
82 0.9880027059403889 0.4982896807129348
83 0.11658357786293672 0.991509083899809
84 0.2184711055266091 0.006783173245597851
85 0.3133157207331688 0.18572619308949678
86 0.2693476261816745 0.639784730054865
87 0.0032127335626277453 0.05087520277010049
88 0.20778239159190615 0.6680012594931076
89 0.8732156956722424 0.7427047465974322
90 0.48920445227104925 0.08955580694024523
91 0.8229991752433091 0.5787930710791294
92 0.11539781912463454 0.15051093813637761
93 0.379916147039808 0.15469917931328026
94 0.6043860278001114 0.359540544514963
95 0.36543445618655257 0.704949652255444
96 0.7634028663450374 0.9055064643877813
97 0.15700840767789048 0.27089057008414585
98 0.21754701263342002 0.2451417309840963
99 0.8636050432643121 0.6774979181627221
100 0.6545688082273452 0.5552269272444468
101 0.9272520946419237 0.7892598134897788
102 0.7789424584402344 0.8379551584823319
103 0.889261346223474 0.5426747850693098
104 0.2568097184640459 0.453783398618407
105 0.38980908391655045 0.5998586856135297
106 0.8060545533193486 0.36734173648915913
107 0.2834656845098632 0.31073848783428215
108 0.37036926336577536 0.9889123508515658
109 0.22085482628262854 0.006642159769115419
110 0.6342293400478239 0.7932209097523145
111 0.5229717422171032 0.4424911660288058
112 0.6347777458760235 0.6238664793948325
113 0.9706293206855888 0.9604719504541406
114 0.8921030809749534 0.5119481207950263
115 0.12443798742897083 0.02639078488264679
116 0.009697596623901128 0.05561704431087544
117 0.16134146385522952 0.3167964513460687
118 0.9031791258811951 0.15730094117968418
119 0.9707713691402268 0.44458382289487486
120 0.941143935784606 0.9921244797769588
121 0.09552051481744195 0.5200513502516032
122 0.28246567922985644 0.9004780629836397
123 0.017836397431725826 0.42537566278129
124 0.1395825599480245 0.9833278611755881
125 0.4458708274453932 0.9072735331066437
126 0.784189859115046 0.8385971742783296
127 0.631551208891966 0.941877284110541
128 0.47386021096183095 0.6711367974806953
129 0.46562204618191405 0.8314928824487564
130 0.9531233555007667 0.37378648818672755
131 0.8059789027355274 0.8120434456890707
132 0.7111681371824614 0.8907418071648857
133 0.04145571396709724 0.35388601887006454
134 0.5563766171131072 0.3766533532759435
135 0.5804582298313704 0.9183044484412245
136 0.7066183732365362 0.3218056935730508
137 0.4871870933263758 0.5626343366004837
138 0.5084490361271633 0.029511941776762862
139 0.1942080382947985 0.5145393571325869
140 0.5724305124732763 0.6304976580597006
141 0.20255049951157367 0.2781140328215628
142 0.1674347105518723 0.3628234525789098
143 0.5772317733747231 0.5245707959824877
144 0.11586014230319741 0.11576324207079591
145 0.48965343978338594 0.280229475952153
146 0.2690926731124017 0.07104238572455457
147 0.5445702601386402 0.4804996556395327
148 0.7161569561085039 0.840227971453565
149 0.2296550884523887 0.6880388166975201
150 0.7006161504485909 0.8755799197369575
151 0.5661289214423669 0.20736257998494922
152 0.24074897400041273 0.16311841497489066
153 0.08189141037629377 0.7113290406249121
154 0.8124199725313737 0.37390579039035554
155 0.4362801601751548 0.538080713400515
156 0.004044798893278134 0.6535491445321987
157 0.9021576587944309 0.8851383775183277
158 0.6254703986228604 0.05849323940713813
159 0.17336681334860038 0.3396473264851668
160 0.584801746442802 0.5203642928322152
161 0.8043573085514429 0.7774344221474232
162 0.2510931206904422 0.3479505382459823
163 0.06091081897383177 0.9206333412637437
164 0.5145152293888164 0.9877595307514784
165 0.7230788791684691 0.20079906991260354
166 0.42432765490084423 0.056562945758155125
167 0.7847081565048962 0.5780458127727695
168 0.28097638339342534 0.5315074508328373
169 0.9221465304321623 0.6583402634914284
170 0.8017381802762923 0.3862929780693597
171 0.6554248214335179 0.2964233443708534
172 0.7244733994142054 0.6671820901544616
173 0.17536529576637017 0.15956046883445973
174 0.05276555373828262 0.2732692449640741
175 0.8475373180509812 0.857408392515335
176 0.6781376855706273 0.03766387028396212
177 0.39619373108986344 0.7466999115825084
178 0.5869518548721759 0.07900661156909283
179 0.26664266801998093 0.4164182362330099
180 0.7455008420527014 0.508269222716725
181 0.9214554536314 0.19408466900770305
182 0.8428792416420525 0.46933175059927645
183 0.46323302532521493 0.07226682237146065
184 0.9627992267730674 0.45569416698156895
185 0.6358491432344152 0.05052091988527019
186 0.1660453644277119 0.9274385288987101
187 0.10408400800465356 0.9135759142614021
188 0.8786967329935504 0.8440141552660785
189 0.527484432834003 0.04845442583290105
190 0.4043313556370566 0.4956005682684781
191 0.9957717761890104 0.2621439722476696
192 0.7568992180200675 0.7928109665278533
193 0.8258790728798998 0.3123681584147273
194 0.05442991115034512 0.9219118612949084
195 0.19388837741710607 0.7455532860622808
196 0.2684912186620242 0.6541043249329402
197 0.9261276574167162 0.7560597844071968
198 0.36155026545629343 0.5575055117215141
199 0.1936131500308953 0.3421370378574393
200 0.6767488847515173 0.9118075134327386
201 0.3788583077214922 0.5332896360254926
202 0.05397125134072944 0.3962693223304
203 0.18557775147870648 0.23825784117262105
204 0.9305630842140118 0.20471746472933505
205 0.8528640736086714 0.4711771961363308
206 0.10904395701031433 0.6568134940851424
207 0.41525434278435525 0.46627341510257303
208 0.2944072403656002 0.2613583707928263
209 0.6657125812042127 0.5832563036729584
210 0.6077068374399316 0.6383676385516731
211 0.258465951376579 0.73617363184158
212 0.25468872136335163 0.13064718155130184
213 0.07187097884090166 0.7347727495075753
214 0.32617244041185767 0.58591106145037
215 0.8004663430746193 0.7399215492697422
216 0.49876244076263665 0.442627753228654
217 0.9934894341726604 0.26533885955973946
218 0.127567449669014 0.1965546521190853
219 0.11291563420415207 0.0041851550979775665
220 0.9042794380451109 0.48190150884383887
221 0.3963503054041747 0.8030031642096902
222 0.12225272506383067 0.8659757360338188
223 0.06188899144432314 0.8996017365698844
224 0.8559203907114392 0.2173714962267077
225 0.345964716687823 0.009284318096359323
226 0.9116076750756237 0.5984522641975593
227 0.5725223322981605 0.5714749167962664
228 0.9946588559508641 0.14194255162427094
229 0.5584938030441685 0.5813423374986754
230 0.42699644339145126 0.7811011518244255
231 0.7957251863506355 0.5910945068575973
232 0.7833159951744515 0.6662227208942229
233 0.5551566433566671 0.4825531109509452
234 0.5830494645180931 0.7852964703109473
235 0.2706831293981564 0.4289149895378239
236 0.7511819270172353 0.6551100541206033
237 0.9137649761815424 0.6916424742811238
238 0.8036891588297835 0.7307290964298521
239 0.6855611176199944 0.5225880749800333
240 0.6013181825115211 0.45723011550933135
241 0.4181314760471275 0.038762392362660214
242 0.6977639504531108 0.25527919392428144
243 0.7893531797476468 0.5672818578745107
244 0.42603142898562163 0.35036977250674184
245 0.9563792330597806 0.011863897488470942
246 0.1703940176030473 0.06564263355462796
247 0.325152470164753 0.7184959996205645
248 0.4682297034299816 0.2863370887487434
249 0.6633492654659453 0.1920460281750186
250 0.9516017921793302 0.9889176691158926
251 0.3315877480819567 0.43252472692650323
252 0.6569688259241546 0.8325843557435035
253 0.6362197463851296 0.3418566499161678
254 0.3008468045934253 0.9652633024523839
255 0.46645622795386055 0.6152338976121363
256 0.7826672495977565 0.08948220418843778
257 0.12554203131151964 0.24384626139925136
258 0.21004606297098904 0.25317789589861484
259 0.7255869166081834 0.08939342582118781
260 0.38588076971942675 0.9188863273613549
261 0.5769333435702093 0.8293227020530414
262 0.6913001285131344 0.2146079530905819
263 0.4619466630168495 0.37312757838017574
264 0.35074579127529504 0.5799283522218669
265 0.20278084575572486 0.48008623618737023
266 0.978558517745108 0.47045961197051034
267 0.15454132700623457 0.9907340064385378
268 0.8055543103239643 0.14040760338315705
269 0.38238685695725183 0.20769360027183092
270 0.3514453887302035 0.08455986254887382
271 0.40593148650054267 0.4446317342007332
272 0.21304509231540447 0.09563899689001853
273 0.899841119195715 0.5750802725214245
274 0.3721995500273986 0.38935974237469695
275 0.9368130172015727 0.5150184555987132
276 0.254948356273065 0.941198958912326
277 0.4921195832680061 0.451305398051031
278 0.977845358380789 0.2897322385957548
279 0.16674554456858848 0.16192789330247348
280 0.0021516356727806496 0.32247514153445234
281 0.28092878900216667 0.297720920178949
282 0.6816563669636087 0.7529624255277686
283 0.832200675716668 0.12336614311299854
284 0.794719833252379 0.5905476034297
285 0.3752596009260386 0.5937053431647838
286 0.20897748983911568 0.3204198560884123
287 0.6907518803803624 0.7984290441212628
288 0.7815743323288519 0.18586486737967156
289 0.3024751738415836 0.6214917543178369
290 0.72603885704465 0.9713913623165941
291 0.3583124451389452 0.963575605504975
292 0.41992943306138 0.8601568610355995
293 0.5268039682385007 0.524269516582804
294 0.8951192183270156 0.2452360921369412
295 0.8703251038972424 0.8264232360811944
296 0.019443073409519895 0.6868770810271846
297 0.5122196301660816 0.22326923269769328
298 0.23711161744066966 0.1457644827801281
299 0.5565119203243206 0.5181255529259405
300 0.44944642878144736 0.4916197312283348
301 0.7333600114243104 0.47836179361413
302 0.5620874915704005 0.23998807743469786
303 0.04135736467387863 0.8087955426681844
304 0.628040979275044 0.32311484530390655
305 0.8796723028900428 0.29440809318674965
306 0.21527514201535325 0.655261094965912
307 0.020848909254533865 0.11063535484874909
308 0.14456854643876926 0.9496426740503411
309 0.6075221950989195 0.9048821612551355
310 0.2960954976841995 0.7990696267254811
311 0.5759756184309774 0.38664782449472934
312 0.40457821140565375 0.49187450170665814
313 0.5053872636106461 0.35220044249087623
314 0.8530550193556469 0.040122110625136265
315 0.416735965371547 0.40938742184454435
316 0.5619648177689756 0.5303997440242032
317 0.8108880548493037 0.7903578637533287
318 0.3153585687031836 0.042514644947719615
319 0.027561992262244095 0.47074517781890957
320 0.24075411493618926 0.09387731997588789
321 0.7407064854178391 0.6858665803686721
322 0.9403346632669394 0.5008247690330077
323 0.9073341613497472 0.08648265925653809
324 0.9746046829318001 0.371250902876599
325 0.8084646206166282 0.7947166884963621
326 0.9648731431199871 0.7365918309233075
327 0.4399267122730409 0.488873021134941
328 0.8175201181127966 0.29331495328843693
329 0.01427294320301431 0.3496749085025107
330 0.6839016835857662 0.04002525017888159
331 0.7981631272671553 0.9263540770290508
332 0.668596011136637 0.43641160086903474
333 0.478522600685115 0.15062591267236314
334 0.22513241112646065 0.941431229389597
335 0.5276189112944847 0.2907535773898944
336 0.2236192825492862 0.35874955634621575
337 0.7633207464305709 0.49201721754760874
338 0.34200289042805976 0.42660271761639834
339 0.3892718197316497 0.49531458482549584
340 0.05677207893691405 0.5360738487418321
341 0.14933935520428177 0.5524339949632613
342 0.030720181155569626 0.11476863782975799
343 0.2799875169236359 0.8275201268928197
344 0.8998601080401206 0.22648513192111763
345 0.14735036698780335 0.25019467018215924
346 0.8488286866097685 0.934366124424902
347 0.10741072868474333 0.05993478527395457
348 0.09882362881348483 0.5906110958762677
349 0.4790142564027676 0.9441576455140802
350 0.09502111223807086 0.670132457084347
351 0.4533446309182809 0.8523796642372202
352 0.3469179233930223 0.3245950109583241
353 0.04921884559321654 0.9234286569632617
354 0.6944776996727485 0.298430509257676
355 0.29737045638672044 0.9896806411183476
356 0.8228035668739617 0.8039636129269533
357 0.0785176327610152 0.7942683285430595
358 0.7404133093002644 0.23569489060382187
359 0.19980518249498547 0.21796541274784764
360 0.5541516456997134 0.828363321346755
361 0.2336540305887378 0.1938555121665856
362 0.4534126059388752 0.5080187073487239
363 0.8864753918039929 0.8575831314535192
364 0.9364372886018308 0.04506448042044242
365 0.29769700105422536 0.4294899144219241
366 0.591847404115552 0.2505880300458333
367 0.11074274906213755 0.8203484226684684
368 0.4743250008708896 0.1512903647997429
369 0.5013175881247734 0.07523286444072885
370 0.24269203722109178 0.3205687339277027
371 0.4656576738743132 0.5859050131054858
372 0.17498718687542225 0.9557033811057657
373 0.7582867415361603 0.1664658928862336
374 0.08668791017798816 0.4322743035654817
375 0.41640628210533814 0.5187335105503422
376 0.9276223609968325 0.7635593711411938
377 0.41225097252192333 0.6270917996375905
378 0.910337319915594 0.655083558591652
379 0.837922408216105 0.21752479045032747
380 0.817516244101883 0.45170864897237106
381 0.6286266374475329 0.0879283520822387
382 0.09128272527992565 0.9298571833295272
383 0.11398988470330684 0.54685276815576
384 0.7855542504639836 0.24070276527283252
385 0.19076783404040631 0.056639947388783196
386 0.768676926226307 0.9734397962133154
387 0.33884996306292803 0.04456632269260863
388 0.38667375095461365 0.46462265264717817
389 0.7052348404246571 0.6980084620876461
390 0.11862837405292259 0.06419050484550604
391 0.24968140728217758 0.2445158851378456
392 0.7154871207558521 0.3722315534761519
393 0.8892482324687999 0.25081140754459463
394 0.30302731587557385 0.34746994002064113
395 0.0018078955779670114 0.1937911138570917
396 0.40694403867984175 0.31133964482838083
397 0.0076077092985469275 0.768024402015582
398 0.7728424869597911 0.2155414834120266
399 0.4402999177341689 0.8871532766414083
400 0.9238729175509546 0.4410128206816294
401 0.6574401092032084 0.5259467972800341
402 0.8366445526739624 0.9399420558676866
403 0.25069030384091506 0.3071162588409371
404 0.3790438112183103 0.26916250504707273
405 0.8318095349899095 0.849480805085471
406 0.016740872504070192 0.4555122193633627
407 0.8610743337016532 0.19889855627133313
408 0.614897530574751 0.6132058614679473
409 0.890805738606883 0.9837311645846791
410 0.36618931613597794 0.047612822157993784
411 0.8785496769790356 0.43994988876549523
412 0.05190852691292358 0.010799948323408581
413 0.4265057538013627 0.43132087775769923
414 0.39926824462816257 0.9407215159103901
415 0.7547676332424519 0.09537730065220029
416 0.23644968976635727 0.828610686411052
417 0.8194768653017861 0.10312178952859663
418 0.583354616016281 0.6862314774193154
419 0.39810119175331227 0.1961862276316555
420 0.7432056725185454 0.26841818640964654
421 0.4416684763702067 0.4240026929154235
422 0.07649256297032248 0.2087924017827676
423 0.5155627969182449 0.8013113958802512
424 0.6195670650765416 0.6248754280062344
425 0.32256639268268705 0.05166722114684341
426 0.2606150005030763 0.3595395026796332
427 0.21722197360871998 0.8026192010188106
428 0.08684565220786489 0.32760616831409295
429 0.021329102389314736 0.6160747998441934
430 0.7845398158721257 0.11271590456394853
431 0.18498035247700373 0.9008514125625436
432 0.708679527152918 0.4829694879391385
433 0.9399243910063216 0.42896528462825445
434 0.5376557049990259 0.7459956445094316
435 0.029736597938035403 0.25038781814967825
436 0.9438536259559047 0.9797209486232087
437 0.7363665281400853 0.2879093327994595
438 0.19449974479030874 0.5192778229577769
439 0.8207037666002871 0.7482385355916883
440 0.2625725136286863 0.9593543418244115
441 0.09065202639102465 0.5991373874523893
442 0.48420118571293047 0.32530189499720097
443 0.9053975903041855 0.19117359429897218
444 0.14034444127606627 0.7534980648690566
445 0.5043238700484444 0.6116229644494955
446 0.5874343096503437 0.37578080454426344
447 0.6324673552456961 0.12752430289325745
448 0.6150617506424177 0.2895514635966665
449 0.9716782134591351 0.6823707801877952
450 0.5353225682623243 0.8829733555326282
451 0.3698646120028859 0.8740121336181368
452 0.9018019506017101 0.9455723230510195
453 0.7142897854326463 0.7326648568401292
454 0.13522340105516173 0.9428775677501108
455 0.0927110244252799 0.9224919841063566
456 0.13705040141189895 0.16789752010114534
457 0.1431576185489123 0.5057710171848705
458 0.4088944088955182 0.4762714594044667
459 0.8485012942167611 0.9137580151020955
460 0.35008700130550907 0.028202922442902678
461 0.03491891053545859 0.8863013224609941
462 0.24795827133883286 0.3927712603766689
463 0.37202666341898893 0.6378666516233595
464 0.7410752306223498 0.8248127243483264
465 0.17962731097979767 0.5571108654743155
466 0.39709171843879787 0.7763843564432252
467 0.01386061708071673 0.12829696032827387
468 0.28658880043331225 0.6152599730820608
469 0.5328337284105669 0.6929460612561817
470 0.2622476169207948 0.6018785281281835
471 0.6188804658407434 0.7920134517893171
472 0.962264516568894 0.0250066048132207
473 0.026335603528020668 0.5288907557104182
474 0.8584597392476687 0.8698040123095558
475 0.9713924501111123 0.9469245804843822
476 0.4510991081425302 0.8328161761714005
477 0.05727122675405938 0.012580422817122017
478 0.46188332491642614 0.32460598871289337
479 0.6797875873919035 0.8437144662444033
480 0.28424387077478885 0.7552461376500981
481 0.7156911219950169 0.7229898862194016
482 0.5531974387569111 0.34094709109511445
483 0.734850135228229 0.7773700017565633
484 0.32844194035465657 0.03004959926888584
485 0.7741220599165576 0.9123939061219305
486 0.8414723733563665 0.5679484847140478
487 0.5853876838035479 0.21321352486339884
488 0.7575564915634864 0.8033310041684469
489 0.019768764503371283 0.19793237025585253
490 0.6760495961614947 0.7012057179191823
491 0.8460843612059793 0.8675760336522537
492 0.6662311012285541 0.11711010297202162
493 0.22177484503241685 0.7233133977823761
494 0.7619461306493921 0.8195885130304951
495 0.8137737139706519 0.7164881907486234
496 0.7015808198701168 0.5857890899593066
497 0.7626212020269411 0.46087608481278153
498 0.7669668487997306 0.7623901449684669
499 0.36491145776609446 0.22870198474281878
500 0.7278035207672102 0.8234979715282759
501 0.6807096572361366 0.40755087667419587
502 0.8153910970167105 0.09332827889336148
503 0.6928985125910734 0.15911179251250063
504 0.5598919424686131 0.48160166243904057
505 0.5387201256059502 0.020754999384947626
506 0.41858785720769454 0.903294077158404
507 0.004760820855145953 0.15641160326166015
508 0.7133280337206692 0.4073694860176016
509 0.098147791799722 0.6100310558870744
510 0.8860318291321571 0.9730451579059098
511 0.6689897470910046 0.8328065363270419
512 0.5264538951263613 0.24252652949463593
513 0.9594443818549272 0.10679200118472365
514 0.8352833931338723 0.9890408642995605
515 0.2965886517551596 0.7506129211986504
516 0.6081713520984939 0.13557909344017716
517 0.5070879406022764 0.44728869971700536
518 0.212445187783169 0.45563646964230886
519 0.7492665752887283 0.7799544752808072
520 0.06747705240618285 0.9042133215749025
521 0.48152664833025427 0.9919689709313372
522 0.5617998117755245 0.4600458799026639
523 0.537025507087202 0.371490327682259
524 0.4698735046036554 0.26253002054108177
525 0.6140997109805754 0.039305508330981676
526 0.213738442932619 0.03577016685736245
527 0.042018691707485845 0.45704735592945533
528 0.8088853730525888 0.5102280777917874
529 0.9297890035802138 0.1944575703160295
530 0.8571748411708104 0.7005077749774667
531 0.5201231364520423 0.5235472998393494
532 0.46789468011664015 0.6396186636157852
533 0.9588108381969113 0.3673173145508287
534 0.5425655785263156 0.6725009247184185
535 0.489895483110381 0.1694444611319862
536 0.5991103851436747 0.931467591452344
537 0.22363246698533634 0.717054698828483
538 0.2062313716355867 0.9026079887052458
539 0.7484669197662855 0.8632298251753044
540 0.11413534424817373 0.18013425268191474
541 0.21489473382125313 0.5844454149930515
542 0.26169249130610595 0.49691740076181556
543 0.7283152652505411 0.5585913442072264
544 0.4282482866402961 0.11660469917652339
545 0.11340514758459319 0.024998864920178443
546 0.7873601377496492 0.8827348777308521
547 0.6566802609434463 0.9848853166723786
548 0.9893777702805743 0.39433113550227883
549 0.8836297533204983 0.12671517035329538
550 0.5016177445652682 0.9993664324115145
551 0.8857665193353721 0.7972163772465123
552 0.8626262578007562 0.727359228839821
553 0.44927761967228375 0.2938766150318247
554 0.42974038010781523 0.8953292870757138
555 0.5734373739019255 0.4173065549166538
556 0.3958897029151538 0.898448917787246
557 0.7885000460738218 0.6384851074043832
558 0.4077538835609624 0.4161675954622446
559 0.7120474326870923 0.6343774200176244
560 0.9124260029302879 0.29448022945793495
561 0.7481024481053812 0.04530062728005246
562 0.9688522970490281 0.5055591177787393
563 0.9618062869289152 0.33739526584692425
564 0.3422030212318805 0.14046261936566107
565 0.641819474332851 0.22597350050998344
566 0.6483614899636388 0.8683207861399579
567 0.11050199094372182 0.44246407812548005
568 0.631778404667143 0.039874774290839965
569 0.00247909612418451 0.8244138666165132
570 0.7675355730710666 0.03708183478202154
571 0.6389985903038773 0.4743727549786848
572 0.06440692657294045 0.046248437315037694
573 0.9012448291996362 0.7517514462039868
574 0.21357814335029168 0.854925396267148
575 0.9280584283620561 0.22019835525551645
576 0.8983904853856263 0.8692282699542092
577 0.42218749165335634 0.43670310581425653
578 0.028068950959387107 0.09158825756522027
579 0.3018264863543001 0.6907119605869511
580 0.2635314374243065 0.3605632442776763
581 0.8267164741693381 0.2590980305005356
582 0.6704855110823357 0.02981453888965635
583 0.08526336189545536 0.5815657286404634
584 0.7490859623266943 0.3872045708307248
585 0.006583621015880614 0.8810366055280467
586 0.24330226381222542 0.33920824686052364
587 0.2759428521719953 0.1453403919378048
588 0.3586277232497739 0.7111505089426478
589 0.3429854833299214 0.3262295494390186
590 0.5348900477968022 0.3561719616555604
591 0.8615777551872602 0.14936435282926663
592 0.9660331549070038 0.9958931967516513
593 0.6118720649371585 0.36139743660684065
594 0.634258487124067 0.6320719384685404
595 0.26758360619736044 0.29052642448094856
596 0.3040846291931327 0.5147413283934653
597 0.03741503952911018 0.9485669945608426
598 0.4914785851198221 0.100552184831745
599 0.8940294262292299 0.42870707187477186
600 0.9299173711721657 0.5425539902903812
601 0.25003501713684095 0.08852233098736462
602 0.44807573832833836 0.3759801719583231
603 0.5204829899691963 0.4191558275299636
604 0.666036564150962 0.017659781330173097
605 0.45345895509399237 0.17153168525353946
606 0.19890657109349286 0.08126821934600093
607 0.4339877939139438 0.017807686482217977
608 0.3253613426471904 0.44469337758535965
609 0.10225615663566323 0.3868732246577645
610 0.5570254015012001 0.26601122986085823
611 0.867557513669727 0.6376258180842732
612 0.9457652069969044 0.7273252133897171
613 0.7959075278135983 0.9928481584927068
614 0.06927388924597988 0.9432522207829035
615 0.020115837896215183 0.6985065964171355
616 0.42651294284690255 0.2811357925047515
617 0.36830359162353143 0.427195709960123
618 0.9673040055335077 0.933166801167275
619 0.3158803209436961 0.9726727438412814
620 0.6032949358337152 0.02327807684062111
621 0.23951151297548645 0.45355651122869334
622 0.03723061123706306 0.16951943918871415
623 0.7890627019185191 0.23101158872950078
624 0.24746932011559497 0.6894997079840172
625 0.2406850374040621 0.9714273379097516
626 0.47149936830356187 0.4222613035146031
627 0.20674343350757196 0.288240357434297
628 0.2993053538755882 0.671125783441838
629 0.6563140273802427 0.28048089475710636
630 0.3657433548507223 0.5325932899407684
631 0.6429221646253361 0.9422325317344666
632 0.9680299602916942 0.7474258897001972
633 0.17651033719699982 0.5227072879790542
634 0.22679146701046748 0.9370028460446785
635 0.3817545526195274 0.37327343279459557
636 0.38994143101626066 0.1065393251723723
637 0.7960961505190658 0.9285507640505887
638 0.9717503075605934 0.2569863123936782
639 0.9487108946265947 0.9960672705660085
640 0.038211030237244814 0.6417235107936488
641 0.10040823154747303 0.8545995663463284
642 0.4644150225934228 0.5176483931183288
643 0.25223596795506265 0.6785916709702978
644 0.20223682455309655 0.3148982707890484
645 0.0680994670670646 0.6638340113393753
646 0.1431261621701967 0.4019998365777626
647 0.8061862140460336 0.6879632227810633
648 0.1700540542525607 0.24441327303529048
649 0.7480576388519863 0.8458855055841007
650 0.7821572008475342 0.7063513338148811
651 0.22654106566477794 0.2105831339882217
652 0.4182953708941981 0.609246401077123
653 0.15414145768471288 0.04321256954547159
654 0.4344078595430819 0.010291231275405877
655 0.44399545535855023 0.29919010099008836
656 0.5247289888241212 0.3335733083290151
657 0.8963753442696959 0.38959825606368936
658 0.6254895837249074 0.018139483731486328
659 0.5096376279016284 0.7126619816189242
660 0.4480434378959216 0.6363626867257124
661 0.8521151063715666 0.5392351259868357
662 0.22462520691452204 0.09650219093504431
663 0.4264292094573533 0.3964493137181281
664 0.6517409898582032 0.17858560204198537
665 0.019589709507477626 0.6605089146111408
666 0.11784874190692407 0.21591609491043018
667 0.5380992503423268 0.8466030389094611
668 0.06385965666426541 0.043917373002539284
669 0.13072006996781915 0.44674488492014
670 0.21669857182280483 0.15279638155276964
671 0.9728074267772339 0.5203043515917246
672 0.39835991870487397 0.06312433056004008
673 0.9372234031046002 0.9481146487784436
674 0.654965354256864 0.11815201639729644
675 0.7126536336444557 0.2632312703726343
676 0.42037981304852334 0.2750208992462412
677 0.17864286921398842 0.3034662506668948
678 0.3610662494245571 0.9547623552276051
679 0.20526672529891965 0.4610724494427385
680 0.08527924956143473 0.7898651592141015
681 0.5152430419760853 0.8359277752792424
682 0.45175604707247474 0.3799359481674871
683 0.4991647994049401 0.6868320862033399
684 0.5064133987134911 0.014224002334811137
685 0.6952416706417325 0.030194822779493036
686 0.028882376733133208 0.15719512146177583
687 0.7088383054661833 0.8929836690682688
688 0.32382629279276587 0.5195602416724054
689 0.7980247584197326 0.7151719720301076
690 0.6356232100940168 0.7525613042417755
691 0.8940681388797116 0.47009938349782354
692 0.9289584823708897 0.06247242437891931
693 0.22813088091411415 0.5884198092873306
694 0.6616519302804708 0.7241822725026184
695 0.3524169956072555 0.3477037728095975
696 0.508809927823112 0.7018341058765538
697 0.46602104576088177 0.2839600876688275
698 0.5356560805709407 0.9257029490687597
699 0.048981990097191064 0.7426018157652302
700 0.7122542351562882 0.39991300845020794
701 0.7772178683324723 0.561887898064294
702 0.9979106997044003 0.8548290064313672
703 0.8872280983368236 0.2961622836042097
704 0.9356233400435262 0.1814062735137375
705 0.30415294608603716 0.23840162232211937
706 0.2750038860887356 0.33100870130388615
707 0.07520925665714939 0.8645616273093624
708 0.6490561590314063 0.90195835215929
709 0.938721914598832 0.5412753701764895
710 0.5515619060176501 0.12666319895456812
711 0.4654866321988471 0.42137272724435315
712 0.9151054328676472 0.1536452568835852
713 0.7330627574280865 0.7022539923494325
714 0.5881243895005106 0.390565327230063
715 0.2256523291229483 0.7919366379403635
716 0.26841261077775336 0.016400635731015134
717 0.4250710284301902 0.4377504278188382
718 0.28822634351634924 0.4952779013841482
719 0.19913299554155828 0.848391745820734
720 0.618597691788275 0.9891573099843006
721 0.061757094948622804 0.7401140960273083
722 0.02997623169845376 0.2188497773157695
723 0.4442023044772775 0.9820522936191202
724 0.13595279359410073 0.37061152805802033
725 0.22907541029019707 0.38741035424272263
726 0.03640468937770336 0.9116170354911728
727 0.04339251751424733 0.7722759382153545
728 0.5308578653077897 0.9102900554397526
729 0.7008444937905188 0.2816094140444485
730 0.5497722015211619 0.2774213726346597
731 0.2333843915447219 0.029639613911060514
732 0.8868476567904767 0.3789195928686573
733 0.6458226829895135 0.12830535472635207
734 0.4543413899174312 0.8070100873256676
735 0.7907441825700846 0.2945935199802514
736 0.39974110213063796 0.22154804045019094
737 0.8930392049134719 0.5441313335204605
738 0.28202150960502004 0.8980293082925367
739 0.023965438509520487 0.5375463012883027
740 0.307674042234256 0.5533763486404106
741 0.06484374945183669 0.019333632262530043
742 0.506329489490991 0.7607720267071431
743 0.282336534458557 0.637131246136915
744 0.11821939630542477 0.5431024303377558
745 0.2715421759260025 0.5326020791560986
746 0.42654458395954975 0.11072262800835808
747 0.6165783079541599 0.26072997072156
748 0.6640819376418341 0.19383454964869684
749 0.8788626065470936 0.406710211741958
750 0.5509622427874561 0.05706820872039797
751 0.528997608109836 0.653854031426284
752 0.1400096590799299 0.987330675527653
753 0.1608747676822304 0.9446575680124506
754 0.3877377476949342 0.35468569720732157
755 0.902855711686827 0.29520829761454903
756 0.8128878409580369 0.15649677069317358
757 0.0457073411176786 0.9033621517947362
758 0.6769479118715899 0.8699508962322526
759 0.5431677120117331 0.14260636419477346
760 0.2648074759318557 0.68756221112744
761 0.5353516629486273 0.6215437168807152
762 0.21969237873284697 0.7626593855365044
763 0.9422441758289493 0.12550783346598826
764 0.7479680935391488 0.23344627880777413
765 0.608559793600348 0.8847379947837822
766 0.8334137786864306 0.24550755188316187
767 0.24819943892564444 0.8224620175332534
768 0.8089346287028428 0.933650031219382
769 0.22226314859864327 0.6511551186348203
770 0.08834511971760395 0.11759408979100217
771 0.6890704807861266 0.6235059565476467
772 0.5793974183186892 0.7710206327534455
773 0.35750936740849615 0.6439512361538238
774 0.04115433189192019 0.3446099316198685
775 0.5250373800635182 0.904798885349605
776 0.771415224499891 0.6608449402931987
777 0.6349112517846907 0.7375178683370589
778 0.1554305011733942 0.9022893277505709
779 0.4999722785313241 0.6420503593153433
780 0.760568768127586 0.1769306505179753
781 0.5221993246070621 0.9219459280244546
782 0.17024273919919453 0.6824008370061269
783 0.3184197709385589 0.8196182602894198
784 0.345931428569477 0.4545971305849871
785 0.423453847069308 0.5556101516385761
786 0.2761521219329214 0.39901148569738754
787 0.3916598773397959 0.2565137116014188
788 0.42680698582931076 0.8336518748165546
789 0.1332274146165957 0.10874321426254929
790 0.11047630209212345 0.38572073073146484
791 0.04947369526914702 0.5776579182744069
792 0.3582352114750885 0.5061894316577835
793 0.4334286376142672 0.7043487668545102
794 0.0956449347950804 0.29789218875889456
795 0.26063650179550757 0.6898869486194044
796 0.04528953596550955 0.8666335647906481
797 0.5449732255299622 0.2705226799347037
798 0.48925679914394615 0.8661516205283138
799 0.40679848882434533 0.7406693530127726
800 0.6031220422704915 0.652128326537686
801 0.5656398894917785 0.9758675448645887
802 0.11519041419748688 0.9455965940444276
803 0.5983637082074684 0.17222427197187995
804 0.5952290394507964 0.4511892247424144
805 0.7003433434216889 0.6000062119279427
806 0.16668550316227182 0.7148341224670416
807 0.17505811572464602 0.6859686456210528
808 0.44899348182855103 0.45441803085844235
809 0.5871175038012929 0.43870692877814366
810 0.4338219788183363 0.5456322384348935
811 0.003561187115322162 0.7552326617036629
812 0.3671773324402128 0.6040493378627905
813 0.5644495766391103 0.40364996956349797
814 0.20759888885366695 0.6638532999766779
815 0.7651535719260619 0.9138392958496203
816 0.8917032259170629 0.8090804138412832
817 0.5010371247982596 0.2141161070591313
818 0.8096258239857552 0.9992484860402805
819 0.012021908855289642 0.29324825628609263
820 0.060682107690354425 0.11669097162648367
821 0.7282423342735768 0.402979087765974
822 0.031973999192365654 0.08721950945555823
823 0.4366934434594576 0.0155839190223922
824 0.49230328372974874 0.6517965674628244
825 0.9222991567831939 0.02554557358098608
826 0.19005647114080504 0.9812899485063604
827 0.3772602139948641 0.6359304836429729
828 0.6826399046656583 0.6229433714677787
829 0.9313693771173821 0.31290173917767794
830 0.9843604258252365 0.43785480706951985
831 0.8917208837563515 0.139036161960294
832 0.15514773115212832 0.921887441262233
833 0.9454409482613827 0.2741753815887763
834 0.5954307299750704 0.20036316918812835
835 0.6632612459207353 0.3692792660093652
836 0.937683481207752 0.47297586856302276
837 0.3298451350437731 0.4229559249209077
838 0.4651036213435752 0.042015422668330915
839 0.26782406804739 0.2495602910951923
840 0.2500308804137332 0.2498966961545488
841 0.913323306259228 0.40510193679159856
842 0.8407050639793098 0.05710270481497348
843 0.6329424347201837 0.530665216332377
844 0.9762078057680182 0.5391868998046864
845 0.1258437860195094 0.335827124831963
846 0.8788628285046202 0.8041652310697128
847 0.2198289259276115 0.46030251001936395
848 0.45253615146566184 0.738250450651719
849 0.42132878888133685 0.8514717848611058
850 0.24256605609791593 0.7383592993281495
851 0.8588960079009208 0.4065670461162022
852 0.7376620121424335 0.33134759270350567
853 0.5828752982633231 0.24891814370988996
854 0.18346799321016904 0.459178890774107
855 0.994136383060375 0.7137415042530364
856 0.786176571178614 0.2891931693375841
857 0.9094319723096711 0.21968923268533547
858 0.6453642959020639 0.8354135495379219
859 0.42848151836553616 0.4556936344100866
860 0.169613175552489 0.985292697169151
861 0.8254832458753701 0.89455742322989
862 0.28165903047399055 0.9834932887193292
863 0.0819293841406501 0.7743546522611058
864 0.5202124106195997 0.15150519903167692
865 0.9309966302844049 0.7941268699284512
866 0.41390438878208047 0.044039376447495227
867 0.1669700256171186 0.3328762850644238
868 0.27749376943071835 0.7667384407544031
869 0.926134102928324 0.29782793612087344
870 0.27167861159041806 0.1671026872229725
871 0.49352776035527013 0.5568247863204084
872 0.34428363358803127 0.5832594330753407
873 0.874762187835667 0.9507749049349895
874 0.15146839796508682 0.8062793870968592
875 0.23558271924472796 0.178395985304025
876 0.46421155464608455 0.07726937490958719
877 0.8209503412172531 0.4446155659826334
878 0.9034961391487075 0.5484224731843695
879 0.08060925950368714 0.4218893314763694
880 0.4164556326167229 0.6228695863238751
881 0.40072148067222546 0.00584449535121645
882 0.4183506357319585 0.024027129499669342
883 0.5374472510461467 0.34971229686046723
884 0.5373470482411328 0.24088827958433956
885 0.0836936498963281 0.7211008851297136
886 0.6104412742999554 0.7743756443927504
887 0.7775063990024655 0.8761059300306087
888 0.02854752973224217 0.2062950518030202
889 0.4346882747784384 0.9226127682007922
890 0.097095664830681 0.46976923521425185
891 0.006054307494643751 0.9299751338332405
892 0.22544380282543763 0.27451484460981623
893 0.17636311576336428 0.23359441020413063
894 0.6879002888308362 0.44687007434720216
895 0.9205423806546614 0.3410700595563063
896 0.49755529725566494 0.637975268227375
897 0.44560070421316667 0.6861080213734472
898 0.8033167652600832 0.6590535146915066
899 0.32912064457093415 0.6934434641033397
900 0.9528655983288805 0.2669832086094538
901 0.9420530918610426 0.07023446670323608
902 0.9698003054543995 0.8831978708163438
903 0.7776600995671202 0.3380306136085548
904 0.8378724868988289 0.7909199881798774
905 0.9659609128648345 0.03243673976893169
906 0.660061355130632 0.8250737406544868
907 0.3785881937950798 0.9021047904008145
908 0.5043538922696366 0.1459156656061894
909 0.029408903389393393 0.12874675844919337
910 0.9213218474482358 0.3572305805295324
911 0.15062106227286676 0.5025683317758001
912 0.8836154472959817 0.9282854987113732
913 0.8120982240199169 0.03927326007750964
914 0.6929164426755233 0.14500819492728945
915 0.08978375607832068 0.7462475097010783
916 0.48245428170010574 0.5879981238639967
917 0.4175749313626338 0.48196418586476764
918 0.5692130263354847 0.4500650329405461
919 0.31316261447141447 0.6148413373486874
920 0.8770354135055833 0.8096169180919683
921 0.7036086070547455 0.2703550487692673
922 0.6361928458784377 0.29190744946340186
923 0.7257787231823077 0.2532599472880478
924 0.7001576940036566 0.8471914073129997
925 0.7787394012200507 0.008353739796540749
926 0.9972788291233502 0.671659847789517
927 0.7722154546149582 0.8822454893671057
928 0.1535891417657277 0.3861640429082922
929 0.24967230385740247 0.5263769878569955
930 0.23067219815592033 0.6636807394040928
931 0.6064285245876537 0.5918922700269502
932 0.5731394310255852 0.292326944545662
933 0.39733364922154635 0.31344001691578427
934 0.28523077398396113 0.07472247598679571
935 0.29992354402376553 0.48333210229140844
936 0.7477181095322748 0.9665844945067285
937 0.2097486971233572 0.0600233007387051
938 0.4378817607789768 0.31101186269928105
939 0.4553261057239757 0.775408636742096
940 0.876296877381996 0.8693734188888439
941 0.32227195018836086 0.39688355349645354
942 0.5871169569447211 0.5359996697774108
943 0.009246213593824382 0.8151260457063367
944 0.612521225839258 0.7332921395146815
945 0.41332943536433375 0.5335673173297675
946 0.5435229079342233 0.06241052045982243
947 0.6915752968681053 0.40758168546781226
948 0.2975427416598687 0.594575612919354
949 0.18954830257578026 0.1271237330253554
950 0.5563021934395749 0.5133864099280212
951 0.45701778534582194 0.7789032114450654
952 0.9080301980981368 0.15183278912150966
953 0.6030895991672967 0.9392202560592584
954 0.2662660712702797 0.9512187692386975
955 0.7988703228585361 0.24568714545641646
956 0.3919337064457943 0.9290705651507902
957 0.9705646743716609 0.39655837382811554
958 0.8073908973123035 0.5357168838675861
959 0.4530152181682391 0.23310040163658452
960 0.14154181515545416 0.33941008946824847
961 0.9724663520641599 0.581042044004673
962 0.22332612198368373 0.19619434295008475
963 0.24334376959529025 0.08554546527443507
964 0.9731781045705635 0.20887784599156223
965 0.8088487187650087 0.8707758239574092
966 0.9868847667070819 0.6953715445332658
967 0.7076316722056255 0.6592136831997824
968 0.6672781037408642 0.5582570882978155
969 0.020552653495208517 0.13932772326266862
970 0.4659498636307402 0.11718143322325458
971 0.24956879906177898 0.8133482613232421
972 0.13257173601424188 0.11654073171264145
973 0.31200912223708865 0.4516189948559949
974 0.3353890292374815 0.2110706555082833
975 0.11825297673182333 0.040393050938910546
976 0.2343211341347997 0.08214936644904136
977 0.955541021204121 0.2883914135216663
978 0.508882060537643 0.7098026346870218
979 0.8585008590596996 0.8925165166867206
980 0.6362019235751882 0.3112958578531646
981 0.21626982254127936 0.5170726970655469
982 0.8210659151215242 0.5636876006008398
983 0.02683480037613062 0.16851093346471768
984 0.5170422600359593 0.6698102482680018
985 0.4382248796333905 0.24952136922769763
986 0.3716976425581877 0.8838999221526279
987 0.6963428221070737 0.23180438338709364
988 0.6569682809140035 0.17026026461013832
989 0.45451985016849583 0.641028981733969
990 0.7381703130655265 0.38444548059416017
991 0.7270524321298657 0.3631257535896406
992 0.7246240444558348 0.048726772807487384
993 0.4279213462298611 0.48865233332989977
994 0.12200290598553254 0.3919130454212325
995 0.5139195322553948 0.10953414914258564
996 0.593561980469106 0.011289843074842154
997 0.309305018546033 0.7621295355274332
998 0.9347492690930757 0.15455448925645565
999 0.6810039729363127 0.7247389990696618
1000 0.993924263843725 0.7955017694648079
1001 0.11931548330031116 0.2887350524980259
1002 0.43649113510433735 0.870280802681031
1003 0.1921319838742077 0.9526102147023636
1004 0.6890444961503114 0.04729799349406916
1005 0.39061315079236314 0.9572560205619149
1006 0.8516057279262416 0.48722270599878936
1007 0.3278489942381705 0.1587194485075888
1008 0.5466454878743581 0.13622431476654695
1009 0.3373247179414598 0.8403337218177809
1010 0.406778420649196 0.8349015042588559
1011 0.9967184696241493 0.4959595495868724
1012 0.5425793778481774 0.5352662693259491
1013 0.155106130761544 0.7605337858559529
1014 0.3835687787971608 0.7810653877979312
1015 0.545865217390127 0.7830270488751562
1016 0.8681961627751896 0.7359192647009896
1017 0.8848746262103634 0.9848996765682217
1018 0.7782975027712772 0.2182528730756058
1019 0.046076843972386095 0.9449027846066013
1020 0.8402868361368415 0.8214763022660917
1021 0.8381486695729488 0.8849476169945409
1022 0.400764475161249 0.9664631197397702
1023 0.2926741759011017 0.7241808796099934
1024 0.08735920541598796 0.5790653946499357
1025 0.17211835392104302 0.9057668018780214
1026 0.42311124698255254 0.4832159975222077
1027 0.9639828186400862 0.364074425765226
1028 0.7064095343843838 0.17672797213625557
1029 0.9534723863746691 0.7523859720739696
1030 0.29020102021775407 0.9016393740661868
1031 0.6073677130459741 0.03159015233158213
1032 0.8819472329298825 0.07726827280809345
1033 0.532657968279693 0.7932452063987604
1034 0.8336254712728681 0.3620408072314929
1035 0.1888658017526934 0.4626343118266423
1036 0.694820434165153 0.5336256647109541
1037 0.5476661604292214 0.7773601426117063
1038 0.4338176772603971 0.08702523943548701
1039 0.16327033775753153 0.6918368493031437
1040 0.7778096226639727 0.3151813706014246
1041 0.21818267210465392 0.6238138414776477
1042 0.2714805782407448 0.06052742172723924
1043 0.22376965163633056 0.42391240319747514
1044 0.8525710032096303 0.2655728017190859
1045 0.013635834449962081 0.6726400938748678
1046 0.03110936255433394 0.5545812087761199
1047 0.47608499936433535 0.8508747293595376
1048 0.24116575156268572 0.25560563935201386
1049 0.5748026439296925 0.02578486857832063
1050 0.922519135602644 0.10373459355860648
1051 0.18241652705267375 0.8446296669168623
1052 0.7707290471269694 0.3579220095819825
1053 0.2623283645292823 0.33933109393613103
1054 0.19370904835721658 0.6691249668044538
1055 0.015608173617054022 0.017869059571351542
1056 0.6926674205477366 0.03922034568520716
1057 0.35053254634766606 0.2702182115250077
1058 0.4966505705314822 0.06756430702808314
1059 0.8557373860300731 0.7546186235970769
1060 0.8186609992731476 0.8452684233854768
1061 0.7349984873093742 0.7388041644325688
1062 0.12516162455720425 0.8549991139464288
1063 0.6516336972774206 0.9661571870309871
1064 0.7047863478771557 0.6687880081094552
1065 0.12082160381960683 0.6957821082653148
1066 0.07037542388870177 0.22513495513167592
1067 0.6396283207681557 0.41725303991955365
1068 0.7357272831960253 0.5941165024665335
1069 0.2532088758000166 0.750760541257056
1070 0.2645140005980354 0.7542517579882334
1071 0.38640152408762996 0.8337628076928391
1072 0.11976856414881176 0.3719151302020127
1073 0.30468388985316297 0.6661027853857718
1074 0.9153537093403676 0.1675492364077238
1075 0.5781614339719784 0.8916172664125599
1076 0.604565038008996 0.839453510089111
1077 0.6301826630954442 0.3678386685336449
1078 0.7754499400007895 0.5195024643423943
1079 0.06965020964587743 0.042634816535726205
1080 0.3476292857377794 0.7297843129121775
1081 0.4272612120058198 0.9863066750143966
1082 0.06982749530162813 0.32240259923355274
1083 0.8991458681809912 0.4203849613892593
1084 0.29130692539686365 0.9279618704812898
1085 0.7931618687342354 0.44192521923219197
1086 0.767732744604307 0.3394531564185207
1087 0.9336100510421846 0.16540171199209974
1088 0.8301723132448108 0.6446809168786654
1089 0.8667407323973885 0.5293213531866591
1090 0.10741501267479314 0.9553993812645818
1091 0.12769723738862293 0.5568707507767792
1092 0.9797623509422443 0.2746310692224957
1093 0.5491562964627323 0.0117573579342235
1094 0.1869989149224589 0.0812065849936141
1095 0.32064982041089074 0.9929456405149134
1096 0.40887606281201516 0.26912869263717454
1097 0.6909620544733471 0.23838351599339458
1098 0.07249564913070117 0.3882585227770804
1099 0.3598187418313621 0.6142834516789915
1100 0.047302708895074486 0.6631520403549009
1101 0.46819817196422353 0.3265335194420542
1102 0.36100134159661756 0.9013596975923889
1103 0.19514833742192905 0.9154001131822864
1104 0.5343523283087931 0.6904005059844536
1105 0.5287881498318345 0.5767783226521292
1106 0.241950255314472 0.7937984885154389
1107 0.6819218865603991 0.2034659135266752
1108 0.05989242085475688 0.8520819286713315
1109 0.21296137544902227 0.6976270363651806
1110 0.04969081627142402 0.9728494875800767
1111 0.6146576068637735 0.36905644761451184
1112 0.047295264190667874 0.7690042575018694
1113 0.10391390130272726 0.49705053256915777
1114 0.08029428186148435 0.8167237261210089
1115 0.1096738192482456 0.5267420575792466
1116 0.8172834282907431 0.6697203447127094
1117 0.6615762491319215 0.09057779833965607
1118 0.9912029682163707 0.996100411706993
1119 0.6070196425060883 0.9850714603702708
1120 0.8115765953467298 0.6457182016171866
1121 0.4005938093204434 0.34518711917888045
1122 0.4478912526446981 0.9531072191889175
1123 0.31059648926243044 0.25365062010178485
1124 0.6078907425556114 0.9133208585381511
1125 0.9779300554708938 0.6420168175614928
1126 0.9359592730710256 0.23112493959281355
1127 0.5993062431918964 0.6597021794773877
1128 0.8225009878807154 0.9246835855721223
1129 0.19619880280858348 0.41012258024031945
1130 0.5127011549768843 0.7951959405384625
1131 0.7066006502630084 0.3428364899988
1132 0.24364866865725088 0.027767149059438445
1133 0.6586472002548691 0.2846993344103055
1134 0.6900540835389267 0.2194677317041671
1135 0.3095195881483863 0.7286493126978764
1136 0.8682355641884222 0.06136474818797499
1137 0.8703777878451204 0.8299801267796918
1138 0.056730102586484144 0.5205159159979946
1139 0.4980338772325874 0.3870900461170047
1140 0.26098065857846875 0.13692928076646016
1141 0.4940868760781125 0.13147628428759106
1142 0.9844056238434697 0.9242733742164554
1143 0.1969933604782893 0.3721455533534799
1144 0.8160252653805378 0.3998629953333245
1145 0.904923614730234 0.1166654350097196
1146 0.7317557598910542 0.6565412351929822
1147 0.8701710140937872 0.7285357860895658
1148 0.1727174210114032 0.28753022450150456
1149 0.6553270564807964 0.23019705524250555
1150 0.5418025581488491 0.31508811265561565
1151 0.40899619175084967 0.4416061977557152
1152 0.3663861690098339 0.01777790506254695
1153 0.9760092042302428 0.07812923384611326
1154 0.1722372005120797 0.6223633518914359
1155 0.3430414247563218 0.9199318541306111
1156 0.5916501599516423 0.6412479288506959
1157 0.7645896251317756 0.3470704630338203
1158 0.5852971057453139 0.6627602733614844
1159 0.8291377744493085 0.2058795500708568
1160 0.13420935890288754 0.15007403400208774
1161 0.763369197878082 0.477167567726678
1162 0.5282493709634442 0.42704125712408414
1163 0.780713815478207 0.10582794482222069
1164 0.3051142654507871 0.8679243727119572
1165 0.9278441501330054 0.30514491837536306
1166 0.02566391037616067 0.30958764100968283
1167 0.1694401221437145 0.8357982725288993
1168 0.08944621386133356 0.7898861494630887
1169 0.12783734241687317 0.8421655662917352
1170 0.9155660887060063 0.03425978151178777
1171 0.7178576180525782 0.8670734089217386
1172 0.8839550272201436 0.07006370740952772
1173 0.42911472164513553 0.8677160391973469
1174 0.5455147324707096 0.44129153472905513
1175 0.35038333716757875 0.7878102019837195
1176 0.32037022193178 0.8006072556761724
1177 0.16576390135526964 0.31109009075114646
1178 0.45324574659549277 0.10372449523767946
1179 0.2943606404982688 0.9040180784107289
1180 0.7535771066094302 0.003252907301642516
1181 0.7769059654044055 0.10177026050679305
1182 0.8947877579556807 0.4181811440396661
1183 0.9057595188519441 0.18058660361090684
1184 0.44203125669551924 0.7746299277377418
1185 0.6326414387530931 0.7899059230533616
1186 0.3171608014369466 0.7342385018379112
1187 0.696346834402392 0.34049727408588015
1188 0.18377552766688254 0.8525676415870876
1189 0.7034863065368888 0.0336005185067243
1190 0.767462291626102 0.22217831220304263
1191 0.25163753755837126 0.4787862821722946
1192 0.05368797698142125 0.5981114879730911
1193 0.08445217946000927 0.9954969012383147
1194 0.366575324288951 0.06834569747147867
1195 0.8365529531207928 0.8207271293293995
1196 0.7033182591870901 0.8512428133818337
1197 0.2579552870389519 0.9635911303717117
1198 0.7467964275464851 0.9199106292808067
1199 0.6104283010457756 0.25419372773737936
1200 0.605927842688941 0.09544863975354079
1201 0.637962359228962 0.42972138386328995
1202 0.4778801985340285 0.6765309756014047
1203 0.6045880343490602 0.8877904431530859
1204 0.062214081534329946 0.4513559018145542
1205 0.4796326748180232 0.5109431794054586
1206 0.7772752299356482 0.8742078971725307
1207 0.20543562595000597 0.6026457400406623
1208 0.1413088424067297 0.40622693209089156
1209 0.10930083798071255 0.05066505403623278
1210 0.38086491325125293 0.2243223684376333
1211 0.595839618213416 0.6217855239394342
1212 0.8763149032109069 0.24572504876370538
1213 0.8126102366859678 0.7816508040002724
1214 0.8980095043367572 0.16384151062067487
1215 0.2790068393952869 0.761305675536161
1216 0.9291073641531883 0.7417579856287644
1217 0.15634517305418438 0.7145303208312084
1218 0.2347419698602501 0.26879072134978443
1219 0.2746826219817524 0.8268710749529904
1220 0.003107216228346421 0.47939430311208575
1221 0.34546610838648184 0.6889251548798949
1222 0.5688350903958889 0.6190154273008756
1223 0.2812331856771978 0.5030559711229536
1224 0.8987222979875821 0.9770029655773266
1225 0.1974629418473819 0.507000454614946
1226 0.5831418755583665 0.0818457390070425
1227 0.33399286055557975 0.7948710617070118
1228 0.8336714981266693 0.6771696953605356
1229 0.4571824328605173 0.08611234160290893
1230 0.5130500878328575 0.728009764441846
1231 0.18881338618165866 0.5666521845538047
1232 0.7527562071959263 0.15675859606087206
1233 0.6705550561479268 0.08050527791657336
1234 0.9415046699975834 0.7452728045241388
1235 0.9614407772361876 0.5753975139943361
1236 0.7877338556308616 0.9701644511323116
1237 0.33000564078312966 0.014931388579232485
1238 0.4777052093887403 0.17941906240803962
1239 0.2772118838480023 0.33858579182349047
1240 0.07570590647739717 0.2968867044742092
1241 0.3268106298358605 0.20299942411799754
1242 0.3059518622132299 0.5687310848262188
1243 0.9238215288604559 0.019256975092739492
1244 0.8057883264129009 0.7996739725491637
1245 0.010946533583889861 0.3958780816864007
1246 0.35347244769603337 0.7272809012278197
1247 0.2849320978963298 0.10564255888567897
1248 0.8983532803666519 0.15919948251295335
1249 0.7755718563135845 0.7377268042933958
1250 0.5321758809418097 0.9602287598635199
1251 0.5176271754871448 0.9516711993686988
1252 0.525246885130583 0.09716731761498854
1253 0.47801008464355677 0.4725174547092543
1254 0.8377546526279495 0.4226608901945794
1255 0.20301424711729266 0.3363142288187233
1256 0.27353620956696756 0.7612876049675301
1257 0.6482843825956819 0.7378830950849425
1258 0.5446345185575412 0.27139808087278583
1259 0.6308132931586423 0.2567271510051454
1260 0.20660107519764637 0.7908530756522508
1261 0.14652214857684442 0.8888257472949972
1262 0.6511542271423453 0.03124863994561511
1263 0.8171168238356628 0.5996687331075895
1264 0.4249330361555005 0.6089639172158753
1265 0.4958211090446628 0.11550613181847325
1266 0.8919593666713377 0.6848346605288932
1267 0.7410407816442888 0.6572299882133709
1268 0.45605212581224275 0.4678014139694522
1269 0.9792303675107663 0.5178102087781044
1270 0.1469224127867873 0.2372219550332375
1271 0.9704169110277059 0.05472120158200866
1272 0.5696475295486553 0.6181536416002176
1273 0.4184894584976978 0.3981601377178656
1274 0.8546659615410404 0.5484000347601964
1275 0.7732486568134741 0.675947619909442
1276 0.23686063833860194 0.6932579550663541
1277 0.3200782093469481 0.3705275442861996
1278 0.04713030507606286 0.7900319205598062
1279 0.8882108749658718 0.1526050705598423
1280 0.9016392618764365 0.5508615667971369
1281 0.4195845494513015 0.272108685177737
1282 0.4712056201817939 0.0028722811605329523
1283 0.29141808787073864 0.33864219411266183
1284 0.5038844998673334 0.18247152469328998
1285 0.741375570404151 0.0758979345704901
1286 0.06218393028863378 0.7205367111463448
1287 0.3038833118423674 0.029667753165031674
1288 0.9529641142701017 0.622809577051227
1289 0.4599041746701056 0.5138194668864565
1290 0.5838823372864566 0.18791010336374114
1291 0.03708677751322498 0.8811516266854196
1292 0.582461167397037 0.9846387734916565
1293 0.9222245564988153 0.7960586725912937
1294 0.9201109449704268 0.060925065519904065
1295 0.3871138029762442 0.2108941867198617
1296 0.1015232521577647 0.20070663067251926
1297 0.7342521838289543 0.846753386074712
1298 0.34777823422108023 0.3411460216610248
1299 0.022721081996910697 0.17563946494338512
1300 0.9996341410748957 0.6654002954403928
1301 0.17341738729605272 0.3867978218044479
1302 0.01932433299434866 0.9651518115263045
1303 0.12437511697619641 0.6814116334509959
1304 0.062187717680253995 0.6729140317963739
1305 0.31078568347622026 0.18452908777740218
1306 0.0901917859188145 0.5273082462395434
1307 0.8986411682436465 0.9058815087298668
1308 0.5820662798073 0.46175942326534236
1309 0.6796325557560106 0.9981159308007711
1310 0.44415768487613794 0.8741911694262152
1311 0.003774687645040964 0.14380626901651217
1312 0.06480989292899664 0.10725083832939597
1313 0.6893176187414473 0.27585966577497145
1314 0.120084304004062 0.15817322639015463
1315 0.5439043217157506 0.6475595010812693
1316 0.2956455754182451 0.5087847199727011
1317 0.17378186189824196 0.4605771769353584
1318 0.37641160880808366 0.39668952891865783
1319 0.6359687910184928 0.25788110788126173
1320 0.5424803090181085 0.24234825371765711
1321 0.7413477041444675 0.8146371513785567
1322 0.36046917505942777 0.504917043923275
1323 0.380869119923401 0.4523446107992234
1324 0.9340646768537473 0.7538870536391693
1325 0.07760955200365738 0.38583314002081426
1326 0.32596401630968586 0.9264782763758646
1327 0.17521958293515671 0.7216337206834224
1328 0.8904173588128763 0.7587831235835089
1329 0.7422476168380266 0.44725216459441675
1330 0.260655177578347 0.9959081173987955
1331 0.021487118541180017 0.12309298795917933
1332 0.7798202397379913 0.14618866654446794
1333 0.5242474702004476 0.2705846265641193
1334 0.8852820693794231 0.0068761622304581715
1335 0.7343977175459843 0.9452588703023632
1336 0.8441123463531615 0.28703381080769286
1337 0.7328161535549721 0.6386597262509678
1338 0.1180344950034925 0.5928306225830583
1339 0.45774177661510507 0.14768853912636437
1340 0.29950690765004806 0.2975237369207623
1341 0.12895230810914604 0.36609211311099477
1342 0.9437390086046638 0.4881514686206031
1343 0.3285777548827503 0.6581221861481212
1344 0.7514537269394584 0.7415672797467686
1345 0.6196006912667449 0.7665622441329448
1346 0.310712282541168 0.8869920828830957
1347 0.42710252378390323 0.4441969846622409
1348 0.3311607733580767 0.8815178699333904
1349 0.2364418729899055 0.3588490817461635
1350 0.04516263128246578 0.4928397474543711
1351 0.5740977399930087 0.299376190932502
1352 0.5799265138512216 0.16944002860963558
1353 0.7537924806744666 0.4735575909311974
1354 0.5281499953616563 0.6063479935764352
1355 0.4444167936104565 0.34967655527543484
1356 0.8904100791079904 0.30703516727224567
1357 0.47922763090465126 0.49401372094035656
1358 0.9950262708076513 0.18533405338174513
1359 0.8347836981870237 0.5038526421293577
1360 0.03968091835968235 0.5560776871692474
1361 0.9100691511802919 0.36298175456470205
1362 0.24160595680706987 0.3748833646692805
1363 0.10201258046738115 0.5262062214469135
1364 0.9397920968145819 0.006217403445644587
1365 0.46824622475432676 0.7761794896959788
1366 0.8274376078880559 0.6669990249121924
1367 0.19565581949670907 0.47253347495382236
1368 0.5718866638326904 0.48064435885162304
1369 0.4332584387227585 0.3494143692684555
1370 0.4942207574284677 0.11404212576076234
1371 0.16546860021932797 0.4449643719096221
1372 0.4890131705098215 0.17599587701325992
1373 0.23740639694041377 0.38111094427836667
1374 0.7707564878671584 0.8565425489749601
1375 0.8664874342646262 0.48833159155014894
1376 0.44320360199266795 0.3145120727564745
1377 0.536961299411506 0.5993936167588851
1378 0.2853512754354913 0.25823390660713696
1379 0.35937328110706634 0.3755039792868071
1380 0.19754098659767294 0.4608288310239602
1381 0.07335956876534888 0.9321438836621289
1382 0.5680325229757927 0.37709184206498025
1383 0.3170966060279288 0.5687363294119603
1384 0.7774918372699027 0.2134387864834465
1385 0.8450753501357802 0.2031648079640419
1386 0.33106811498464217 0.3109387761319796
1387 0.7426341162365754 0.9649850769217414
1388 0.009149451002130937 0.7006592110561317
1389 0.5142019072930732 0.6978339148713367
1390 0.7347793126438574 0.6558351161350258
1391 0.3050996014854839 0.9263121333592449
1392 0.22465130854287885 0.6255072827047778
1393 0.5151725154733945 0.08026351470168203
1394 0.8425550853587864 0.44094748604720335
1395 0.945205674355043 0.16196509563606287
1396 0.9152232492813561 0.6769433045059458
1397 0.27154561282482026 0.5269086581727012
1398 0.16199858456200145 0.45858282617214896
1399 0.14077064233409653 0.8408923379266564
1400 0.2434254773553609 0.5657458624052123
1401 0.7969255716863568 0.9240790656803065
1402 0.19376968334152211 0.7474157345353624
1403 0.5095135179604842 0.15870230152938813
1404 0.07256511192180459 0.778863949890708
1405 0.5839045162192598 0.5390468829427406
1406 0.568765108358409 0.44147234423031045
1407 0.8076751794807138 0.07218223307468741
1408 0.2702985968605346 0.6274230043237442
1409 0.4647572920269999 0.5384433715150764
1410 0.6247254270868801 0.8432811375450302
1411 0.747951865483993 0.48876655173239025
1412 0.3089785945823289 0.6452186566825964
1413 0.5034428520075227 0.38993020044024684
1414 0.15314734279570663 0.7971476316369194
1415 0.5249503170706779 0.493189665555708
1416 0.9692198704483747 0.17455602473549936
1417 0.3067277640087661 0.24738863366636532
1418 0.546125613486654 0.950732474937724
1419 0.09027147759655951 0.3464727718092335
1420 0.9428492463090316 0.2844926892966846
1421 0.04547146482750486 0.10149338219730641
1422 0.5107094279527595 0.8674771247350933
1423 0.9703941763826341 0.5067233265499868
1424 0.40587003309429615 0.7770838534850012
1425 0.9132652737705982 0.03670883495541499
1426 0.03548668437509983 0.3686403042673593
1427 0.8754613019781021 0.8627946025012013
1428 0.22801679618887172 0.04837413867412088
1429 0.25925000624372274 0.33570013109388763
1430 0.042963969578412975 0.9833845416598622
1431 0.39092575732719614 0.9536069963333691
1432 0.533803415289662 0.7440312580458441
1433 0.9461127112582446 0.7062653512208223
1434 0.874229692799347 0.4241321616832816
1435 0.7442474584327653 0.9378223953227391
1436 0.5916468845070358 0.09967670435903819
1437 0.5811371344243225 0.2842091068083862
1438 0.9976443490693936 0.3855340876645942
1439 0.7457589464406231 0.578690934908413
1440 0.5174847895261839 0.7670658658337124
1441 0.2638340575742827 0.03702319018820299
1442 0.8791058477115286 0.029376688023168507
1443 0.4609172653490401 0.9469241124640008
1444 0.3774108811252137 0.7780015421552353
1445 0.6089602365166695 0.9999264880918023
1446 0.204515006004088 0.2837738605223016
1447 0.5751187265991803 0.8863611745804247
1448 0.777095785423079 0.5086247785655602
1449 0.4202817856094867 0.5223506526588239
1450 0.12947566339590355 0.19794619252046153
1451 0.3906119072325538 0.9385030408111668
1452 0.7717367723971927 0.720504349950764
1453 0.9222986096930932 0.5251324114292654
1454 0.20559532136282888 0.25530692691697543
1455 0.33342940746076355 0.6452287315523153
1456 0.6833787094412128 0.645844797806897
1457 0.6463935818085073 0.4134922037100732
1458 0.7329846479260836 0.8997244786693122
1459 0.8828122975519713 0.6302612526201024
1460 0.015571614221473795 0.28074043653814973
1461 0.0031457771936396206 0.23164375433026407
1462 0.24083319528005398 0.10619646682411132
1463 0.20836990639686448 0.21014187422844943
1464 0.31357970643936106 0.23715285113414486
1465 0.5054709601778304 0.40421342654786374
1466 0.6750263799518778 0.45621463769271053
1467 0.2480737737410158 0.48654606816641266
1468 0.20526317361859014 0.6382302380417681
1469 0.07330536800460508 0.39578034577808563
1470 0.3010220417564158 0.766453330658767
1471 0.280675580631773 0.6164054895761363
1472 0.4268331494090595 0.3845950310937366
1473 0.9055073741651818 0.10505284705981033
1474 0.43202541059291355 0.7407422118408283
1475 0.4238724788891465 0.7785078894247394
1476 0.45342410951487 0.04471684741192761
1477 0.474203898000363 0.5215717738921333
1478 0.02741290546041919 0.6110668244325579
1479 0.32156137376491 0.6106282477106452
1480 0.1944047233258296 0.6876051641687813
1481 0.9838681466259259 0.7394097872391767
1482 0.6222774828477727 0.3045645987074277
1483 0.9268950723257234 0.44148046522818596
1484 0.1384723040539786 0.42794070490696
1485 0.9952557008860762 0.5766626074419217
1486 0.27297372280858634 0.8997028395263766
1487 0.33871242447217575 0.27762950978920675
1488 0.08198403798288945 0.17610246240582395
1489 0.3687940799915247 0.7919778539613502
1490 0.8483742958247186 0.025208781615655207
1491 0.7455559182726912 0.487078174109125
1492 0.24943930116687418 0.3590864120669419
1493 0.3580243725540937 0.028631657472036998
1494 0.553383842726892 0.8212046114549929
1495 0.646487408492238 0.39367534760003
1496 0.5768858022989262 0.8111916058100935
1497 0.05047981699504511 0.4457637805292778
1498 0.8865257695044687 0.9831116842194475
1499 0.8409931805900848 0.32633343232373613
1500 0.30399017264146433 0.5410051939770242
1501 0.22531978328426527 0.7636506036030036
1502 0.14645400575553968 0.0005248564861154437
1503 0.32717866624787906 0.2455931123323437
1504 0.701800060121387 0.6215202762686929
1505 0.8503998388804926 0.28350054089427024
1506 0.5108048109909827 0.4013563280271506
1507 0.7253744072084434 0.6790848562553886
1508 0.8515037355080473 0.09326300469099025
1509 0.6929266219076625 0.8047509033052208
1510 0.2497717428207028 0.6389831760182219
1511 0.19644386359607036 0.1452061389232845
1512 0.07873433496804261 0.8989372585859214
1513 0.6333929664468932 0.9044963654629345
1514 0.6481730022173472 0.5885756372065505
1515 0.4917523023057607 0.708254586261468
1516 0.13903839504018978 0.5890270031271668
1517 0.5548359981506025 0.5361391840411516
1518 0.6175784642399202 0.5287908587529399
1519 0.30381430059314074 0.1452295831657764
1520 0.0941526695430448 0.23686120865487426
1521 0.7424584215328209 0.7857500199191502
1522 0.9529197873380151 0.8896309894909572
1523 0.2985887421554001 0.562820678875349
1524 0.5786663428032529 0.6735678843730016
1525 0.3613053675081418 0.16329066119279856
1526 0.9684825816077411 0.6558472898016912
1527 0.45307026849884746 0.9917687967885683
1528 0.2101411138184759 0.6664306761693785
1529 0.8533579458274556 0.18806532373108864
1530 0.1984648897439194 0.6486930445553666
1531 0.7110925814968316 0.4273689865721261
1532 0.09654776485835237 0.25256055719053294
1533 0.9215067896988677 0.9234637573121621
1534 0.6658425450014153 0.7990956832536439
1535 0.7808323240196873 0.4790644994127051
1536 0.6545409040922131 0.5905675502106819
1537 0.35071469824820756 0.47663676308031455
1538 0.2554270035728291 0.517087099653955
1539 0.3080126024573898 0.39814123479476926
1540 0.0988301198933661 0.8894817825694262
1541 0.6071665250099311 0.18912137313472488
1542 0.2534530755231549 0.9040718777893759
1543 0.037647574498460346 0.9279036528761627
1544 0.29530901233672846 0.06735407785110126
1545 0.3534887855341351 0.6839785841229578
1546 0.721054256503566 0.7430212959669354
1547 0.09667325654148284 0.43884720910497754
1548 0.6310112681653022 0.11753785647355919
1549 0.23767340275112736 0.19834082094219607
1550 0.6097734212215227 0.7583910207493241
1551 0.007320098993080393 0.8562506228417183
1552 0.10316374188334831 0.37102090218909334
1553 0.4252537112190342 0.4594620355590854
1554 0.5640282546213605 0.8668744747004357
1555 0.4206552399046094 0.5779697617457723
1556 0.9033360792051256 0.13787179179508302
1557 0.5229951505907688 0.8129926483748998
1558 0.46554236184089626 0.6106380517183734
1559 0.11647685808214026 0.22759909556150848
1560 0.8859844753500489 0.9316506839369517
1561 0.5725061983987076 0.5070152529038022
1562 0.5386732582974977 0.8249594272619547
1563 0.4808114590191024 0.39242011418448397
1564 0.7717965613579719 0.7453784685401339
1565 0.6768083005833974 0.24957216945612548
1566 0.26227260818472586 0.8844583360149133
1567 0.1530816798380238 0.3659356385523629
1568 0.051174353436116315 0.42354153113851845
1569 0.17568076797314636 0.36754689808061547
1570 0.8123542561674487 0.44785912392046234
1571 0.06337718608426335 0.610834045068492
1572 0.16843971582609352 0.7727687101063899
1573 0.035760158039863876 0.5441696175873131
1574 0.30448788089211865 0.03858036912499341
1575 0.24697644996697887 0.49567321279731846
1576 0.8040054355770355 0.7940662517026995
1577 0.6455927635701078 0.8095960525174665
1578 0.6625399145068688 0.6454761061740194
1579 0.7428524439040164 0.5849231112072193
1580 0.408192045468314 0.10433367244685288
1581 0.5693641897782572 0.04897246976609437
1582 0.2719887449673659 0.6748638794076041
1583 0.9686449982880281 0.10310799794998726
1584 0.42481540711674204 0.34584130513384814
1585 0.7280286625159472 0.85275553781126
1586 0.20735264897323558 0.05557896800481821
1587 0.9263530595445459 0.08236451143840795
1588 0.37135486404689166 0.7974310740174558
1589 0.921792076630867 0.4751346527510979
1590 0.3841171286038223 0.703164462823005
1591 0.5128557746117138 0.3418485404881568
1592 0.06581326728492787 0.877706681510948
1593 0.4335846954215402 0.20433842801386437
1594 0.3204962190888938 0.7434332500396625
1595 0.4317184622128615 0.163399229851944
1596 0.268852554814773 0.4984692788845497
1597 0.2670607507528019 0.18374001068119272
1598 0.9848695497899244 0.7243293663364387
1599 0.2969716700368894 0.8450250013546436
1600 0.07700188349499437 0.21670484546248203
1601 0.5357871841416416 0.24285216562380607
1602 0.8269521212122533 0.39732939251488597
1603 0.1878165678676057 0.6527281469568105
1604 0.648519686574992 0.2657944282342083
1605 0.5724054757287297 0.8224017321570133
1606 0.8028332837859798 0.33183827274127786
1607 0.829033861103045 0.2331852556508296
1608 0.054897074733907036 0.23483706826666206
1609 0.08559666798431231 0.3799019456954319
1610 0.3579130697891839 0.2726477217740122
1611 0.6816540777291309 0.9299018433167319
1612 0.7949996852388641 0.03726079550744532
1613 0.9029593053120958 0.8297382535239192
1614 0.1045611397041849 0.07084211609000557
1615 0.7079235258649885 0.07898661828966547
1616 0.8851498090856131 0.016195559922283498
1617 0.8999993268218422 0.7874922112424785
1618 0.3918025371825381 0.280286049926595
1619 0.07891360676921566 0.2653775278513304
1620 0.7457515313490547 0.5097773375562227
1621 0.008251235000775181 0.27933211534704694
1622 0.5430490851343156 0.4289941801406225
1623 0.06265383668352487 0.33779681471791645
1624 0.34410734215119854 0.6920281362191704
1625 0.7354114534968894 0.4092311094266744
1626 0.7872128102881613 0.29135990316374005
1627 0.4014741439035304 0.7272100054480425
1628 0.1313593677539946 0.4124785833140182
1629 0.5661652963814642 0.6544748642056344
1630 0.30469353513831576 0.546663203148605
1631 0.5204654011971687 0.9238681557428704
1632 0.04231825679692314 0.7651604073559088
1633 0.35850389898289603 0.5674880807759304
1634 0.4816184850990751 0.7622656251295292
1635 0.585523241470099 0.7938284822371134
1636 0.23863202673159423 0.3303376215807693
1637 0.5086825174321191 0.536898102493533
1638 0.11085962306667563 0.6814149300658051
1639 0.21543362690733947 0.3019041286219821
1640 0.47010482694879585 0.9526994092347049
1641 0.5306443479641175 0.28820298082300566
1642 0.3876742825454975 0.9238099856570254
1643 0.9646308437464107 0.9995738265595735
1644 0.4957678813623182 0.7283462439285484
1645 0.016942544690716654 0.12921985317351414
1646 0.5772878307952992 0.995222208006553
1647 0.8563455631877391 0.9284200311408308
1648 0.16532840843264696 0.30485743406100485
1649 0.5321802896610403 0.840932435847927
1650 0.5168077249389836 0.29384143469848856
1651 0.6413138804708386 0.753941058283487
1652 0.14604867399525756 0.5795084902056535
1653 0.5341156762243516 0.027776273344320423
1654 0.8945908191078868 0.6216881845204718
1655 0.3560325496348328 0.758390935446767
1656 0.4979452648475191 0.5474772051887109
1657 0.795112413768362 0.6521412477773048
1658 0.9969109971984561 0.9149231199315381
1659 0.49044056776068135 0.4604075155397116
1660 0.8107035713566662 0.8056610065517854
1661 0.02727179592042628 0.2998791199950064
1662 0.25350293427849613 0.0070027137737685985
1663 0.21282800662217094 0.9079816245014009
1664 0.3421506586954588 0.03163382629823497
1665 0.6914090504901611 0.387439924420404
1666 0.8570792129976442 0.9423778983564767
1667 0.6636479395155589 0.4090417608627711
1668 0.6624627693691033 0.165022109900403
1669 0.7029960307390795 0.44763551852488237
1670 0.23559249050908093 0.6544209972573632
1671 0.5608606304457174 0.30802799549733495
1672 0.7044783836118693 0.7273707471478877
1673 0.48414739695179887 0.6206830455384102
1674 0.9907440384691182 0.9474615582445522
1675 0.4723073577063417 0.8844194408807713
1676 0.07563990851187519 0.04841563180184405
1677 0.8599377072774695 0.6287906781345713
1678 0.8678711658421513 0.05993953641914407
1679 0.284182712340022 0.3814540725177261
1680 0.9998622598406564 0.9034496943485811
1681 0.6845016602179137 0.5332510060883948
1682 0.4902462447423669 0.5316525094789379
1683 0.8270937517413307 0.5313546208026648
1684 0.11670611063640746 0.5475581375514371
1685 0.13382353366822963 0.734436792180505
1686 0.8188266202879344 0.4837552644698214
1687 0.12285654731127149 0.8942464911562971
1688 0.19509550284767319 0.7194785054485858
1689 0.017510995488206116 0.5945083600441592
1690 0.4649779462237277 0.8299008489440451
1691 0.48054056024364133 0.8637709923740006
1692 0.39786767993515326 0.9938733180702745
1693 0.5633174050937595 0.18511906315338156
1694 0.37514422332944 0.08529924595687965
1695 0.5422346862596445 0.32547992968207073
1696 0.5128273742119068 0.8749719284996731
1697 0.024022246851645557 0.34288986685689904
1698 0.45798305157008845 0.9646242684782097
1699 0.7515838644605691 0.8850665808568814
1700 0.2712594770781024 0.7638821133436521
1701 0.44239264010006496 0.3653711522511147
1702 0.46531150284258704 0.1528751007453507
1703 0.9418026147242593 0.8501953234492983
1704 0.4721667654466989 0.8916310200825311
1705 0.526382832768364 0.03404690028973045
1706 0.08317500619659046 0.7337704769445275
1707 0.33195526569135736 0.8095712399869021
1708 0.3752788890789934 0.37955091399985685
1709 0.6998510036754271 0.7322382336560105
1710 0.894819602628093 0.19797929940242964
1711 0.37405475162037083 0.19129133203506088
1712 0.9556553684920108 0.3992574978445057
1713 0.13818133499453256 0.9644406583609464
1714 0.42053060328922165 0.18799379734392851
1715 0.21996550994140573 0.27073124544471916
1716 0.14486628486717723 0.23506649114132627
1717 0.4638165105840738 0.8385366326828352
1718 0.1344140814948075 0.6747531738677252
1719 0.6849407307514184 0.19288798958953135
1720 0.9103049177266925 0.842180864265349
1721 0.047160723003426774 0.29075856101315223
1722 0.046906946367879176 0.8239386955735376
1723 0.7956381762434681 0.4782972627564017
1724 0.3856645891143756 0.6334207020201237
1725 0.31822140387330744 0.23035197930307671
1726 0.37262086629546975 0.1764039798268251
1727 0.23799795763887566 0.08900455981699684
1728 0.4791770385280095 0.11190521607412574
1729 0.4245002411523715 0.4820206375006987
1730 0.012977573110472984 0.5576396103576464
1731 0.08884131004429396 0.1047267361453611
1732 0.37590219149350435 0.05231269046183529
1733 0.23532539044068246 0.8454600258293172
1734 0.4237055747425149 0.7023805621417327
1735 0.8316241147791811 0.5837879088198227
1736 0.9054753593867998 0.05196213386678361
1737 0.45865933878386 0.5490063636482103
1738 0.6639010106679816 0.46508977364542015
1739 0.30876745293874075 0.3433083880771659
1740 0.4439863789058748 0.5601393553333092
1741 0.7956830063425091 0.5014371309230975
1742 0.702300601020455 0.10715679331210726
1743 0.6215271770943283 0.6548701505209832
1744 0.32994849993494535 0.8879629003933222
1745 0.3147410882854307 0.5898905646559466
1746 0.01430708897366939 0.34642094170553284
1747 0.4494560868036781 0.40615712575135043
1748 0.950695742852592 0.9415054069142096
1749 0.20781704918125543 0.8504177783602642
1750 0.5871474918635328 0.6001287012653612
1751 0.24602879613522832 0.9607949598367872
1752 0.18715213258983832 0.08260974172151558
1753 0.9300042718429061 0.4627807978066587
1754 0.23891013487200796 0.6471081004776815
1755 0.3935160870879659 0.8109587182488642
1756 0.956423093961663 0.3635762423137352
1757 0.8574763989260911 0.2079248629245426
1758 0.6470245869708995 0.11321972129805946
1759 0.5988085739702919 0.49857669884271705
1760 0.4338525895400116 0.5695812016920021
1761 0.5644587470068748 0.6028497413204752
1762 0.10939522810250879 0.4881930386557156
1763 0.44068506902302107 0.2841441025976482
1764 0.7809487775763687 0.25988349497981145
1765 0.48945766908398003 0.5636701294373485
1766 0.11249478117755207 0.8166443952398553
1767 0.17293314819556804 0.2764738494133956
1768 0.5919228503567557 0.3258037338133275
1769 0.7573934704621638 0.915541667573566
1770 0.21422343709824854 0.9136648715801365
1771 0.07235162524643202 0.20234828950910533
1772 0.49781079970121656 0.3831298627739673
1773 0.9588085578041069 0.6951066392090279
1774 0.8881869835016448 0.956158516223635
1775 0.9771869564941589 0.9699496079723857
1776 0.45154243060315524 0.3329387985407233
1777 0.34673251523867965 0.45099178600934475
1778 0.7327157635006225 0.5716261302708696
1779 0.9569606192244683 0.28794054036836403
1780 0.803842905425839 0.7213914921269015
1781 0.013764524477564932 0.7100303954672436
1782 0.19556285731922263 0.7761314613953405
1783 0.9015676208819893 0.3275656071552935
1784 0.5745302231543514 0.07453279412356462
1785 0.4025042565965825 0.2158608792311283
1786 0.7691027389053618 0.39841000933833326
1787 0.07440715399447007 0.19376889690792387
1788 0.6582473244555419 0.7566647651765073
1789 0.15405705863027208 0.45040493218547617
1790 0.4962050749525485 0.28674915770612264
1791 0.13088650350740905 0.903725737861466
1792 0.04664492752112581 0.8840265142495405
1793 0.7777989816748775 0.8203471513596763
1794 0.46796183734872876 0.8575685270177764
1795 0.2793459564054509 0.0918444865432052
1796 0.02362366199377941 0.28790590272593397
1797 0.7986520553433792 0.961142245269537
1798 0.8745373877649447 0.05129799201852625
1799 0.8358279701067232 0.6850041629799971
1800 0.03191984964375305 0.39142188048019955
1801 0.8414583630718667 0.9647199571304634
1802 0.5619228309117155 0.43516923846611266
1803 0.41571886908107136 0.18108582145047414
1804 0.04187265859824607 0.3155779009893054
1805 0.8912021950193568 0.03634613530381814
1806 0.06215017813294954 0.9251788139780845
1807 0.7489053300189425 0.43519242094673194
1808 0.15816978829466632 0.5692998557071808
1809 0.8681120495608271 0.813583219090421
1810 0.693495176548598 0.7098262004584918
1811 0.9821674131149256 0.11584912761722244
1812 0.1694655786610414 0.16884750437994722
1813 0.46273574141523544 0.7228116844960835
1814 0.6648441383994311 0.42496246707124274
1815 0.18185236118937143 0.08749601041628274
1816 0.34875991257367966 0.9493035702645326
1817 0.1563084743823021 0.062433795418021076
1818 0.2689486319300335 0.6998312878080734
1819 0.08603423967970736 0.6722531442372665
1820 0.5401095108545608 0.38087369333483945
1821 0.609220471251552 0.3741482998513904
1822 0.504647832786548 0.43904231990575293
1823 0.1202013352465715 0.8453442994669659
1824 0.29337682535152654 0.1497195771888915
1825 0.7102684692735407 0.6249750271788762
1826 0.30881735209471994 0.7269863705366827
1827 0.332074661416223 0.7155130454145356
1828 0.3927388762829547 0.9123827580852758
1829 0.2354226919571626 0.9041408614530002
1830 0.8126081211044178 0.7326331707438397
1831 0.8576296710134681 0.5383195429594726
1832 0.74275733601631 0.028326978657603807
1833 0.32659804179815655 0.3252945481675572
1834 0.4596711351815791 0.17830925930725405
1835 0.35937565185388876 0.7384310917582687
1836 0.5263975229258794 0.5450383603763856
1837 0.37728420319249134 0.6253704878221754
1838 0.9067606346864373 0.8210939671802392
1839 0.746376713133051 0.5681087891536276
1840 0.756757920590035 0.055361881053322515
1841 0.6776714205199914 0.4173273798114213
1842 0.9293485738445741 0.3492296969669678
1843 0.7183089377108871 0.19076479919171518
1844 0.42482438376290554 0.5283380502664788
1845 0.6468998194930836 0.3205687532533259
1846 0.11178897655003972 0.32477233732424104
1847 0.4816717871379098 0.4452976318759675
1848 0.18880942137832712 0.15390401081403238
1849 0.46445695310063473 0.4361339277756464
1850 0.36549694531621424 0.12458831866716358
1851 0.5982114609530012 0.08783151650141541
1852 0.9703788167404718 0.2727080845013943
1853 0.7378440200829851 0.533000203636781
1854 0.7820832556347544 0.6021503255118485
1855 0.6504831332984112 0.6110900035409113
1856 0.6827605391260865 0.2680078974439887
1857 0.4533503423179184 0.07610529224314566
1858 0.09146370651800251 0.4422197224527191
1859 0.46357779208963823 0.6057501214769665
1860 0.3432208858585305 0.14003802833679502
1861 0.677595823746937 0.9571807694214758
1862 0.9668462933566522 0.4873500659248976
1863 0.4947498767347791 0.8687864952117522
1864 0.19326497922655383 0.9895387744801066
1865 0.6214348815690212 0.34825887554696056
1866 0.6147056572820642 0.9676486566722772
1867 0.42181918226988724 0.8241618304091052
1868 0.27587692234432437 0.9134736103991439
1869 0.735720211271358 0.9134237100401114
1870 0.1304755551468827 0.9170188932755061
1871 0.02159078727073105 0.9667549896354147
1872 0.44891802776718537 0.9069280252903266
1873 0.6316155296764115 0.036844388060291555
1874 0.8120073025245157 0.25934900455571874
1875 0.8702289170694996 0.19717709524021765
1876 0.23107410647450932 0.9310621248078735
1877 0.9623736994248634 0.25143329076605303
1878 0.6567645933795343 0.8466921794746448
1879 0.7400619947145703 0.5957041685463997
1880 0.7580072128099379 0.0899203423795425
1881 0.3786770068894567 0.2611091692831359
1882 0.0491718015836039 0.4799966688389746
1883 0.787044983971766 0.7912210975883927
1884 0.4311202559456968 0.04264721063560073
1885 0.39980693127531663 0.433014457160143
1886 0.6358141042354586 0.4979840415363539
1887 0.08143791890442376 0.7322590959447316
1888 0.895050611656492 0.7528547676024302
1889 0.12407199185041962 0.04761595451956435
1890 0.4023265704730744 0.8254821339443599
1891 0.37223389302352927 0.3127231980964946
1892 0.8877165882319157 0.7456689500196323
1893 0.2477914598812957 0.738522380826982
1894 0.4742654070811313 0.14588660613342486
1895 0.5719428702113322 0.5316226474978852
1896 0.9946471711108901 0.4619574990425267
1897 0.5852119550177903 0.9667837189051517
1898 0.8559969525257591 0.22905096971960703
1899 0.2614353341439817 0.8234286657187689
1900 0.5480312297398726 0.04467888694201272
1901 0.6868617456740564 0.480322012889556
1902 0.20074656936281843 0.04006722366121984
1903 0.7981271140643497 0.3708026687580622
1904 0.603540394957803 0.2963640993202806
1905 0.0573645087942134 0.023745132322077533
1906 0.7045464341652679 0.9635254847985045
1907 0.10931117932403 0.7103123257933263
1908 0.44891990412149074 0.8459482842808539
1909 0.6139388147562123 0.8480928218165635
1910 0.29852564246720614 0.47573433218906624
1911 0.2903400978965853 0.490731355258214
1912 0.856151906049724 0.9886621101001405
1913 0.2377695731138474 0.26368413354861564
1914 0.20813769366603807 0.2183591655498588
1915 0.007588949551365132 0.33082188609123364
1916 0.3940152212636342 0.4058863175611155
1917 0.25126307557010663 0.47569644971469704
1918 0.5882734119028007 0.42239465749626703
1919 0.12522966093323884 0.9576311378326593
1920 0.9815568449423079 0.7203857253530802
1921 0.24152430256714286 0.0740820356815306
1922 0.8181459077915448 0.3540431453912344
1923 0.54408713560644 0.362355340168934
1924 0.17905582247276064 0.10630943722716679
1925 0.9551042276974337 0.9152970105207383
1926 0.7021024383939984 0.3312794621554128
1927 0.017436436070479733 0.7101423380163108
1928 0.3887931406297259 0.47506889383896167
1929 0.3684843702421249 0.0006496351360811836
1930 0.7901644831263593 0.3734762337162526
1931 0.27601344854523113 0.6597568180882122
1932 0.1845768738283844 0.8227213701711349
1933 0.7855079898998872 0.9278083554801836
1934 0.2837035796892845 0.008435205950243163
1935 0.538624817275247 0.8377776486935861
1936 0.07139454759857511 0.35448293461292524
1937 0.7685676272645912 0.7195942370720703
1938 0.8751449839292893 0.10403355995233732
1939 0.2987232804342148 0.13681360759150207
1940 0.029162932654624885 0.9479228870674341
1941 0.26476456361564993 0.20052480938890138
1942 0.14584400199540848 0.5720392087093378
1943 0.7498890812759246 0.2835052140767229
1944 0.03623492522269778 0.09992297398343841
1945 0.11943715152990841 0.03366152129277422
1946 0.17734836143754273 0.7325295355837312
1947 0.4768626427015591 0.8302158006135589
1948 0.986477364350112 0.9264537412081788
1949 0.6429412469678082 0.480668262515931
1950 0.14079435206047697 0.9679253573833136
1951 0.18032791350734467 0.6047142893821126
1952 0.9145772024339963 0.42441422768324144
1953 0.4414859263432461 0.5920987175137982
1954 0.614204961672579 0.9383739904865422
1955 0.6036438861948251 0.6103062203234121
1956 0.5809639126280826 0.011521962953823683
1957 0.9133031342430817 0.2417954991097716
1958 0.7273427610993054 0.013633765642331097
1959 0.2505858482382801 0.7194824787615706
1960 0.21998879597094778 0.46238554242824337
1961 0.5378416503887711 0.47254990237509553
1962 0.9661451388634519 0.3262500912506935
1963 0.8633241563548032 0.0745401021039247
1964 0.4221752476405328 0.4884963367513727
1965 0.12084315664358236 0.2814038661871535
1966 0.7876432606499547 0.26264328676813253
1967 0.9203360019919365 0.2580379041784333
1968 0.2865391774620638 0.5692929581155312
1969 0.8766888610176552 0.9287713027237299
1970 0.011855332348243097 0.902666710540373
1971 0.9796193356796953 0.20948980728310151
1972 0.041119624409122646 0.27327926773802735
1973 0.0654164031297838 0.3255899402570479
1974 0.5139898296080636 0.9849450984543543
1975 0.5937011621916144 0.10748775180640091
1976 0.15760593428696135 0.6338010593661944
1977 0.1399903355984411 0.08996897568025541
1978 0.6508879153379857 0.6016435060700852
1979 0.17997350505839216 0.6312196490303412
1980 0.03611344161584096 0.7594368159491167
1981 0.1969079216301063 0.8458378387161811
1982 0.20469714560525787 0.7631827241398113
1983 0.7895446537996781 0.7878877272077134
1984 0.5168673934756591 0.3228090010848589
1985 0.7397420869518723 0.15607008764766017
1986 0.5351989655923612 0.4504904289684719
1987 0.22438689627435826 0.08890471985122328
1988 0.505071334132838 0.8595404956153156
1989 0.4395616148507473 0.704601796151826
1990 0.02507908141122117 0.8345995864192524
1991 0.5434166280389289 0.7559681976667051
1992 0.8104077428083397 0.4721582679642805
1993 0.8484414170303266 0.09229535892382223
1994 0.5984480621199441 0.6177970207602161
1995 0.8249905764886138 0.7926612054340789
1996 0.36016892625622454 0.28282221065396784
1997 0.3099156544897097 0.4629419893391956
1998 0.45867229998843795 0.16235584261414537
1999 0.2621044349359052 0.7393040793558573
2000 0.8697245758554448 0.10401153082709169
2001 0.8476781332186613 0.40080855038852414
DEMAND_SECTION
1 0
2 8
3 5
4 9
5 3
6 8
7 6
8 2
9 8
10 8
11 1
12 4
13 5
14 4
15 7
16 2
17 5
18 9
19 5
20 7
21 7
22 4
23 9
24 7
25 8
26 4
27 2
28 5
29 8
30 4
31 7
32 9
33 9
34 9
35 2
36 1
37 8
38 8
39 3
40 6
41 5
42 9
43 4
44 2
45 5
46 5
47 3
48 2
49 4
50 9
51 7
52 4
53 6
54 6
55 1
56 1
57 7
58 3
59 9
60 8
61 6
62 8
63 4
64 6
65 3
66 8
67 2
68 2
69 6
70 9
71 1
72 9
73 1
74 4
75 7
76 9
77 6
78 6
79 9
80 4
81 9
82 4
83 9
84 4
85 3
86 9
87 4
88 8
89 5
90 2
91 5
92 4
93 9
94 7
95 5
96 7
97 3
98 5
99 9
100 2
101 9
102 6
103 7
104 1
105 7
106 1
107 4
108 7
109 2
110 8
111 2
112 4
113 7
114 3
115 6
116 7
117 4
118 9
119 2
120 3
121 5
122 1
123 5
124 7
125 2
126 5
127 4
128 3
129 4
130 2
131 9
132 8
133 2
134 4
135 6
136 8
137 1
138 6
139 1
140 2
141 8
142 1
143 5
144 4
145 1
146 5
147 6
148 9
149 1
150 9
151 6
152 9
153 1
154 1
155 4
156 6
157 7
158 1
159 6
160 4
161 5
162 7
163 6
164 6
165 4
166 9
167 5
168 3
169 5
170 4
171 8
172 4
173 4
174 6
175 7
176 6
177 8
178 5
179 7
180 2
181 1
182 2
183 7
184 3
185 2
186 5
187 6
188 5
189 9
190 3
191 7
192 6
193 4
194 9
195 3
196 2
197 4
198 1
199 5
200 1
201 6
202 8
203 1
204 9
205 2
206 9
207 3
208 3
209 6
210 6
211 7
212 9
213 6
214 7
215 1
216 2
217 7
218 7
219 4
220 3
221 6
222 8
223 3
224 7
225 5
226 5
227 4
228 4
229 5
230 9
231 3
232 9
233 7
234 4
235 4
236 9
237 2
238 8
239 6
240 2
241 9
242 3
243 7
244 3
245 8
246 9
247 9
248 3
249 2
250 4
251 4
252 8
253 3
254 5
255 6
256 4
257 1
258 3
259 5
260 2
261 5
262 9
263 2
264 4
265 7
266 6
267 3
268 8
269 4
270 5
271 6
272 6
273 3
274 4
275 9
276 9
277 6
278 6
279 8
280 7
281 7
282 5
283 7
284 6
285 1
286 9
287 7
288 5
289 5
290 6
291 4
292 8
293 7
294 3
295 4
296 4
297 5
298 5
299 5
300 1
301 1
302 3
303 3
304 4
305 3
306 6
307 9
308 3
309 3
310 3
311 3
312 3
313 4
314 1
315 6
316 1
317 2
318 4
319 7
320 9
321 2
322 1
323 2
324 6
325 2
326 1
327 8
328 6
329 8
330 9
331 6
332 5
333 7
334 9
335 8
336 7
337 3
338 7
339 3
340 6
341 5
342 9
343 7
344 8
345 2
346 3
347 1
348 8
349 2
350 1
351 5
352 7
353 8
354 4
355 5
356 2
357 4
358 6
359 2
360 1
361 4
362 2
363 3
364 4
365 9
366 5
367 8
368 5
369 7
370 6
371 5
372 3
373 9
374 7
375 7
376 8
377 4
378 5
379 9
380 9
381 6
382 3
383 3
384 6
385 6
386 7
387 9
388 1
389 7
390 9
391 1
392 3
393 7
394 3
395 3
396 6
397 5
398 5
399 2
400 6
401 1
402 1
403 5
404 6
405 5
406 6
407 8
408 5
409 7
410 3
411 2
412 8
413 8
414 5
415 3
416 4
417 7
418 5
419 8
420 5
421 7
422 9
423 4
424 4
425 8
426 2
427 1
428 8
429 8
430 6
431 1
432 5
433 4
434 8
435 1
436 7
437 9
438 3
439 8
440 9
441 6
442 1
443 5
444 7
445 6
446 6
447 5
448 8
449 9
450 8
451 6
452 9
453 6
454 8
455 3
456 6
457 9
458 2
459 5
460 2
461 9
462 9
463 8
464 4
465 3
466 1
467 1
468 4
469 3
470 9
471 5
472 9
473 5
474 4
475 1
476 4
477 5
478 6
479 4
480 2
481 3
482 4
483 7
484 7
485 6
486 1
487 3
488 4
489 5
490 7
491 1
492 3
493 1
494 5
495 2
496 1
497 2
498 7
499 9
500 9
501 8
502 7
503 9
504 4
505 7
506 5
507 1
508 2
509 7
510 5
511 2
512 6
513 8
514 1
515 4
516 3
517 6
518 8
519 3
520 4
521 7
522 9
523 5
524 9
525 6
526 7
527 7
528 3
529 9
530 7
531 2
532 3
533 9
534 8
535 2
536 4
537 2
538 4
539 8
540 7
541 2
542 8
543 4
544 3
545 5
546 9
547 7
548 2
549 9
550 6
551 8
552 7
553 8
554 8
555 5
556 9
557 1
558 7
559 7
560 2
561 7
562 7
563 1
564 4
565 8
566 8
567 5
568 2
569 2
570 1
571 1
572 5
573 6
574 8
575 6
576 2
577 3
578 1
579 5
580 5
581 1
582 9
583 5
584 8
585 5
586 5
587 3
588 1
589 7
590 5
591 3
592 6
593 2
594 1
595 1
596 8
597 2
598 5
599 4
600 2
601 2
602 1
603 9
604 9
605 3
606 9
607 8
608 3
609 8
610 3
611 8
612 7
613 3
614 9
615 9
616 2
617 6
618 5
619 1
620 5
621 7
622 9
623 9
624 8
625 2
626 3
627 3
628 4
629 2
630 2
631 3
632 8
633 9
634 2
635 9
636 1
637 5
638 9
639 2
640 4
641 5
642 1
643 1
644 6
645 8
646 9
647 2
648 2
649 1
650 6
651 4
652 2
653 5
654 2
655 3
656 5
657 4
658 9
659 2
660 4
661 5
662 7
663 7
664 3
665 9
666 1
667 2
668 2
669 7
670 7
671 4
672 9
673 5
674 7
675 7
676 3
677 1
678 6
679 6
680 2
681 1
682 6
683 1
684 6
685 7
686 5
687 7
688 2
689 6
690 8
691 8
692 4
693 8
694 6
695 2
696 1
697 6
698 8
699 1
700 7
701 5
702 3
703 3
704 4
705 1
706 6
707 1
708 2
709 1
710 8
711 1
712 1
713 8
714 5
715 5
716 4
717 6
718 9
719 4
720 1
721 3
722 2
723 5
724 4
725 7
726 7
727 3
728 8
729 7
730 8
731 2
732 5
733 3
734 3
735 6
736 5
737 3
738 4
739 3
740 7
741 9
742 4
743 3
744 5
745 1
746 7
747 3
748 7
749 8
750 1
751 7
752 2
753 3
754 8
755 3
756 9
757 6
758 8
759 2
760 2
761 7
762 5
763 2
764 6
765 8
766 1
767 2
768 1
769 7
770 7
771 3
772 2
773 5
774 6
775 5
776 2
777 1
778 3
779 4
780 6
781 9
782 9
783 5
784 4
785 3
786 6
787 9
788 9
789 6
790 9
791 2
792 6
793 8
794 3
795 5
796 9
797 7
798 8
799 2
800 6
801 2
802 6
803 8
804 9
805 4
806 9
807 8
808 6
809 4
810 5
811 1
812 9
813 6
814 3
815 6
816 2
817 6
818 9
819 9
820 4
821 8
822 8
823 9
824 9
825 5
826 4
827 4
828 7
829 8
830 2
831 1
832 9
833 8
834 7
835 6
836 3
837 2
838 7
839 1
840 9
841 6
842 7
843 3
844 3
845 4
846 9
847 5
848 2
849 2
850 4
851 3
852 2
853 5
854 2
855 6
856 2
857 1
858 2
859 6
860 3
861 2
862 6
863 7
864 5
865 1
866 7
867 9
868 6
869 6
870 8
871 1
872 8
873 6
874 1
875 1
876 7
877 6
878 1
879 1
880 4
881 7
882 6
883 1
884 2
885 9
886 6
887 6
888 4
889 8
890 1
891 9
892 1
893 6
894 4
895 6
896 9
897 3
898 8
899 8
900 1
901 7
902 4
903 9
904 2
905 9
906 2
907 2
908 2
909 4
910 4
911 2
912 6
913 1
914 8
915 5
916 5
917 3
918 9
919 3
920 2
921 6
922 2
923 8
924 4
925 1
926 8
927 9
928 3
929 1
930 9
931 7
932 8
933 1
934 5
935 2
936 3
937 7
938 8
939 7
940 8
941 8
942 6
943 1
944 4
945 5
946 6
947 9
948 4
949 2
950 4
951 4
952 4
953 1
954 7
955 5
956 8
957 2
958 4
959 4
960 7
961 4
962 1
963 4
964 7
965 3
966 9
967 3
968 7
969 7
970 2
971 3
972 9
973 3
974 8
975 4
976 4
977 1
978 1
979 5
980 9
981 8
982 8
983 6
984 8
985 7
986 3
987 1
988 4
989 8
990 5
991 2
992 2
993 4
994 1
995 4
996 9
997 9
998 4
999 6
1000 9
1001 3
1002 6
1003 4
1004 1
1005 9
1006 7
1007 2
1008 6
1009 8
1010 6
1011 8
1012 3
1013 6
1014 3
1015 5
1016 6
1017 4
1018 3
1019 5
1020 9
1021 8
1022 9
1023 1
1024 7
1025 9
1026 3
1027 6
1028 8
1029 8
1030 4
1031 6
1032 2
1033 5
1034 6
1035 2
1036 7
1037 6
1038 6
1039 7
1040 3
1041 2
1042 4
1043 9
1044 8
1045 5
1046 7
1047 5
1048 7
1049 1
1050 5
1051 7
1052 5
1053 4
1054 9
1055 8
1056 4
1057 3
1058 6
1059 8
1060 1
1061 2
1062 2
1063 6
1064 7
1065 7
1066 5
1067 5
1068 3
1069 6
1070 7
1071 6
1072 1
1073 4
1074 1
1075 8
1076 5
1077 4
1078 7
1079 5
1080 3
1081 6
1082 4
1083 5
1084 2
1085 7
1086 1
1087 5
1088 3
1089 4
1090 1
1091 1
1092 2
1093 9
1094 2
1095 6
1096 7
1097 8
1098 3
1099 1
1100 6
1101 6
1102 5
1103 9
1104 7
1105 7
1106 3
1107 3
1108 2
1109 6
1110 3
1111 8
1112 7
1113 7
1114 4
1115 8
1116 8
1117 2
1118 5
1119 7
1120 4
1121 5
1122 9
1123 8
1124 6
1125 3
1126 2
1127 2
1128 8
1129 8
1130 9
1131 6
1132 3
1133 2
1134 3
1135 8
1136 2
1137 8
1138 9
1139 9
1140 1
1141 8
1142 1
1143 4
1144 4
1145 3
1146 8
1147 4
1148 9
1149 4
1150 9
1151 8
1152 2
1153 5
1154 4
1155 4
1156 6
1157 5
1158 6
1159 7
1160 3
1161 2
1162 8
1163 3
1164 4
1165 8
1166 1
1167 4
1168 3
1169 4
1170 8
1171 6
1172 5
1173 1
1174 9
1175 8
1176 3
1177 9
1178 9
1179 1
1180 9
1181 6
1182 5
1183 6
1184 1
1185 6
1186 3
1187 9
1188 4
1189 6
1190 1
1191 3
1192 9
1193 6
1194 6
1195 1
1196 1
1197 9
1198 5
1199 7
1200 1
1201 9
1202 2
1203 4
1204 5
1205 9
1206 2
1207 1
1208 3
1209 2
1210 8
1211 3
1212 7
1213 8
1214 8
1215 9
1216 5
1217 9
1218 6
1219 5
1220 9
1221 4
1222 6
1223 6
1224 4
1225 2
1226 4
1227 1
1228 4
1229 9
1230 4
1231 8
1232 5
1233 9
1234 4
1235 8
1236 5
1237 2
1238 6
1239 5
1240 6
1241 4
1242 8
1243 2
1244 7
1245 1
1246 8
1247 8
1248 8
1249 2
1250 1
1251 5
1252 9
1253 4
1254 5
1255 3
1256 4
1257 1
1258 3
1259 7
1260 8
1261 9
1262 7
1263 3
1264 2
1265 1
1266 2
1267 9
1268 2
1269 9
1270 2
1271 4
1272 8
1273 9
1274 7
1275 7
1276 5
1277 2
1278 9
1279 9
1280 1
1281 6
1282 6
1283 5
1284 4
1285 5
1286 3
1287 3
1288 3
1289 9
1290 1
1291 3
1292 3
1293 7
1294 2
1295 5
1296 1
1297 4
1298 6
1299 8
1300 1
1301 6
1302 5
1303 6
1304 9
1305 8
1306 2
1307 4
1308 8
1309 4
1310 2
1311 4
1312 8
1313 1
1314 1
1315 7
1316 3
1317 7
1318 6
1319 9
1320 2
1321 4
1322 6
1323 5
1324 7
1325 6
1326 1
1327 3
1328 3
1329 4
1330 3
1331 1
1332 3
1333 8
1334 8
1335 3
1336 8
1337 5
1338 8
1339 9
1340 3
1341 9
1342 1
1343 3
1344 9
1345 3
1346 8
1347 4
1348 9
1349 1
1350 4
1351 6
1352 9
1353 5
1354 1
1355 3
1356 9
1357 3
1358 9
1359 1
1360 4
1361 4
1362 7
1363 8
1364 4
1365 1
1366 2
1367 4
1368 1
1369 2
1370 4
1371 6
1372 1
1373 4
1374 8
1375 6
1376 9
1377 9
1378 8
1379 5
1380 5
1381 3
1382 4
1383 2
1384 3
1385 8
1386 1
1387 2
1388 6
1389 7
1390 6
1391 4
1392 8
1393 5
1394 1
1395 1
1396 5
1397 8
1398 6
1399 9
1400 2
1401 3
1402 4
1403 1
1404 6
1405 5
1406 2
1407 2
1408 5
1409 1
1410 2
1411 8
1412 7
1413 7
1414 8
1415 7
1416 6
1417 8
1418 5
1419 8
1420 7
1421 8
1422 1
1423 4
1424 4
1425 9
1426 7
1427 4
1428 6
1429 4
1430 9
1431 8
1432 5
1433 2
1434 4
1435 4
1436 6
1437 7
1438 3
1439 9
1440 9
1441 8
1442 5
1443 3
1444 7
1445 7
1446 5
1447 6
1448 8
1449 4
1450 8
1451 4
1452 6
1453 5
1454 6
1455 5
1456 4
1457 8
1458 4
1459 7
1460 2
1461 7
1462 7
1463 2
1464 9
1465 1
1466 4
1467 5
1468 2
1469 6
1470 1
1471 6
1472 8
1473 7
1474 2
1475 4
1476 1
1477 6
1478 9
1479 3
1480 6
1481 3
1482 3
1483 5
1484 7
1485 3
1486 7
1487 4
1488 3
1489 1
1490 8
1491 6
1492 1
1493 3
1494 3
1495 2
1496 4
1497 1
1498 1
1499 3
1500 3
1501 6
1502 9
1503 6
1504 3
1505 7
1506 3
1507 8
1508 8
1509 4
1510 1
1511 6
1512 7
1513 8
1514 4
1515 4
1516 6
1517 3
1518 4
1519 7
1520 4
1521 7
1522 5
1523 7
1524 5
1525 3
1526 2
1527 1
1528 5
1529 9
1530 7
1531 1
1532 1
1533 5
1534 7
1535 3
1536 1
1537 3
1538 6
1539 1
1540 6
1541 9
1542 4
1543 2
1544 7
1545 6
1546 6
1547 8
1548 5
1549 3
1550 6
1551 7
1552 5
1553 2
1554 5
1555 4
1556 3
1557 3
1558 7
1559 9
1560 1
1561 7
1562 1
1563 6
1564 4
1565 9
1566 3
1567 9
1568 2
1569 9
1570 5
1571 6
1572 9
1573 1
1574 2
1575 4
1576 1
1577 6
1578 6
1579 1
1580 5
1581 3
1582 2
1583 6
1584 9
1585 9
1586 5
1587 2
1588 5
1589 1
1590 3
1591 1
1592 5
1593 9
1594 4
1595 6
1596 1
1597 7
1598 3
1599 7
1600 3
1601 2
1602 7
1603 2
1604 3
1605 6
1606 3
1607 4
1608 4
1609 7
1610 8
1611 5
1612 7
1613 1
1614 4
1615 6
1616 8
1617 9
1618 5
1619 9
1620 1
1621 8
1622 1
1623 6
1624 8
1625 6
1626 1
1627 6
1628 4
1629 6
1630 4
1631 1
1632 1
1633 6
1634 7
1635 2
1636 5
1637 4
1638 3
1639 6
1640 7
1641 6
1642 5
1643 6
1644 7
1645 8
1646 2
1647 8
1648 6
1649 2
1650 9
1651 1
1652 6
1653 2
1654 1
1655 7
1656 3
1657 5
1658 8
1659 6
1660 8
1661 6
1662 8
1663 6
1664 7
1665 6
1666 7
1667 3
1668 3
1669 7
1670 1
1671 5
1672 7
1673 6
1674 7
1675 8
1676 4
1677 5
1678 7
1679 3
1680 2
1681 8
1682 2
1683 1
1684 2
1685 4
1686 3
1687 2
1688 2
1689 8
1690 5
1691 1
1692 4
1693 9
1694 2
1695 8
1696 5
1697 8
1698 9
1699 1
1700 7
1701 2
1702 8
1703 7
1704 4
1705 7
1706 3
1707 8
1708 3
1709 4
1710 8
1711 3
1712 3
1713 5
1714 2
1715 8
1716 3
1717 1
1718 2
1719 3
1720 3
1721 1
1722 9
1723 3
1724 2
1725 9
1726 4
1727 1
1728 9
1729 6
1730 7
1731 8
1732 5
1733 9
1734 2
1735 8
1736 2
1737 5
1738 9
1739 8
1740 8
1741 8
1742 7
1743 3
1744 3
1745 5
1746 3
1747 5
1748 8
1749 8
1750 3
1751 7
1752 6
1753 1
1754 9
1755 9
1756 8
1757 8
1758 2
1759 9
1760 7
1761 1
1762 6
1763 5
1764 8
1765 5
1766 8
1767 7
1768 9
1769 4
1770 6
1771 1
1772 1
1773 7
1774 6
1775 8
1776 7
1777 1
1778 1
1779 4
1780 9
1781 2
1782 3
1783 1
1784 1
1785 4
1786 7
1787 4
1788 4
1789 7
1790 5
1791 1
1792 1
1793 4
1794 3
1795 2
1796 1
1797 1
1798 7
1799 2
1800 3
1801 6
1802 6
1803 3
1804 7
1805 7
1806 7
1807 6
1808 1
1809 7
1810 9
1811 1
1812 1
1813 9
1814 4
1815 6
1816 3
1817 7
1818 7
1819 7
1820 8
1821 2
1822 1
1823 9
1824 7
1825 9
1826 7
1827 9
1828 6
1829 9
1830 3
1831 8
1832 6
1833 2
1834 3
1835 6
1836 6
1837 3
1838 2
1839 3
1840 1
1841 4
1842 1
1843 7
1844 7
1845 9
1846 2
1847 3
1848 2
1849 3
1850 8
1851 8
1852 9
1853 2
1854 9
1855 9
1856 3
1857 9
1858 3
1859 3
1860 6
1861 3
1862 9
1863 3
1864 2
1865 3
1866 2
1867 3
1868 1
1869 2
1870 4
1871 5
1872 9
1873 2
1874 6
1875 2
1876 4
1877 2
1878 3
1879 3
1880 1
1881 2
1882 3
1883 1
1884 5
1885 6
1886 8
1887 6
1888 7
1889 6
1890 6
1891 3
1892 2
1893 6
1894 6
1895 5
1896 5
1897 2
1898 4
1899 9
1900 9
1901 8
1902 8
1903 2
1904 1
1905 5
1906 1
1907 6
1908 3
1909 6
1910 2
1911 9
1912 7
1913 9
1914 4
1915 9
1916 9
1917 1
1918 2
1919 9
1920 6
1921 4
1922 3
1923 7
1924 5
1925 9
1926 1
1927 8
1928 5
1929 1
1930 7
1931 8
1932 2
1933 7
1934 9
1935 5
1936 4
1937 8
1938 6
1939 2
1940 2
1941 8
1942 7
1943 2
1944 2
1945 6
1946 9
1947 4
1948 1
1949 3
1950 6
1951 6
1952 4
1953 3
1954 3
1955 9
1956 1
1957 9
1958 7
1959 7
1960 3
1961 4
1962 9
1963 5
1964 3
1965 6
1966 3
1967 7
1968 4
1969 8
1970 4
1971 1
1972 7
1973 8
1974 8
1975 5
1976 8
1977 6
1978 2
1979 8
1980 4
1981 5
1982 1
1983 3
1984 3
1985 2
1986 5
1987 9
1988 6
1989 5
1990 2
1991 1
1992 5
1993 6
1994 8
1995 9
1996 8
1997 5
1998 8
1999 2
2000 4
2001 8
DEPOT_SECTION
1
-1
EOF
