NAME : gen2000_007
COMMENT : uniform customers, demands 1..9, generated by bench/make_tuning_set.py
TYPE : CVRP
DIMENSION : 2001
EDGE_WEIGHT_TYPE : EUC_2D
CAPACITY : 300
NODE_COORD_SECTION
1 0.3666650231855544 0.9532877921883498
2 0.41360443423907733 0.8262447269951566
3 0.4237335338568432 0.4106957097982856
4 0.23173317406303107 0.7473361840298133
5 0.3479448245140534 0.3122558438265328
6 0.1416959842622565 0.23930482700786293
7 0.07164637144080876 0.8757043700883703
8 0.6642622476309692 0.7389198203473176
9 0.539230199253817 0.24598665013196253
10 0.39181412370584245 0.537805068038867
11 0.5149162161861854 0.1568275269897954
12 0.8140241372867069 0.46443385091693434
13 0.2107956206342979 0.34656103552977013
14 0.03590491874443058 0.9217934905257467
15 0.7310924304563257 0.6582799929017065
16 0.10783968536882849 0.13180821921295827
17 0.8651855883174101 0.9183152726240549
18 0.8559587671220044 0.935397792489595
19 0.037546022340388174 0.36859607812577133
20 0.7474467120796321 0.5765310233658887
21 0.767445299942956 0.6407026068801784
22 0.8155072004083325 0.2143645293272386
23 0.8889154280856624 0.3814614370462156
24 0.9541499432770875 0.4706085991104497
25 0.5946017657381423 0.4520841253470529
26 0.7850783893765068 0.8800287119024218
27 0.017039484649263525 0.5220724153027109
28 0.9049437588255004 0.3182382679052681
29 0.744169546352588 0.03333913428298885
30 0.5757353811044155 0.9938764099922186
31 0.5720511950957562 0.8322952823297439
32 0.3845353613261743 0.6250792129442774
33 0.16379151126682 0.7967907651040135
34 0.1650204695634815 0.8101272837704289
35 0.1768828380427303 0.5165229537982375
36 0.7783692392591325 0.2602241526976242
37 0.49662503015565806 0.25827881941976893
38 0.8142459239087207 0.6650583208179682
39 0.4914299989135267 0.4021571129088164
40 0.27180857074344233 0.33894307367567633
41 0.5026988794073168 0.7754159959636642
42 0.32400286914457455 0.11967128676490346
43 0.31125688081109315 0.3015802861717236
44 0.8922283035074934 0.7662232948885683
45 0.908050633984813 0.44467635146951334
46 0.5585830477645326 0.04397867037190262
47 0.19436908487221416 0.30030838249203773
48 0.13264615268473767 0.9780038073664429
49 0.005524576044790397 0.48751200474995204
50 0.1974537511963278 0.6362223118749655
51 0.8480354041019101 0.3118911642875054
52 0.6015501683417426 0.9282223277787557
53 0.15612831873002975 0.9522419468470503
54 0.04996833935418021 0.39265442222102287
55 0.29068828018613946 0.7663840282267839
56 0.8820090190708294 0.8395631624048439
57 0.15809736565332633 0.6404834998495119
58 0.6960177698733435 0.07209127699576467
59 0.7011802597294524 0.221890309438751
60 0.5984086264656503 0.11872175915223959
61 0.07164675142892485 0.2865143995590793
62 0.6828562992722707 0.36300805489671095
63 0.31208940702951327 0.9018734255564571
64 0.7716348110865895 0.0108671858473266
65 0.15642950114625376 0.13595419071842596
66 0.5283332283580939 0.8341984810455267
67 0.830716739940743 0.14789863326220387
68 0.7542199717419021 0.8724524456029821
69 0.18688080428320086 0.1612401040837671
70 0.8222324699407842 0.2905787942714947
71 0.4691756626499316 0.8002962305996022
72 0.9968072902277612 0.07754868377677915
73 0.7054598224123212 0.41157064486633044
74 0.3173634714148652 0.5885419108268064
75 0.8243961392395566 0.32660921749629934
76 0.151414317556966 0.10184967541220113
77 0.2205115502355144 0.5837855076019698
78 0.5372116879394667 0.6368963702755028
79 0.8000416967657689 0.35735389225615255
80 0.8970509393856846 0.6626830661285558
81 0.08549247537887372 0.491542553180646
82 0.8059922424118591 0.3685195394889663
83 0.39991619939182255 0.16627309625719555
84 0.9668543615840256 0.13314744098549813
85 0.09960748731628466 0.6993179738386008
86 0.2600584015617794 0.5711596924277837
87 0.367354412114947 0.6757804122834999
88 0.28188537908718714 0.0064515098602659915
89 0.7078926971409362 0.3738565236677269
90 0.5980368453926423 0.5419549467034835
91 0.8965401473648433 0.7491370169097014
92 0.05449163989529804 0.8005591588224984
93 0.32502921972476284 0.39644693172104273
94 0.3981169420172037 0.7602823936720698
95 0.9776002042121892 0.39520498026007234
96 0.781924641846616 0.3648991102321435
97 0.19090027089846495 0.5847684669392497
98 0.05887503967683638 0.4278623600844451
99 0.37882391615702915 0.9491146915769952
100 0.07567077571309055 0.6745900669143433
101 0.9300096947978322 0.011032263343603743
102 0.7422202955302595 0.4612054581848962
103 0.380803911004857 0.30727190037005003
104 0.8739663099928164 0.01272281111628748
105 0.1826362935577477 0.14540651652787517
106 0.8742119846093556 0.4010330063838865
107 0.008338868813690725 0.8939031261045122
108 0.1808442544592117 0.533820158838335
109 0.002454593438467767 0.03570107553106894
110 0.5752318353856143 0.6467100674056444
111 0.02994292220334016 0.08103725347920032
112 0.9938447342391633 0.4589232912455966
113 0.05973513133993813 0.1962968498594212
114 0.884160300108337 0.8968100844803482
115 0.04309150517933957 0.20006673570943745
116 0.8892649660770249 0.7624142789823047
117 0.5070859687284908 0.640207035673356
118 0.8103212246159489 0.719674880444648
119 0.29968161786545533 0.90694235064264
120 0.31212294680551944 0.2938650516561694
121 0.028657686817705974 0.7270971949500952
122 0.8163504471025522 0.17541257255248066
123 0.840715741738418 0.6552190505521402
124 0.8787939669248928 0.8991197904651197
125 0.6942286675375574 0.1503399911529555
126 0.5605337447078148 0.03804348861327267
127 0.6179846272981229 0.8511972022007035
128 0.18186217225979084 0.7001663319645622
129 0.14909547451487382 0.22557060380919414
130 0.3765159865006119 0.5277756072731926
131 0.6110796389806018 0.39502188787480685
132 0.6614756346487779 0.9141818794366033
133 0.0524117414367995 0.811405010182956
134 0.47253293299909127 0.8841595885457783
135 0.7437116736119928 0.20074317084166005
136 0.14490134539594468 0.0293724054282285
137 0.06666148516022263 0.8020526661470365
138 0.8724005319474211 0.5940589052840861
139 0.14531242313541248 0.022138121613761053
140 0.9336408600990015 0.8347590417978403
141 0.4173086895903567 0.9993143752473314
142 0.7310322390055545 0.59100215666571
143 0.7777251240065312 0.7369784704496151
144 0.3447160764558983 0.6874138849348935
145 0.614119413033012 0.31577866833869794
146 0.28930779464022327 0.9857516742550865
147 0.21822704000586002 0.12249389975850078
148 0.45210232222944624 0.35294075384406665
149 0.13727087153826878 0.7596107288373066
150 0.9299245306525392 0.3451169271869299
151 0.695162980244174 0.8305470146826659
152 0.8983026313788958 0.5041326680382396
153 0.2506758497698085 0.014531203398061132
154 0.11604320735644591 0.7810714182463003
155 0.6186321060411615 0.8234192725374634
156 0.4885802969388181 0.4493887194116435
157 0.672433449854205 0.7385675596085431
158 0.8729740051619141 0.1348422970990274
159 0.4889197705347871 0.8080584151334375
160 0.021734693329277355 0.43938776896720444
161 0.8155094876512352 0.062073808777802775
162 0.48569717895100184 0.06812396428994627
163 0.07626602326612197 0.8938412657279627
164 0.7912146274821256 0.4907254616389952
165 0.8989243480053886 0.13892417442677651
166 0.8647963898986165 0.2700778748982531
167 0.8271939043218987 0.8491891212776664
168 0.5840419494061219 0.35108767304561583
169 0.9776243036997248 0.9752157446180276
170 0.46562614204693775 0.6735214423443243
171 0.21865969558424303 0.714453710213378
172 0.8597867864437299 0.7972937354395597
173 0.8139175276183304 0.954678134363329
174 0.6625715827498683 0.5211749377447092
175 0.5910277858125083 0.8982547724097676
176 0.11888638540458019 0.7100177426064108
177 0.9276664068264381 0.6861064735852638
178 0.5766684474714276 0.31386827688046237
179 0.9678358063848198 0.3897375637785604
180 0.6827649804525102 0.9290660215668679
181 0.5958144971804167 0.9486967173705751
182 0.4556714427291184 0.10147397155018856
183 0.6588018713797481 0.713224670399854
184 0.0071453012061831744 0.4247985251594526
185 0.22244960433438676 0.2318634663238751
186 0.7849260114008628 0.23313077245341995
187 0.16702840663381147 0.034158707722903525
188 0.649492173960529 0.45120757017920354
189 0.5895858306278654 0.6376832586976883
190 0.272377302899379 0.39957518345975496
191 0.7532509469402356 0.18298485598535208
192 0.31373009265838103 0.7726935956872363
193 0.817756085889495 0.8355298622636096
194 0.9336552439829855 0.9507291866246689
195 0.1618495192404532 0.3498848156689306
196 0.872334729085854 0.05006531836838457
197 0.399499844031016 0.7674564319025426
198 0.29004856210116703 0.12584874400733104
199 0.6890414657595331 0.8337667311323218
200 0.26485016352583 0.450095553567719
201 0.7472938691209935 0.3761247304047286
202 0.3019658738157538 0.4852014231495576
203 0.9619167052962224 0.46205499021933116
204 0.7511569332279108 0.3279778065207226
205 0.03407822604955579 0.4685373915643688
206 0.15563954120473078 0.5386787553920328
207 0.8495938541842671 0.34643773778278797
208 0.7777256897634488 0.74562479421278
209 0.08933552330208505 0.11722531730749364
210 0.7460586744235717 0.07995820568041034
211 0.37372884412375795 0.6957276165075864
212 0.9344177760054603 0.6135111048163614
213 0.36009326930056285 0.5027363851013141
214 0.12412707517540167 0.36393264857944563
215 0.25702382578046834 0.8657440748241875
216 0.15748925712724626 0.9382154110513956
217 0.6510765547897471 0.8494399814758636
218 0.825556976923272 0.2956013750937113
219 0.2911874969342009 0.7942411520149208
220 0.09229337657100523 0.8920759160011612
221 0.4388609012851269 0.6046309858048018
222 0.9262876708900907 0.09995707598080561
223 0.8274787550848256 0.9204515205370607
224 0.2444544547919253 0.0009816544184850784
225 0.050072538252839194 0.828597892624854
226 0.3868349717283186 0.009136098236362966
227 0.8404381809696357 0.15068011075667542
228 0.8901105617359524 0.4461098062821959
229 0.3717597490711054 0.8002817164797954
230 0.856031943083246 0.7422849575364661
231 0.9535126998355966 0.42954935451353105
232 0.46605663130075203 0.7812491744546289
233 0.09705287215204961 0.009585187402439521
234 0.7264927673184537 0.5759426731851435
235 0.6812430161311548 0.9024400151915646
236 0.7599226508417684 0.9608664518762501
237 0.023712134099665216 0.21210109954595024
238 0.39604382922756143 0.3768550036972068
239 0.6938529901194168 0.4188003697463436
240 0.0721987736246903 0.38848236357893007
241 0.6187160583434353 0.565143197990936
242 0.12109855599158725 0.3671820485248307
243 0.5941088719605151 0.2889817564966023
244 0.1618994270759071 0.5911205413247472
245 0.796358467941162 0.18578924522102447
246 0.9511634180691443 0.10178460820810942
247 0.3088713010466946 0.3964653479449659
248 0.7038905072038103 0.26887569734433725
249 0.12647954005921902 0.19881867304496914
250 0.1646573775834781 0.8063910530104249
251 0.050044695461127664 0.0381303936961096
252 0.21807365870275475 0.509630928615183
253 0.37618461710794926 0.9384778049396245
254 0.40348124986232037 0.5794205027970196
255 0.9584829866435863 0.04394638019096675
256 0.32000601282015473 0.09771931515872168
257 0.07866458073241911 0.3547289117921043
258 0.9203927373768194 0.30263462026518284
259 0.015256685905288614 0.011440510788677583
260 0.9314684192406502 0.5579615335690324
261 0.13008165037495667 0.5883527064801451
262 0.4866391530244555 0.4376914133160872
263 0.940627936241491 0.46469439483030484
264 0.6690706517223813 0.727484008203792
265 0.851871367621314 0.5577934327429662
266 0.5416344452544661 0.5821580144207297
267 0.9318136197449604 0.550573542204769
268 0.016499087765730835 0.8161812087957147
269 0.7935052933123903 0.08700816838425818
270 0.9936307909295178 0.7670108541278448
271 0.7456144927739373 0.7738038257146175
272 0.7645237652815103 0.2836968230868674
273 0.20254192031119922 0.17058547022150616
274 0.04911752651005241 0.8382866134898662
275 0.00791095463706648 0.6129947510253166
276 0.563086075683031 0.1818457130655563
277 0.4782957905199392 0.4634586332872582
278 0.04327387365539637 0.14325332094301968
279 0.22081001590528115 0.9992921485139141
280 0.6627466608692052 0.9257614774545366
281 0.8388723889660856 0.3801183327143385
282 0.5754405502486153 0.14714200297718527
283 0.35434589443807496 0.5163612099474377
284 0.05903007627414569 0.42784963648755336
285 0.33234958622674127 0.48657320896322553
286 0.9912486237920135 0.3991291781213957
287 0.4005787559749625 0.4250979042274925
288 0.9405942836662222 0.09051788932238347
289 0.04476705466217945 0.92662574501665
290 0.7713935668815934 0.1562953698288878
291 0.1720388063138948 0.39165488898282297
292 0.009768186358232733 0.34335515441580855
293 0.7847065044829926 0.7592570711328823
294 0.02534268010576457 0.08035507763058436
295 0.9211710386895595 0.2423264045967537
296 0.04501369100734076 0.17956723146613907
297 0.9123648195363134 0.27358722111339084
298 0.31023653851618394 0.10123808615343988
299 0.6298209840283516 0.201299191410248
300 0.9936073871440088 0.8107926101313505
301 0.9410604878044737 0.9381895052195522
302 0.800891658043117 0.843838777815842
303 0.9086698176101485 0.5312245246582377
304 0.20646667347016945 0.49002875090849807
305 0.6305286594498829 0.8377711573836661
306 0.2756067882794978 0.5012340068059506
307 0.1460379343395457 0.7352539229420839
308 0.03726486047074229 0.9053009652614586
309 0.6289409500731903 0.8230920972759652
310 0.8047806411977134 0.6175343224489046
311 0.16061411973657325 0.17773667540472182
312 0.005177458871434948 0.25501208686020405
313 0.09404816930128068 0.013412350496606495
314 0.4440140476503227 0.31237963625262855
315 0.21151831965922852 0.9685554548818252
316 0.20736141956809884 0.762777613540639
317 0.8769668762844618 0.11520574625659585
318 0.28396779796895166 0.8032712237659685
319 0.7279020793993768 0.24381914895812595
320 0.3928537834140924 0.5676445103493548
321 0.8231758887265552 0.24980910249959287
322 0.7060757874412001 0.9369992768614493
323 0.10129100988086226 0.32205990255772554
324 0.09646214067311609 0.7435669159979182
325 0.060870795623434115 0.41212172574657235
326 0.9701915472466603 0.733307033687256
327 0.909490450335584 0.5746508198095291
328 0.6482814393936736 0.6622183952146624
329 0.10926899087101072 0.13646494986574997
330 0.9519898567742211 0.027268184995788203
331 0.17105663394710025 0.011649565561638209
332 0.02809103999064322 0.39532944075820065
333 0.0014400428875898097 0.9569907830643114
334 0.033359273187272276 0.3639864728068969
335 0.8945786575670084 0.6864772388041301
336 0.28725270288966276 0.6912665894119993
337 0.7135430852254266 0.8308690993427542
338 0.23281802566671383 0.4301769158754335
339 0.47588127959257565 0.07352499526898382
340 0.6338194721824258 0.9976242431842157
341 0.48320488388948724 0.8290907457719339
342 0.05728264034138064 0.2801228148373146
343 0.7276762139127202 0.2622200726610969
344 0.698388413210586 0.13210296911483188
345 0.3399753199674749 0.3577764107403598
346 0.017657774767883994 0.483427311314627
347 0.18719238350443645 0.31277323856524464
348 0.8033710001576696 0.6316292687565415
349 0.9502996955221797 0.042408659403396
350 0.44336041702017115 0.9611388356743449
351 0.8995614464443936 0.8436572506432591
352 0.3357035534128895 0.9812722874099055
353 0.2625172909141752 0.5900493045225601
354 0.22679244573235813 0.17541925081869825
355 0.22427951236983867 0.04032403660862183
356 0.6582990182976102 0.7247046068425013
357 0.9401942918997656 0.6631221939730281
358 0.20994833875192898 0.6048434577702341
359 0.18039449137803165 0.008072026420250844
360 0.7140436746554029 0.7832275756055542
361 0.10239453324992465 0.050954883053995204
362 0.003559696399230705 0.370196408873838
363 0.5354883036285051 0.7337053003484453
364 0.6185256973584066 0.7853408694235525
365 0.6066803887681831 0.7629790874384313
366 0.19207610636233874 0.5098686614955591
367 0.6496385329155315 0.18213627929621923
368 0.09892364871424109 0.3509797971060159
369 0.5072643748991824 0.9396242138608689
370 0.22379749640737634 0.029285458127620956
371 0.31652792988960543 0.6809966141989878
372 0.5112201675267368 0.7916266447876057
373 0.2700546040923971 0.6742939926820414
374 0.4858305341193909 0.2800442366689081
375 0.9239946287873256 0.14836156398552414
376 0.18492080341453954 0.09882616923173004
377 0.19345318264509614 0.14400125146649734
378 0.7443099807695014 0.9679982736496964
379 0.6950545324879582 0.09782033243738364
380 0.6467880955995878 0.33136044316495417
381 0.12512517306154713 0.0969500362943525
382 0.08713309241140788 0.6460770676751458
383 0.16852367374571164 0.2804602531710043
384 0.947824321823581 0.8225861570451668
385 0.7013238999139148 0.15240702473990964
386 0.5830968430522472 0.5888655106603438
387 0.585055277679064 0.7910285408403721
388 0.1328971635568884 0.27563748576490177
389 0.06086517190890861 0.5384306588711752
390 0.42505957036849185 0.8222455136505491
391 0.8109970538190622 0.09667070274223255
392 0.3345720725025275 0.45631410934576655
393 0.8401577813442767 0.4782545534158711
394 0.5935688527812272 0.4206802515414788
395 0.6251440134266443 0.4178200902457744
396 0.33732516531782375 0.6599838851739895
397 0.4791188883867108 0.09538562006173024
398 0.7888134499406955 0.992833502351385
399 0.10453717232587967 0.8544588114112283
400 0.9535108067311604 0.29055265019025467
401 0.6181561310523768 0.07437464409385541
402 0.5402151097668157 0.6703494209347879
403 0.7606203346147566 0.5015172588322953
404 0.5105323780630338 0.8935689371694272
405 0.9472251065985243 0.7601496336172003
406 0.6658121723930845 0.628192273541029
407 0.16155045733319273 0.8013764305731561
408 0.6127912326254644 0.48262755545697955
409 0.7831675291758137 0.9226771053986177
410 0.3366909169723884 0.9359781848415586
411 0.9214775509888351 0.47674237254501406
412 0.6759324296773084 0.7644205891276632
413 0.05174895019927406 0.8828873557609027
414 0.5494553426249944 0.6230103252620717
415 0.18757690264917248 0.9025377699941619
416 0.9642694404681459 0.5576815631388263
417 0.2598496533572975 0.08874194030694493
418 0.8387653299260971 0.5038451244731533
419 0.362963527238261 0.9485920120273845
420 0.5830838183078043 0.7323332096629559
421 0.09151797401610662 0.31815552532901914
422 0.32535152732821293 0.7636934304700872
423 0.9437944527691394 0.6264564009013256
424 0.9815739483538236 0.2883661547975609
425 0.09972518363745952 0.06215692309746135
426 0.3525006256586187 0.06903205947258517
427 0.4514937706563532 0.29022649597597805
428 0.7016194371776204 0.19529369745732783
429 0.29135606990102925 0.2450617915629829
430 0.7860050117853333 0.6240815076006418
431 0.6827873089258074 0.347125259745123
432 0.8223551360579695 0.7956438048897645
433 0.5830938697650131 0.835770349168465
434 0.3726332007242483 0.6454450872328988
435 0.8114221007750952 0.1934986866696753
436 0.5684417059784486 0.5521173667572468
437 0.21039425639994513 0.9823801609626478
438 0.49326287056843465 0.3482668764879756
439 0.5071404026643488 0.17408533450712182
440 0.1636010607366779 0.9332022446136522
441 0.13667261873008596 0.8837324009204582
442 0.836600569015695 0.14738620802192703
443 0.6826888726950588 0.0918922083522955
444 0.06269985598876171 0.5364518938876103
445 0.9289597361871994 0.9749840930945317
446 0.9901559243194865 0.9824629141880752
447 0.5981671644983195 0.19223238261423914
448 0.6778743575490099 0.057090501200255384
449 0.7574810349146582 0.5186213192592612
450 0.8345250595988218 0.018622583897296985
451 0.8550857440796404 0.6310726654225056
452 0.24146966491934474 0.39466618230866357
453 0.37373415160810464 0.5707581201472891
454 0.9997570174958931 0.7527180993085641
455 0.36306791374490877 0.028381101213340365
456 0.9114816230445949 0.6205391871052568
457 0.18008720278297408 0.5866293187148244
458 0.996483243258349 0.8818947217802613
459 0.7204880138028481 0.1596088011906296
460 0.7444642533091221 0.7241902450670961
461 0.10878989061502176 0.39659928137708544
462 0.6796928633876724 0.530501162510106
463 0.636462712275739 0.2253637597824154
464 0.8936423388581406 0.3233321802773367
465 0.5527905877174594 0.6017814817652952
466 0.16578751417402127 0.9186095139903239
467 0.9666912442272393 0.32435392547257313
468 0.1289528660467687 0.6742422592053917
469 0.30637857916323463 0.3964708338632419
470 0.30019768116495305 0.15945338673978082
471 0.4839040052769198 0.6669105117904425
472 0.5905604160973464 0.1329502310522126
473 0.12079731726079979 0.3768047624556514
474 0.2622392655879756 0.114752941377953
475 0.7782610093976153 0.18069544991174413
476 0.8477596459826036 0.6334569276944058
477 0.8945776192145668 0.1584532728877709
478 0.36109504161502404 0.34366088258448446
479 0.05275482025670586 0.025561134463243262
480 0.6061904654990778 0.7962340465651531
481 0.2212946380612253 0.5492996857227707
482 0.12122934816885622 0.11292509450354615
483 0.311173095970648 0.574311728112899
484 0.9900788724099714 0.7212846562939835
485 0.6688156210649165 0.014888009457918017
486 0.6107017450881744 0.9621902449916565
487 0.3679168458311829 0.12966885162650976
488 0.8571738882803922 0.06881679542534691
489 0.8048674952278495 0.005720028466070892
490 0.766283772091373 0.7779285649756842
491 0.9863408348813378 0.2609646876423166
492 0.8866136066834011 0.27530499550745
493 0.038338181790271264 0.7831296929868443
494 0.9563360767689274 0.8991325655220979
495 0.3738971150784903 0.46693590622632386
496 0.018405157685531748 0.21504804568939573
497 0.012555475823074924 0.12914919055275653
498 0.6298440337884631 0.22932086734788082
499 0.0797175469430409 0.24729033981319437
500 0.28954459859995474 0.469401560211126
501 0.011661465993490494 0.7768636049371764
502 0.6594315539640406 0.074997488454141
503 0.8462848564897499 0.07417571379888455
504 0.3570240057353541 0.7779189845467934
505 0.591408457825074 0.9156766453208305
506 0.7240401113916266 0.6787149291849826
507 0.3790237841493147 0.21876629318742613
508 0.6941469122323628 0.8913269683390606
509 0.08581258537422298 0.1756920331989854
510 0.6455410013158435 0.9891168583908215
511 0.4169009043953711 0.3340435490904806
512 0.3908740971490091 0.9084857587553846
513 0.6661601608602042 0.6273020872484942
514 0.2651732633901589 0.4847779798296068
515 0.6583110591901439 0.13447783449037365
516 0.7530258402154848 0.35753538320538103
517 0.13510536545425011 0.11537995478456964
518 0.5359330635202798 0.5464844844973631
519 0.12093561706156342 0.09904278441853687
520 0.17363565138089965 0.8938157263818884
521 0.05958214851943211 0.5463817692669913
522 0.7580018516668184 0.9692436922043373
523 0.19167487508301195 0.408774188470328
524 0.12585881960024015 0.9071610013177193
525 0.4647576511778554 0.7647202514056674
526 0.4913421989190322 0.7431150579309638
527 0.31297358435820466 0.19894968241240818
528 0.9312324977217192 0.4689717365684374
529 0.4391841902400213 0.12881909372305966
530 0.4453782198821977 0.030347732429345298
531 0.3195258016654974 0.33837919121855076
532 0.5832874133365874 0.9479109207626042
533 0.08559337972864711 0.9450631649211859
534 0.842165655451433 0.9517299193408815
535 0.750716520131656 0.5966513214976858
536 0.20083912444658292 0.9650892057829727
537 0.06738640345168456 0.8909379870510438
538 0.7894635460283304 0.2883907358429596
539 0.8842788905774285 0.8448734477150753
540 0.36252510703620366 0.6111824343837108
541 0.4944438532882265 0.2837187734520821
542 0.5118680080679966 0.5357947736163591
543 0.5858974587422205 0.3198723943925683
544 0.3997950124774039 0.6835606478830397
545 0.6231490286050017 0.4009330488895644
546 0.26634309448947713 0.24972646563948397
547 0.15830268050661345 0.4248698162603759
548 0.37906808967383887 0.5054438872241587
549 0.3321840235186493 0.33044226133492094
550 0.03059555198819608 0.97151757578732
551 0.6247471746882134 0.9751144251016748
552 0.6591038814587644 0.23716874896204987
553 0.5077684465764073 0.11162124046209909
554 0.6473510333304561 0.161156345938252
555 0.36698156129742265 0.5552007413082976
556 0.13251360867398487 0.9574265662989354
557 0.5357372510982324 0.42439976502411414
558 0.3290864891595049 0.04463645529128846
559 0.8746496599898835 0.7336582460740102
560 0.6717836779277653 0.7216009747692345
561 0.5393156854220792 0.9719983699412246
562 0.14771668657912373 0.35311022350103627
563 0.6476501897302874 0.6200392667690464
564 0.07327256850950437 0.33103814100322526
565 0.38467336973983834 0.11884652803297124
566 0.43404602312552065 0.7119879688608357
567 0.23329502682332026 0.973898006091236
568 0.5012012582802596 0.6864213480075589
569 0.011712097435295221 0.13924756414550843
570 0.14673362653017097 0.5957166870086471
571 0.6920101201499335 0.3913950562880225
572 0.91305828685563 0.48348583840396997
573 0.043155782844725765 0.3570883975937109
574 0.7126675822915494 0.36123782643894
575 0.007897707391925968 0.8293571882210128
576 0.2714321576125409 0.5871931762968006
577 0.6079713315638936 0.4728398824312797
578 0.027329029395380733 0.8039884491953435
579 0.8801737911596579 0.9510645415039573
580 0.824378116044971 0.5170605410815986
581 0.5488514223054821 0.9765998872568833
582 0.30994566668373813 0.17037942566984876
583 0.209491284707366 0.13814167719508808
584 0.7913691501348198 0.20876354563495292
585 0.8583331935127768 0.7871159210473824
586 0.32507951205677577 0.7656433220249423
587 0.2505973564431465 0.8514126018670525
588 0.08283020349226078 0.8827679444907562
589 0.4327444375494892 0.11640749469286193
590 0.3356254848205109 0.03349581955564118
591 0.015472657217761698 0.1342900328248523
592 0.8143072531159435 0.2125456653733181
593 0.48641743510697344 0.052177451684030984
594 0.49792346430145973 0.10862239533897833
595 0.7080194895622252 0.5158928243266697
596 0.9836039468444747 0.21937328196511097
597 0.9706766223105622 0.8787711906541013
598 0.7299484450438342 0.16265480447413283
599 0.1716938067954481 0.7136076335839491
600 0.18169478916997894 0.09878079002628193
601 0.27923867521041545 0.31221965123489226
602 0.21306311507731912 0.07387354653398426
603 0.1741083321001805 0.20277960806881867
604 0.4718630056002373 0.34896048122639367
605 0.7341563153092948 0.7990429198264423
606 0.09908309126422277 0.1329638026411163
607 0.9130485144021209 0.8527921307318809
608 0.051763476229283345 0.12151609691903265
609 0.9912733107181784 0.8217100211058432
610 0.8113050529738168 0.3362141470325545
611 0.9259334793698685 0.5244322194853479
612 0.10147648671525 0.34684639094467185
613 0.43298115654890523 0.9135780943959448
614 0.11262334569837418 0.021176288300204238
615 0.474834136638849 0.20882279271047532
616 0.038046415838147385 0.14667125885498777
617 0.6030733527099478 0.8660718226765213
618 0.366095367277786 0.04125357593931822
619 0.7726989854856456 0.03839647610082808
620 0.3561822184512021 0.5997661778395598
621 0.362104017433449 0.7671782622050828
622 0.41894003553821624 0.754027267726867
623 0.23612410290105945 0.06150801933754335
624 0.42701028368294236 0.01466514909916028
625 0.17589097139278276 0.8237535252985947
626 0.2508790226210825 0.5305989570286871
627 0.6430226084268155 0.6003970439895248
628 0.11625310332684313 0.9102433660668436
629 0.4615917840862883 0.9815641814045876
630 0.8399775808234927 0.048180819345715165
631 0.2973400846308254 0.04727102561899443
632 0.6494075263459856 0.09138125683925513
633 0.5452447307130579 0.07924437023720765
634 0.6366945653577494 0.9528333464288344
635 0.12413191104614074 0.8656600921850307
636 0.1834999963288647 0.042784445347726185
637 0.40466029650284363 0.11478341280232796
638 0.09310549430808246 0.7064274677362151
639 0.24582440082945423 0.26916220719922634
640 0.7040207411895062 0.5867092660046498
641 0.6670033263875853 0.9988350767870986
642 0.35370324211926607 0.029172370020068894
643 0.223534915213757 0.8275137530220437
644 0.8610743878783869 0.4501193341564319
645 0.5759172293391392 0.8553802083044171
646 0.20618041837598755 0.699609064533116
647 0.9403559183321101 0.7258762570584649
648 0.0727332694742352 0.25474056652114874
649 0.8717178472722973 0.16513694498053777
650 0.020142145046630477 0.4152362115097725
651 0.05015016514177395 0.29144953320488776
652 0.8129085714242611 0.763556463168789
653 0.8239294853865242 0.6513171688236047
654 0.46402769455093196 0.6065455367539672
655 0.33127100647173335 0.22120406116376068
656 0.4356896064850254 0.8865438451214414
657 0.6954657321231501 0.7091549562375149
658 0.7431113506457856 0.14051391293082738
659 0.2204294059687365 0.13307813227109
660 0.35995216755235393 0.7183062020764261
661 0.7876247933608429 0.011508693262355152
662 0.9268531276116843 0.7960190814357199
663 0.8835723031393121 0.4710397246610437
664 0.19674280497529317 0.5481898079727916
665 0.8656930216838308 0.6848105929261509
666 0.6615477856704735 0.6059490412111534
667 0.046254606762044514 0.897476722016955
668 0.8391825836704726 0.8627282998384598
669 0.29903266037137666 0.8796662013272405
670 0.7108015198212113 0.197741068303658
671 0.33182898538068273 0.8344583816187907
672 0.8171135878162143 0.7273429972330129
673 0.35775701917267055 0.7127160501830574
674 0.6489118122771416 0.7528362058024944
675 0.0012347982667009205 0.4396585724542792
676 0.23631990848241624 0.8694822206715612
677 0.4211986452268689 0.19218885308484723
678 0.6054704152545934 0.2978489450512296
679 0.7680983057716668 0.09061263882197967
680 0.052127260638817785 0.1065510065985279
681 0.9673798496229425 0.20685598390804738
682 0.2622638811239615 0.7898613297105764
683 0.2786043602047853 0.3520822503020047
684 0.10362773601984954 0.8055079733938572
685 0.40184215408676915 0.34974137526327487
686 0.8273840103889256 0.9647740927586428
687 0.007437949606394323 0.3284924129693172
688 0.7521267335903026 0.6223846033440024
689 0.5676291969006494 0.4339215647441734
690 0.5582754226270022 0.35599814610395675
691 0.5158954667442675 0.39048014859973335
692 0.2539387365673351 0.0725747030980356
693 0.8902014459299598 0.5395880064614804
694 0.9040085994578894 0.0679895206344946
695 0.18738179607236838 0.02942806951782062
696 0.02494859791087911 0.33082149130585736
697 0.5723519952781745 0.2589623956641126
698 0.2170683179754629 0.7428440802317262
699 0.6496502877544929 0.2819869697943882
700 0.295544111708389 0.28740386196291523
701 0.10744997229631947 0.568979244120465
702 0.27481047661275815 0.15101861409877282
703 0.38182451406058104 0.7004157038890962
704 0.9817669434631402 0.1963793344339
705 0.4424133752193117 0.1707008302446359
706 0.6850455265229674 0.37102939015433556
707 0.34384438186226995 0.4434664352181972
708 0.034980244336011546 0.1258440105821258
709 0.843390504574226 0.15954419580608636
710 0.19031826395526352 0.6995676997545739
711 0.8451240444063476 0.236190210479594
712 0.9231437156171711 0.04670071153111033
713 0.6290153015233699 0.6898353390835247
714 0.6960516019173061 0.22384951428671707
715 0.9747483185125811 0.134722864102644
716 0.3750341322005103 0.6435937285159045
717 0.20601408817259148 0.3382880454526407
718 0.510569782818689 0.49796103510177314
719 0.511694681974744 0.6686825603802271
720 0.08658376211441865 0.13259639097052378
721 0.6720078344590059 0.5329090110099951
722 0.23829310130234926 0.6969751366610558
723 0.40523641304894187 0.19753963284820797
724 0.15470232304092724 0.7121968004647939
725 0.10729627543489773 0.012228586609464687
726 0.8367262678336427 0.8679581435485596
727 0.3272942485389311 0.6090318000969702
728 0.061486133970384715 0.1048404744189374
729 0.9330524890154503 0.49601237752166394
730 0.5577873172853677 0.7902903060399596
731 0.655444653107198 0.9208949459075393
732 0.7784946112311791 0.5579641008762487
733 0.5375914011041759 0.8738524344609515
734 0.21909144507432243 0.06724373312717868
735 0.7629780180213606 0.697476651030847
736 0.04548854068720243 0.38963514256050635
737 0.045944417649908864 0.508929265827991
738 0.45602010950032934 0.7961267421423062
739 0.6032028908684246 0.8891614615124901
740 0.8827766800019343 0.5345797865975674
741 0.4365530302858912 0.20395678082466828
742 0.3110542723048131 0.8134254346758346
743 0.05293363820322061 0.2402724300182233
744 0.7279911585059533 0.7883105007735478
745 0.49311712280045694 0.49086599176752865
746 0.4529018333318302 0.3589877099377182
747 0.6187443000660134 0.6057567337240076
748 0.2786121138191694 0.3799992958957852
749 0.3092449437462781 0.4055337554843088
750 0.6697393180450097 0.6617693141484711
751 0.037801915201406744 0.3667215844504752
752 0.4454959076934586 0.9519811491252377
753 0.7958133745964188 0.8344878085798393
754 0.306743319941709 0.7974976518631676
755 0.26544359611197277 0.7101685253244302
756 0.2813983412506208 0.67487992654694
757 0.6676948002486289 0.8011928817833499
758 0.41120761498864145 0.39632576421354404
759 0.37759733356582315 0.2863380160886678
760 0.6654015763338121 0.8084194141348544
761 0.5640923792276147 0.43921358607888483
762 0.682621414472948 0.7577797128453212
763 0.2936520192179406 0.5558453165541474
764 0.41551438036099275 0.09816385653040138
765 0.5708782589167747 0.07884700651258247
766 0.8982319632719895 0.4339306429044806
767 0.5236717754778213 0.7060346969720048
768 0.8813112034374145 0.4373506130954008
769 0.05429700280158778 0.6922278316396465
770 0.9045894524030096 0.43875790667616055
771 0.0522645398118774 0.1170034440685862
772 0.7279861596798977 0.6989607939298333
773 0.44717940670387435 0.16806807647765942
774 0.5655239692216812 0.8578480722820307
775 0.3745287875946902 0.4501493941377741
776 0.6341235284736038 0.19002423284675007
777 0.14311322330315301 0.9125057037775262
778 0.05743567591311349 0.44986141818842784
779 0.9901188686638491 0.3862653347105949
780 0.5907668441597489 0.48452733885138954
781 0.21968276121330232 0.03308191879479361
782 0.5988151811100924 0.9477091470748478
783 0.5215046790714085 0.16939487260629027
784 0.30382388169139385 0.9998528345910639
785 0.23174427389013563 0.8429284223003662
786 0.9675340353925483 0.5725092152344264
787 0.07058916431107021 0.8235238444363747
788 0.8603938343765043 0.8060249234397252
789 0.2886516660725893 0.175836563517077
790 0.7348307649458083 0.7237144283379426
791 0.5131228052863365 0.7270039612834558
792 0.29562907295149243 0.21086228470110113
793 0.2204880091736533 0.08147975088120674
794 0.7931928243683057 0.8969583943013952
795 0.01878531310989684 0.26421291237009825
796 0.7355070757563297 0.44656108968339747
797 0.11241662628452687 0.7380258884042813
798 0.11282577118613646 0.9137785262867317
799 0.4578630547792567 0.3620654672814252
800 0.5082174075268282 0.6605362513043423
801 0.6163619540511116 0.7038848304810618
802 0.8047575521851836 0.7774845818960943
803 0.5651927418963081 0.5837572042424927
804 0.21511598214566086 0.625597550863324
805 0.27269258801301344 0.4358866434916787
806 0.6219872814225432 0.6133990140238199
807 0.5726584251026988 0.4556498134923044
808 0.385987156092248 0.5510586098605752
809 0.923164711079288 0.7754682536646407
810 0.2836188482230595 0.2499432227066748
811 0.5898559133446312 0.040945628093788655
812 0.25888998726795165 0.479202605939256
813 0.01719782757877719 0.6420282766448607
814 0.8912893355223256 0.9876314436808545
815 0.6520250720420576 0.20940201598525077
816 0.9711930389432839 0.7382461183227113
817 0.5403220221622199 0.628918661256855
818 0.24569968308824797 0.9265894750675979
819 0.715542663082629 0.4429521400716886
820 0.073631704390127 0.9991051809958341
821 0.4012133413274348 0.6603348983875443
822 0.8369987011894643 0.7189397607632941
823 0.41269286670194516 0.2789792177293765
824 0.4201707439562755 0.18119138781375688
825 0.06128428337958991 0.31173535007979003
826 0.518975560648524 0.5847526363564413
827 0.4903081151381825 0.8476571230577462
828 0.08772383304798503 0.713047040492561
829 0.9101236879527498 0.15902237178869782
830 0.8988000429896258 0.9326511817957573
831 0.2022336932374701 0.08336039677557561
832 0.15064543335090563 0.6211795009534736
833 0.14434346134715925 0.43852243423422055
834 0.3742834249875987 0.7749301523023625
835 0.5603956505166814 0.323940760534667
836 0.1999118799380616 0.7948513261696114
837 0.2752752902634358 0.7339044357283734
838 0.9875074245708226 0.2692473703683318
839 0.17497688506978404 0.7886794401531749
840 0.7427552078569459 0.5331087502793533
841 0.20230324876488803 0.18686669704944847
842 0.9477423601370946 0.03954652812027937
843 0.3029906443906665 0.8007937580291601
844 0.493140785720393 0.05068218846439787
845 0.14074035671977625 0.1835774941978756
846 0.8051521838958019 0.3484153022816645
847 0.07072637366943424 0.09272797803565191
848 0.9685035558257299 0.8592881483945306
849 0.2507134845283979 0.07802052672078419
850 0.41435228769888177 0.32564534725886607
851 0.4436289236023374 0.7648429327510093
852 0.8445665564854302 0.38871301736796204
853 0.15652887765307533 0.817146373315985
854 0.7764926192662157 0.13925411445595226
855 0.016949953355743452 0.8626657192422271
856 0.8474832669749642 0.26289870986801855
857 0.9821773453952027 0.7129336856738996
858 0.9964607927458585 0.7616186408113491
859 0.8644115222613727 0.22990894231858605
860 0.2840105811544439 0.4945381438291706
861 0.5615383728467574 0.10070244704705567
862 0.15538643546361142 0.9771296757814767
863 0.9048916627588528 0.454257498509956
864 0.307999087552434 0.7114587385767676
865 0.1066807870356673 0.8139956979851969
866 0.23685733690626765 0.4892702308937804
867 0.5185163132946474 0.7484229242327276
868 0.9629780400268769 0.8652701280724349
869 0.8723626733341336 0.10795611405790428
870 0.9694096978906388 0.4652830467547415
871 0.45651335954222194 0.6833437854225962
872 0.24673866010248457 0.7802806668971584
873 0.5387247409516446 0.8699716282433697
874 0.5100378577630922 0.11072559679403837
875 0.3842069290435698 0.6705608079315839
876 0.6112051220457327 0.41221433894770254
877 0.025741002415783032 0.9710468103928132
878 0.4920867198439479 0.9818944087141331
879 0.4203548413110936 0.6659554062451841
880 0.35751809693230363 0.4511295748966969
881 0.5660236750224688 0.7386691686723428
882 0.35367540458305635 0.9239916839250177
883 0.18067275438824426 0.5359291737934696
884 0.8395114599500287 0.9652510692331676
885 0.8357132436468879 0.2509716618112552
886 0.9430211734911852 0.033171901741344656
887 0.4958674712712505 0.724243295393757
888 0.26860319013282696 0.6550020621523126
889 0.3073366371086359 0.9669658836856461
890 0.21350362957841373 0.7898803860102648
891 0.6899784045568145 0.5909983701500797
892 0.3224751395847075 0.18375721858182614
893 0.13726890751393794 0.044064832898125794
894 0.9489041851604804 0.1570290761153892
895 0.18604174398090367 0.920197766055305
896 0.3757327945589849 0.9483580110946225
897 0.029827321459624523 0.8503402015907792
898 0.3134195605787724 0.9987865355204474
899 0.9832160119830328 0.22260831871095432
900 0.8415310725961078 0.8507643619011063
901 0.3461590010014035 0.6903068387340483
902 0.0026759508760588746 0.6483687227545895
903 0.6885564668699469 0.7331228717226492
904 0.21359264623294427 0.20428817208544758
905 0.21676245495893642 0.008844491727706294
906 0.35717427440221483 0.6799737364784746
907 0.1779845299110544 0.0966653938489519
908 0.15054425536162697 0.8654022092778376
909 0.7832492193414723 0.415803747907175
910 0.8319333878135279 0.8412999990384833
911 0.4582687102588756 0.19405419685208247
912 0.728291771736572 0.5108450228427874
913 0.936215769576169 0.8454272208077659
914 0.044775765843042103 0.7028356972892108
915 0.414782145953312 0.9650277995845796
916 0.7679279609261378 0.8944044182597634
917 0.43548106016832966 0.38034719583640875
918 0.5960952442439089 0.11086562015269474
919 0.1610382380589963 0.24276155618729434
920 0.12597165151553924 0.5331948754086717
921 0.396487249579499 0.5683405333849502
922 0.9031084888090432 0.9163580961279573
923 0.0659866918106552 0.18324564129354703
924 0.12896619151375754 0.8201483742128962
925 0.37813414156164693 0.33215435946875016
926 0.4603466995938934 0.8984786326804868
927 0.5266765923382839 0.9349395721807455
928 0.3855494026137286 0.8205682091246648
929 0.7563171139823337 0.22915429143756183
930 0.009286196890601506 0.4662913760426818
931 0.6263259040083519 0.7803859930282293
932 0.6412708974534552 0.7646129085371962
933 0.8409184661417196 0.6386819022472043
934 0.5286314749806403 0.9472834544548056
935 0.9071854755973381 0.11752046490729251
936 0.5999261924747002 0.029165399476373866
937 0.29318822916247056 0.8008008625255572
938 0.204879501162594 0.24787561685488657
939 0.7084216226573867 0.7565185365867342
940 0.28179293262426697 0.708004812107276
941 0.19064690043578425 0.4408401061578976
942 0.7790827974751633 0.4043617530941922
943 0.34021738645360633 0.7907195970998896
944 0.478916103328505 0.6242345272216738
945 0.19524200831918004 0.20032204467289016
946 0.12141222931186901 0.026356599905131728
947 0.7912260878085832 0.6841305261685763
948 0.002787231645565047 0.07099520317772945
949 0.645445757843325 0.18703459133924938
950 0.636987952931948 0.6293130475162939
951 0.08175140070251341 0.7239825410585359
952 0.3141892141722453 0.7616292935642507
953 0.0803018898119412 0.3590627655659706
954 0.9215446260490053 0.38084571637043174
955 0.48909398024646034 0.33121522473208354
956 0.5548537698324771 0.981718714633767
957 0.4092473158637885 0.14855590244268013
958 0.7185698385769707 0.6418076540272305
959 0.8430789154565749 0.7234379653616737
960 0.17770660537011007 0.5211880978013524
961 0.6378121147731369 0.8060397481902994
962 0.414566976733739 0.6963689931958283
963 0.7877366240412305 0.4683312703106747
964 0.7232853449612575 0.5836639926371696
965 0.9235421857429308 0.6380219998000949
966 0.31310439561834424 0.9792443416689999
967 0.988529559231122 0.6273788844868406
968 0.17026564257627108 0.7993612414377579
969 0.45359674198406086 0.8299739806018585
970 0.675929003998417 0.20534277085996755
971 0.5894897173473702 0.5818318148425656
972 0.3515576569957958 0.837188616009293
973 0.050470696840115736 0.972495471323687
974 0.09053663447820737 0.663897578248829
975 0.4496732883510255 0.09393610646060868
976 0.4189132116646598 0.5757498196472295
977 0.9182010077030816 0.27035071716314607
978 0.25782063542690004 0.016663654608989442
979 0.9565394337626664 0.24068040572363225
980 0.05794360721962133 0.114936809198663
981 0.029500603940914916 0.9478813306133524
982 0.10466710070672802 0.2594294980756908
983 0.2782778098826 0.07956780424725551
984 0.6044729378869791 0.4920220865986995
985 0.09168140976031469 0.32972126229610765
986 0.3239093247919099 0.29906727050659343
987 0.6681658589097584 0.4978543830150579
988 0.2603252551076275 0.28035820128502353
989 0.6833683862105916 0.9774927601901512
990 0.6434792458014874 0.710628906588552
991 0.517391630523719 0.40399626794746757
992 0.8228316603293555 0.9067753866155136
993 0.1991026659734142 0.8839374575909349
994 0.6304491005243453 0.6226418098604055
995 0.6761888375485303 0.12925391806070985
996 0.36260600314440405 0.8472691049975957
997 0.6522527931779419 0.8914080377101083
998 0.07657386740185756 0.7742495744820687
999 0.09337167637574129 0.03343473337570002
1000 0.05693103475254391 0.32691007960910934
1001 0.34686519298294705 0.9145371595943543
1002 0.7541482571434811 0.13148255662589126
1003 0.671459999908511 0.01644056885188261
1004 0.016524576283689307 0.7094061304907148
1005 0.21667253202155856 0.013089477907319846
1006 0.5210715836065866 0.594819438150783
1007 0.46782906673505265 0.6417687227750258
1008 0.0824706582673127 0.77166368244801
1009 0.8011761878385494 0.9174803807603821
1010 0.32205268379118546 0.7816471497256292
1011 0.45088787748614156 0.9620259718488829
1012 0.7317536695564548 0.4449630317646386
1013 0.13252103435223062 0.2155721684710089
1014 0.5514053673938338 0.48237456939745527
1015 0.5074634719812326 0.3552492964423959
1016 0.5829655019331423 0.15047629121045047
1017 0.5968086575111073 0.7445764163741863
1018 0.7661168996196686 0.5875562723139092
1019 0.148261802495119 0.7914732779363739
1020 0.5228081968273994 0.7960028322388532
1021 0.8832968936381486 0.5440029795780106
1022 0.40282281446981005 0.9988881337765524
1023 0.018916041305113707 0.9048459544749623
1024 0.3520848069099486 0.3644932490992603
1025 0.6006420028388555 0.6248908663751828
1026 0.4525896160857259 0.3558494674209408
1027 0.9661042576575439 0.6913612467084072
1028 0.2398786712395442 0.878545349623988
1029 0.11520642070178888 0.8557290136031017
1030 0.22241050104361182 0.229455869874152
1031 0.7002576026014553 0.30202391229678194
1032 0.2614340519314452 0.9245660127750371
1033 0.039062870021643104 0.30144788415347656
1034 0.4316584234013243 0.9024029008814015
1035 0.5168737325120049 0.10706177245669712
1036 0.9178480354249733 0.3974344839698499
1037 0.8872288765642701 0.9220988116069937
1038 0.7016614626320505 0.5161956810596914
1039 0.7924644824594382 0.3864039880405774
1040 0.5014359463746411 0.3289345336900823
1041 0.4037569094363318 0.9418170808882782
1042 0.31600117651871373 0.3984304709829082
1043 0.7357559247190966 0.16390797104922272
1044 0.49148402463577 0.4442492849944304
1045 0.9444935003251012 0.24261185764827298
1046 0.4829979470612227 0.6001968731536342
1047 0.7113072004464857 0.7444961277846632
1048 0.5686161097146477 0.43270102364301877
1049 0.327131254273463 0.675053345940425
1050 0.4057882767874669 0.32117333931208814
1051 0.532970822125884 0.528455134133165
1052 0.892498694788343 0.6102738406349241
1053 0.9707816428109056 0.98858788543728
1054 0.42929777358092247 0.4100355725553866
1055 0.27382183666683446 0.3146342300465139
1056 0.7668718112151256 0.5293344743755735
1057 0.5070840798125443 0.6923240553679909
1058 0.179531184922871 0.34182499973029457
1059 0.9784546967137541 0.7128803883667111
1060 0.9447390417306781 0.8687193997216768
1061 0.03887974614000056 0.6979371728533014
1062 0.265740546481097 0.4296571155124016
1063 0.7271787839046047 0.626509481058404
1064 0.2630166017259833 0.14217650312518693
1065 0.1923215563186491 0.5094257490814644
1066 0.8666242056191862 0.1701516997600382
1067 0.448203859126972 0.6594247394958771
1068 0.7368576926730797 0.31087677221729626
1069 0.8430876099493302 0.18888310120857787
1070 0.37708364197161837 0.215108293134331
1071 0.2717348687603778 0.05051059550698844
1072 0.3447124135913979 0.9281586659368098
1073 0.738979522260533 0.8614909740973757
1074 0.4974325736070556 0.9290873272397958
1075 0.09759094223317977 0.16504343250580888
1076 0.770406008739789 0.9837027222287031
1077 0.005784634762170726 0.16834220124080856
1078 0.21888517333744895 0.23659877762343373
1079 0.2869728684629108 0.13526730487402705
1080 0.3028914270507538 0.21011784012646195
1081 0.1838929109554417 0.4482740906068233
1082 0.09354038662594732 0.14541875836635532
1083 0.5249216712219948 0.9717677602833903
1084 0.01097661690257068 0.981796809815784
1085 0.9665103980734528 0.17588707925215974
1086 0.5385862162884949 0.8050413099551459
1087 0.7019422125172955 0.34849433268047225
1088 0.711197195104406 0.7373468789420424
1089 0.4997609682127969 0.10508895055469025
1090 0.20163511397277434 0.8147825899250013
1091 0.16116420099937445 0.1769000229886738
1092 0.13237195191686546 0.7979625657319731
1093 0.9952695566754772 0.4418321087165602
1094 0.8223927821916867 0.3167758883658489
1095 0.7339685889157993 0.383737772891104
1096 0.4739026904655548 0.9494331409916315
1097 0.8890076462837622 0.7231660297861646
1098 0.733608451770995 0.6125412809603713
1099 0.6340229254046681 0.6726370393310578
1100 0.9731065945292979 0.13110860612156472
1101 0.1375016017661309 0.648613423567064
1102 0.4381973210630832 0.4769359785738422
1103 0.19361681367847894 0.9026328193248913
1104 0.19625430340082295 0.6956550439896857
1105 0.765332719428377 0.46249262787679846
1106 0.8595604591714918 0.3331268843156159
1107 0.9958449234836225 0.43163694790487894
1108 0.04158398255517093 0.9581210615710672
1109 0.10102421700368946 0.3777704718227388
1110 0.34091601875217736 0.20040189006610676
1111 0.9750974780459595 0.8186310598039408
1112 0.1456538821495552 0.30335130638152563
1113 0.28526627744630406 0.18469385872550037
1114 0.26832939403979583 0.7218326532191527
1115 0.042548831242346985 0.39986151836198247
1116 0.8294577701477992 0.7064226501324907
1117 0.45089754592728104 0.0709918560052758
1118 0.42544428541021706 0.1296952895274761
1119 0.6226527731867633 0.8884250054995704
1120 0.8268707982949692 0.37705681078825437
1121 0.18726306974115225 0.07735941449533112
1122 0.22901095019772066 0.23136434368732306
1123 0.050832551426501116 0.6268636795473312
1124 0.5879624166864231 0.35896272658393313
1125 0.05935713537952336 0.2208174711856472
1126 0.3765913748302747 0.8459514146878678
1127 0.7880179035060937 0.04329688093774586
1128 0.620138050815509 0.5985817783967876
1129 0.6852426768044277 0.1719406269820295
1130 0.4072025844530973 0.19976211129449184
1131 0.101712314908603 0.6838587159012309
1132 0.6090602016348169 0.1723821863650853
1133 0.09535535317872024 0.41930326227048953
1134 0.539332243291958 0.24676766534618944
1135 0.5337266248446118 0.14354944970296035
1136 0.34530315229092057 0.08553623175213365
1137 0.26026213962640066 0.550881416923933
1138 0.10975912878758787 0.2968815538672154
1139 0.20798550114748704 0.6900079897504895
1140 0.7916203374025667 0.8659775537635479
1141 0.24319656928872468 0.1127340137987165
1142 0.8206097288113823 0.9770757366573461
1143 0.6713406737934717 0.8548305663853809
1144 0.2837342490491682 0.6024590534546378
1145 0.3393146791826728 0.2892969283467841
1146 0.18820524871817035 0.9176700881600236
1147 0.9580145177216708 0.8856487309940873
1148 0.30836652173676415 0.38724143028479485
1149 0.40531871181200485 0.13750455761167657
1150 0.2896399009956716 0.04534757421803304
1151 0.7214172205932673 0.8119664273407958
1152 0.7833350708994503 0.9970351964782982
1153 0.3140470211497898 0.1618437575548427
1154 0.10951438488110266 0.368433195924985
1155 0.406484205158405 0.11701392576126834
1156 0.8926931130695485 0.6003911045825284
1157 0.1880159860005508 0.578083487403734
1158 0.7086585218345781 0.6058962326578287
1159 0.7171450107893095 0.3994850079441966
1160 0.2401185433937164 0.1715845711143491
1161 0.3381207438003858 0.5796992564593524
1162 0.5016460736452112 0.8606656470229826
1163 0.5231410322347592 0.05393183071063046
1164 0.21630286233296603 0.8907600134854887
1165 0.7802071232162145 0.6171310339595547
1166 0.4439996858479368 0.2696860607804339
1167 0.9843000060958358 0.06903981046217711
1168 0.6317078222954783 0.022472351775651545
1169 0.9990431810049392 0.087409072633017
1170 0.14881496488288837 0.7810274462005443
1171 0.37749271257434847 0.014132916640189785
1172 0.026242551032696793 0.2842540666872164
1173 0.9212311218598955 0.8730691210392763
1174 0.12619908794219437 0.8787129636574583
1175 0.6032286476974138 0.3665923467633665
1176 0.14656152774973885 0.07730084109506274
1177 0.9977529600075883 0.07969136612145244
1178 0.3723140191945242 0.12687287400500402
1179 0.9134575901495035 0.8444793985725843
1180 0.94836126610277 0.5649932557658652
1181 0.820695322277103 0.4965653071422961
1182 0.5643799837125875 0.05398025322613387
1183 0.5361415179272976 0.7126023375342438
1184 0.5691152976087479 0.22593106825059528
1185 0.9871892674717361 0.15029617969873432
1186 0.33340513057128596 0.481381360659749
1187 0.6423599718936462 0.547498502197677
1188 0.3741162521358039 0.6426614167247698
1189 0.6448889917997774 0.4158679845275055
1190 0.04843011688989174 0.19267051800477986
1191 0.09192599910380561 0.39063630031041696
1192 0.4359491897989548 0.41205187592828774
1193 0.9770754632982732 0.36727138870361653
1194 0.3410877850431915 0.3142675710912557
1195 0.9333355073822078 0.7492388923894112
1196 0.711312472013193 0.13580265164058025
1197 0.05173018704193755 0.05380256102784209
1198 0.47220710175431324 0.06865809470053641
1199 0.5430797928936061 0.9674093743446313
1200 0.769758015416907 0.5814965964852612
1201 0.5455012508927658 0.35221150272303725
1202 0.5282540426510851 0.8058386144139185
1203 0.5413774774161377 0.13457571426164872
1204 0.2829922580276718 0.19197850079358447
1205 0.20868206230034114 0.24132822455697456
1206 0.930618469545007 0.4218183727066728
1207 0.40709219166777666 0.9794188373843635
1208 0.7309714523574989 0.9773241331054677
1209 0.5399636680457424 0.27352711278575215
1210 0.885978737778136 0.690760778638782
1211 0.8409500969224386 0.11221368146461908
1212 0.6640577714781499 0.8061833475565006
1213 0.17188139128833968 0.9036657464759924
1214 0.532859342198723 0.07421868751119687
1215 0.953501876749973 0.9249164627032599
1216 0.33218529932350627 0.9306154367960254
1217 0.061501330737483206 0.22067928580333962
1218 0.17989883677456175 0.22011770755943305
1219 0.40504777907760725 0.7533762254711348
1220 0.7724001971643407 0.9578769878863131
1221 0.3725290236643375 0.5105370944635104
1222 0.8165641992200177 0.3083381874863893
1223 0.5877614168725223 0.39404966969445454
1224 0.13383679888346778 0.7633908787957461
1225 0.5740369107918506 0.6078335609908047
1226 0.38175154916386134 0.8885858171355285
1227 0.810798732379586 0.42681803617642766
1228 0.4728322264072484 0.8672024263504551
1229 0.1088970074041804 0.12283034503942158
1230 0.1639810547392968 0.9781575677391602
1231 0.5150850238192389 0.7591132438495072
1232 0.16324361789018438 0.5633356993089976
1233 0.33280511927420975 0.2674963606602452
1234 0.9897290369543839 0.49919286559330167
1235 0.350621428509477 0.5282137556063569
1236 0.15923283543130295 0.9283147866618124
1237 0.8204682950439831 0.6727380806961498
1238 0.4370050006863987 0.16484215526136659
1239 0.36126297193971624 0.29630777170036493
1240 0.7820469740678745 0.2987265230588534
1241 0.8511477653328713 0.8655634578910866
1242 0.2978255853465741 0.6136130594017207
1243 0.11183707137369348 0.044646538612931996
1244 0.9385656812856942 0.567712732380176
1245 0.683267313106773 0.6284448529425996
1246 0.5253284412834217 0.8061729356766247
1247 0.8085420597636267 0.9057322944660933
1248 0.7557188530653427 0.25978252135199187
1249 0.33768585714778254 0.4174191281887679
1250 0.08945463137408416 0.7178884113559129
1251 0.6915975607675106 0.21354818177700474
1252 0.8730875186618589 0.469472209926744
1253 0.8983453641274157 0.4474402302851541
1254 0.8699854944952069 0.6939993957526381
1255 0.8788076420492409 0.2526636654550183
1256 0.12175579897802824 0.7733570240396554
1257 0.9498455111814099 0.7432848356665833
1258 0.42507711446421614 0.8749661455629252
1259 0.5627711294663104 0.03509495105434457
1260 0.4019962363138534 0.9452810756190477
1261 0.3152235644977398 0.6268178268082195
1262 0.01947029909593523 0.5664204635435063
1263 0.7861315367221242 0.2892081449275069
1264 0.29209196981736363 0.27562005847780446
1265 0.5705248253400653 0.8752798814418943
1266 0.059297336094751296 0.061475464345089215
1267 0.47886055332130395 0.8623406137187015
1268 0.6139686652299173 0.6200028968576302
1269 0.10949421590197239 0.5079807946589286
1270 0.5689594374697065 0.05982818135244383
1271 0.6245475854118724 0.531776290129557
1272 0.9458113875253384 0.5123580851902734
1273 0.4390167647979172 0.6208101430538078
1274 0.8636273858353584 0.7201858233326967
1275 0.08659247924189817 0.003229505890635309
1276 0.08310433934657446 0.9644354169428404
1277 0.40158871330974577 0.3167962179839894
1278 0.5938948356719647 0.9686169720068016
1279 0.5820772293558164 0.29677208203236227
1280 0.5886995764434592 0.18427712355583215
1281 0.26090116999924184 0.4937586079483217
1282 0.6223997337386864 0.8621523609050842
1283 0.0737508677334805 0.43549607796422585
1284 0.6910245397907515 0.5606609060405585
1285 0.06417029345137237 0.5552201917261858
1286 0.676177328166943 0.9451785367302148
1287 0.2128637987693378 0.5399921654681155
1288 0.10843451242957036 0.31708498685147213
1289 0.46037103631553544 0.42222535465148125
1290 0.4772831305927928 0.5965858149350831
1291 0.07524649104881564 0.3028668384132528
1292 0.933282923254028 0.07477698146116263
1293 0.6925599477366975 0.9241293710148569
1294 0.9337666579615618 0.25610528194031135
1295 0.45208189071909544 0.594557524159257
1296 0.416842219084657 0.2305310329609631
1297 0.7408175586002315 0.9707172846721239
1298 0.8109252107761776 0.3927623845529833
1299 0.3861222378923952 0.6326378905926823
1300 0.39319069459115175 0.892575059433096
1301 0.7948700089839915 0.6709653387419154
1302 0.6300844011873481 0.7132249451134962
1303 0.3208241618386477 0.2902618582733275
1304 0.09666129994278516 0.622677599370142
1305 0.8411619121664488 0.685137624865455
1306 0.5807905049910631 0.6404516232671384
1307 0.44923477700653025 0.8310149094048325
1308 0.7935282014471278 0.27923158073106524
1309 0.8946985564407448 0.8832313843491566
1310 0.9037850581436963 0.5954921811679512
1311 0.8187503940884496 0.015133755102700985
1312 0.6932200055402783 0.6652618894399445
1313 0.9488842970040618 0.7082891642669199
1314 0.49288695784546277 0.6399783808481903
1315 0.265275905843414 0.24240845345632467
1316 0.237337522723423 0.39881696989314563
1317 0.13837500811216175 0.2645879955805226
1318 0.6635133499432688 0.11041761450200227
1319 0.5134149205425891 0.5815175317246762
1320 0.5709959262903316 0.7504766783566432
1321 0.47097179401407707 0.1225410969117201
1322 0.36261356191707994 0.05412882926892115
1323 0.555112727944248 0.1617846229273312
1324 0.8977620552415493 0.12169296814619401
1325 0.4432944283451543 0.9225261336305233
1326 0.060087596081688344 0.23888789838443714
1327 0.8116397045519989 0.8024679818141058
1328 0.0014233877802319883 0.5333684115819637
1329 0.05975502263913446 0.37954330513138435
1330 0.7161989812263166 0.8598712393956037
1331 0.18147179215749631 0.31608451418271055
1332 0.6828159331413741 0.5140008791140155
1333 0.4757310255471173 0.34859880494649487
1334 0.6381252702117128 0.12692253423590194
1335 0.58660173811384 0.27156984655230343
1336 0.3867010616496339 0.173555103905488
1337 0.563460734855162 0.4571896678173075
1338 0.4130569245648391 0.9885129644038633
1339 0.11412008764420756 0.9529961846783299
1340 0.3026635603657445 0.9733967072387126
1341 0.29551235041656954 0.42135390830145136
1342 0.9147347792536159 0.5504607766193674
1343 0.10551311664501384 0.8604956787475493
1344 0.12310513847666282 0.349418410684853
1345 0.8584716157478988 0.11277409973404073
1346 0.6672794529778174 0.9820390370101082
1347 0.40490374139858665 0.7393095533132031
1348 0.549736191501724 0.5596492605695143
1349 0.4458173348074679 0.49533500284345244
1350 0.8241679893237834 0.874747793955134
1351 0.36955364085328346 0.25865997699462495
1352 0.39847351559273003 0.140633604033377
1353 0.8444952915330867 0.363673107112074
1354 0.8112420375738953 0.9364959124606517
1355 0.34769268741388926 0.09188799602327291
1356 0.6195737368446432 0.9485063127565093
1357 0.874066640590352 0.20664175237329008
1358 0.34554293274210934 0.7849877718855972
1359 0.5429604833104318 0.28812993126808295
1360 0.4610909476627916 0.07041480849245607
1361 0.6631113837687486 0.8490194824320925
1362 0.09437571866749506 0.7519253454195315
1363 0.37063927965354415 0.8892490246108139
1364 0.5928437038079754 0.34085257640057964
1365 0.3554214622000348 0.06799730451664254
1366 0.9779220327087786 0.9226695350497239
1367 0.2511077507612014 0.795723903771583
1368 0.39613132588947175 0.8913524445744283
1369 0.997971884158561 0.9887099319576332
1370 0.7908495166173843 0.35928959426306706
1371 0.068040560666485 0.015985279540222996
1372 0.745237177345462 0.9368844674389066
1373 0.5202411711566801 0.6376260828402232
1374 0.5550865262083096 0.5222470261078551
1375 0.12519731414613855 0.3487477675738485
1376 0.573979493740558 0.9732058018762836
1377 0.9069475406739658 0.5193990817263577
1378 0.38578990502750776 0.23059107701298798
1379 0.6110227286671776 0.562037178371909
1380 0.7586338099207025 0.541759280065147
1381 0.11748275116896356 0.7196823661607102
1382 0.7925967463140124 0.6394006538426802
1383 0.5999517393742595 0.29783448722753825
1384 0.43852177570547823 0.8705739048407676
1385 0.9274433087595004 0.028313825476986576
1386 0.8950596485799448 0.0062300091203147945
1387 0.6136168744612993 0.7439856359063395
1388 0.7946898749703061 0.16360754899505447
1389 0.5813263408038183 0.14405426584298242
1390 0.31301250111947143 0.8001829640932072
1391 0.5992586032651653 0.4082700371124025
1392 0.9454844887770428 0.7160422241854448
1393 0.23455145023061663 0.501432903277185
1394 0.6054267367885167 0.6604579856136513
1395 0.4468477270965798 0.3819748147756934
1396 0.1278867631685946 0.8264449333306112
1397 0.8637881855188086 0.7462153189339883
1398 0.17817564997155633 0.7625648447553968
1399 0.9680272876611317 0.12019282856004987
1400 0.393651482272412 0.8974482373207383
1401 0.360849010274114 0.9906047903938473
1402 0.09850772143001008 0.6990653233971559
1403 0.7339164501735725 0.46020253672990574
1404 0.9701762042477963 0.6921854690204262
1405 0.8976727716757394 0.257308547742778
1406 0.22108993210046746 0.4078249562449444
1407 0.8832929861924979 0.7920921220360527
1408 0.38916471262534824 0.2249197330092183
1409 0.8570820371270755 0.7201835612241696
1410 0.6671808719277084 0.5718316891222547
1411 0.7206965035493734 0.5879551617709268
1412 0.1677598972134846 0.3434687100673687
1413 0.07216728355825996 0.11757034580529868
1414 0.5765123140949987 0.9015842894998266
1415 0.5604009003047583 0.3189069397888322
1416 0.29734804318501984 0.49745799079896824
1417 0.23327747675695776 0.7275676216228325
1418 0.41422490806193113 0.9257012919431717
1419 0.3450506703291851 0.7197444959048008
1420 0.8957102544411377 0.3475941389870144
1421 0.8363358671469222 0.6101304397754693
1422 0.7968714419815016 0.8937461526372382
1423 0.4265355956157795 0.45220813061058784
1424 0.7364520461930425 0.44127431226579816
1425 0.1175704043926058 0.8472649794601167
1426 0.8388009144289392 0.951488730278567
1427 0.8002275859332354 0.16895026429794224
1428 0.020773310729161443 0.8796808510987321
1429 0.9072291954386266 0.4229658500173855
1430 0.9443772213842507 0.22445527626323114
1431 0.6313752010378971 0.5659233129134662
1432 0.108091044526897 0.37129343087586786
1433 0.7266498600666212 0.677193977571273
1434 0.26005710150437245 9.167072788296426e-05
1435 0.023351588041828686 0.6725406457729362
1436 0.6321008721561848 0.9785632612750639
1437 0.5986198976833785 0.29759375448862124
1438 0.829479347403175 0.6948734214362091
1439 0.5440688655192218 0.19633606356712663
1440 0.49132051697418144 0.5857051739363579
1441 0.17645200012831153 0.5792605210800684
1442 0.780842816475582 0.5269340333032376
1443 0.04967759585181275 0.6940983681752869
1444 0.2841593557292673 0.15628015011523766
1445 0.14667895950214815 0.2539196087505734
1446 0.360743992168293 0.4950743520731976
1447 0.7858864579459434 0.600734451227277
1448 0.015490037946551016 0.052955154989688946
1449 0.0854197994098177 0.40255912713797126
1450 0.7512281198998376 0.44869586329859923
1451 0.9076518962859075 0.6212689680033108
1452 0.9538230957296133 0.10881337580843953
1453 0.5530625721712589 0.01066722208473736
1454 0.12078522691879745 0.6316849930424144
1455 0.8169080035519938 0.5208210459330034
1456 0.16221514011350513 0.8582927294941405
1457 0.9945665740349576 0.5979771026974859
1458 0.362202586839364 0.24139310729847874
1459 0.8409333296069754 0.5123767881616723
1460 0.411759597002043 0.9866552258329685
1461 0.09162910636856636 0.7746294222485967
1462 0.5840019651726004 0.9090357107935058
1463 0.9752010173390941 0.8797659741001095
1464 0.5454832360755716 0.4363433572404021
1465 0.3126639015367203 0.32245874400698205
1466 0.3632202988288732 0.8414035685274648
1467 0.3802096214575108 0.030745003388183978
1468 0.045716167925529794 0.5945172249651756
1469 0.5988665305987438 0.8212322351204069
1470 0.5545960487021523 0.5760802646600781
1471 0.5481524273715029 0.19282705267564149
1472 0.18378030745997176 0.824249973465068
1473 0.6693742726849067 0.1320860985970883
1474 0.3626099856487781 0.18165200043104746
1475 0.07101562977516562 0.6660603379639872
1476 0.37123087522010767 0.1246098391617474
1477 0.3639203917316909 0.6314005615083533
1478 0.5353625135494539 0.6483572226106624
1479 0.058388166792721186 0.684926458010266
1480 0.07651108949328178 0.9923796053091135
1481 0.7614099457356132 0.0037938017540585234
1482 0.0995340714476628 0.19527834628759655
1483 0.9723293896691522 0.4020149896233429
1484 0.9333278384023637 0.37699428669260526
1485 0.4318122395449048 0.30444378107039327
1486 0.057865993014057704 0.9558623405297226
1487 0.91121542250933 0.42334087625350636
1488 0.20547727129310145 0.1690789938166729
1489 0.5434361834415941 0.3531342146040305
1490 0.257689271040731 0.4583500839492608
1491 0.768072107868893 0.05259069755041901
1492 0.808328486452577 0.39601767986102443
1493 0.6999712456726319 0.213355205480814
1494 0.4170835706781052 0.21621399334317515
1495 0.6275637646755692 0.30038177787955633
1496 0.17765962833819637 0.4123927876043393
1497 0.9628358892321391 0.590817166367682
1498 0.41825897450253735 0.9355998545696705
1499 0.2784046616866618 0.700314337637707
1500 0.3992347150020612 0.44530788318506054
1501 0.34434962457095253 0.2757497337728434
1502 0.32296055722159356 0.33249711199714327
1503 0.4683116067634202 0.011647627622486278
1504 0.01862002760173942 0.6661193984576453
1505 0.24185337419523523 0.11262328688294121
1506 0.9521626789825162 0.6083767569322851
1507 0.1341667625100733 0.6904670243131228
1508 0.3607588240878845 0.5022082294126209
1509 0.7053041722385476 0.4068148483290144
1510 0.7261223166747381 0.6912684151897912
1511 0.6322689871134818 0.466150065416705
1512 0.24848014110743355 0.13738524953371056
1513 0.514492460322699 0.6768683426158999
1514 0.5613985034530956 0.19518576277049138
1515 0.1109006946666592 0.2726768839303294
1516 0.11369879744217282 0.5760077628892458
1517 0.8045474780104739 0.5569356185414076
1518 0.9340343322235817 0.6017698043090361
1519 0.9997122168300414 0.321223055291432
1520 0.48173030652446924 0.557111187937816
1521 0.6398404929045324 0.531090209418563
1522 0.26673577738162146 0.1984977198401151
1523 0.08298979079537627 0.0184423698371039
1524 0.7102816058300959 0.9995499208614916
1525 0.21136085021100925 0.9471822217968563
1526 0.758903114681794 0.14410708462815336
1527 0.27053268378475437 0.7833581627604077
1528 0.19803940432133738 0.8359660916297091
1529 0.7928782049291266 0.8150658317111872
1530 0.44626322060758283 0.7089679411948194
1531 0.05796789187568219 0.25328122717433166
1532 0.33667964818414853 0.2372760196269934
1533 0.2293539192527415 0.8747315993340757
1534 0.16449657398252093 0.8976715185602204
1535 0.4197058531135657 0.8152622910247515
1536 0.35888672256725496 0.5634341387848089
1537 0.8189349545226768 0.9629727477196948
1538 0.04518072325961464 0.7596975760018814
1539 0.7814864304523743 0.6685322723332335
1540 0.2881368463594147 0.5829615102041608
1541 0.016097727625042135 0.6272824402781798
1542 0.5944412944563381 0.5393734971222467
1543 0.5561730290878634 0.2206516589384635
1544 0.43456074350387996 0.21220403332701787
1545 0.610732085441103 0.6826103311850573
1546 0.9293947598734073 0.19523138924109984
1547 0.29876003203280743 0.9521003136665607
1548 0.7718100092131249 0.7388843788527735
1549 0.20836867925776126 0.7800545016692246
1550 0.2833559677171067 0.3783325955952399
1551 0.2552616213784139 0.06252374023453333
1552 0.636438729916691 0.3149714278001523
1553 0.31623750846405485 0.6932489107527917
1554 0.23556545057489386 0.8788623973138542
1555 0.7814329494777863 0.8467575657544462
1556 0.39190200566306366 0.31703545359021756
1557 0.6236457303520038 0.5264364680359779
1558 0.09759473936614194 0.9140044370431625
1559 0.7732897600879223 0.26049629800530083
1560 0.46300642734984476 0.2868177939626201
1561 0.9213304331086967 0.29389168126566545
1562 0.6405407444368326 0.3809883451356869
1563 0.749812137281447 0.15455592923811723
1564 0.9153733213388141 0.8832916059330267
1565 0.6836691340466942 0.8340052269243177
1566 0.5519663084146208 0.430847098418646
1567 0.7168811689301979 0.7840114743129495
1568 0.6132254960852073 0.8075407693708695
1569 0.5873350135953859 0.13009629277697332
1570 0.08151515823978195 0.30757248481054955
1571 0.3317950683592047 0.07824919056621149
1572 0.7472717423522324 0.055608726631628635
1573 0.3055028248115049 0.1607817974933361
1574 0.7095808981504076 0.3248364614900521
1575 0.701101775696076 0.1019467128842948
1576 0.5848555011011015 0.24930253061144547
1577 0.9434670554344691 0.8875761658158633
1578 0.23756722503588756 0.1962426005491037
1579 0.764572149693998 0.9846905694642789
1580 0.8160302403018386 0.9405125685614756
1581 0.6769555215864309 0.6584656401463976
1582 0.6865420674108045 0.08273137540383158
1583 0.8127519986979838 0.15950520965180426
1584 0.8772492516837098 0.8904379981486646
1585 0.3610904528520552 0.3944250868439414
1586 0.5555738048440129 0.17120022497691578
1587 0.35556848564799093 0.4228127504696988
1588 0.045057889257977046 0.5868925283104205
1589 0.1035870939056105 0.030853250747605365
1590 0.08194390766210213 0.0013806295738099106
1591 0.7339880658900775 0.7467421353218384
1592 0.6824603840757889 0.018953735510247816
1593 0.34767496414158017 0.17880452878532815
1594 0.2822434325539911 0.4463671823833244
1595 0.036572064634824764 0.6803956712963125
1596 0.8294364358975594 0.6120462169313967
1597 0.8680309035498454 0.37714604065485247
1598 0.21729889734036145 0.9935210380710726
1599 0.6896654397849787 0.8476421162740434
1600 0.3808359779968796 0.13710709916190866
1601 0.052856389556636185 0.046840282355318785
1602 0.2488521809315245 0.42116653625857015
1603 0.4190973554745532 0.5698895792822708
1604 0.9668645443250464 0.13036879146808755
1605 0.12676738473344917 0.8352649133262399
1606 0.5061974228150761 0.5445054424366621
1607 0.7983716906440242 0.27794991634092103
1608 0.6878297241275688 0.4465471752733423
1609 0.7405114420785215 0.10943243508964262
1610 0.47864251824961557 0.03563099787604729
1611 0.6012252154833179 0.6893928305644987
1612 0.1934481265394845 0.044127134941573054
1613 0.06421176810207596 0.9611706493398718
1614 0.08914310448981844 0.11120207294489293
1615 0.4953465145910858 0.9462924859806991
1616 0.2074051126319556 0.3740908280168921
1617 0.5804776510999496 0.6916566056644962
1618 0.7755275009125719 0.0026294937426647458
1619 0.2056529068874473 0.7041530475921316
1620 0.6816013179779723 0.9903322937711537
1621 0.1768616738264236 0.5724444077050616
1622 0.6671963380449109 0.7047132314590207
1623 0.2264036488814254 0.05605780814652239
1624 0.32670069745812336 0.7096776293490616
1625 0.38923921960369146 0.8202782493613116
1626 0.5541551290482378 0.0992800381097867
1627 0.9742376547908276 0.253562477495351
1628 0.3740978938737497 0.6088073501897148
1629 0.769893345592216 0.20987873079345765
1630 0.08810982687815394 0.08120215985619494
1631 0.13278030928623807 0.5885557929647415
1632 0.39298256492924466 0.23645861807299295
1633 0.2774094910325089 0.25363701064359057
1634 0.32432466035031726 0.7019489084708715
1635 0.05739836478268445 0.5334619490428096
1636 0.1473984363035563 0.5515381914046767
1637 0.055314353896200985 0.6798945658880029
1638 0.21393300608382626 0.9401564587181837
1639 0.7977366767296185 0.2760890500973334
1640 0.9302930579195553 0.6222018023424684
1641 0.3362681116071923 0.22393012904357779
1642 0.9817068785912552 0.8952121290253677
1643 0.0334960616679818 0.2990437659018401
1644 0.9864329901629258 0.6195851813677936
1645 0.6484972462458531 0.5942890163359822
1646 0.6739223601772208 0.4967231491606048
1647 0.8047724284455233 0.16617273237016972
1648 0.1577832588626511 0.09427699340410467
1649 0.638042883546865 0.9790483596132782
1650 0.757169178090855 0.9893902829389536
1651 0.830415916410101 0.9419834133654934
1652 0.04377424714877387 0.0152494414642389
1653 0.12349763072215192 0.5697309474350585
1654 0.8616206484469242 0.15591798425809678
1655 0.45499215708388574 0.33243060282058967
1656 0.04491455729996152 0.43918733477942873
1657 0.7738059280666335 0.019073160732484218
1658 0.940148056875001 0.5602850445607354
1659 0.5376404891288188 0.8293945361233732
1660 0.23041399517486771 0.5792583186806048
1661 0.5032311466728713 0.057213243582600604
1662 0.28175248891010773 0.3300158474236565
1663 0.8290072673680399 0.815639084768859
1664 0.3363123668754745 0.5374417034069411
1665 0.19268368544131753 0.8707363268893062
1666 0.09802950206961158 0.3983154976334641
1667 0.5066229022391266 0.20436998601486467
1668 0.4135905302022813 0.3792624828429825
1669 0.7888389129334334 0.15584893656819931
1670 0.8610054538799021 0.589210610043047
1671 0.7477065525639993 0.8676720203992553
1672 0.4018864915409872 0.5026507160689141
1673 0.5605042700021476 0.8705760298783782
1674 0.3135995760160253 0.1533281428651383
1675 0.8649425501237265 0.8230992810904997
1676 0.37481358474110915 0.586334829908239
1677 0.002319133051795097 0.7683588792411629
1678 0.7041719073811483 0.3081632169599785
1679 0.07204754251199441 0.39025549372858825
1680 0.4707073897764005 0.36932936315823006
1681 0.6638104378815444 0.8525219889899824
1682 0.6642145417593618 0.6319698322197226
1683 0.7853228844300287 0.43553842716552993
1684 0.08426104290607084 0.0812985182997622
1685 0.3868946873619252 0.07455832527668071
1686 0.5934468202019468 0.9694391547492475
1687 0.681063580205212 0.8505571528404497
1688 0.8802569894890245 0.20702710495503507
1689 0.9849190036156696 0.8057771590196584
1690 0.18573225655084613 0.9302529129651669
1691 0.5898688255159693 0.1285902189704925
1692 0.14052679197860718 0.32177104702957904
1693 0.4663676724029878 0.1856767846788111
1694 0.7671199142576781 0.3100379715176943
1695 0.455335671184785 0.2670347719723032
1696 0.1681596127070797 0.5668660430276459
1697 0.893866206089899 0.6100257492746358
1698 0.33253398539360624 0.18095181634024726
1699 0.15283380759693987 0.8969456597642508
1700 0.5862000047790231 0.7676510387876188
1701 0.08392920234428825 0.11477793704261208
1702 0.08730331142135928 0.7669127881585807
1703 0.30874933682643235 0.619455277856426
1704 0.7101400423522203 0.7123462690502911
1705 0.08465728724463206 0.8543030491624714
1706 0.19117258518485591 0.9796167115521577
1707 0.47990285941736877 0.972035599268135
1708 0.775016953563315 0.6285426522857417
1709 0.8425372393347885 0.3303204736601656
1710 0.4299903978973889 0.773275180377479
1711 0.271336099145045 0.4222169100773683
1712 0.3841588885104542 0.6529901632151695
1713 0.016908003229657798 0.8410645890626037
1714 0.618487105504072 0.2567772353274582
1715 0.0915557118804764 0.2932192254011612
1716 0.7765493242376231 0.7507866782459547
1717 0.36174159457788757 0.23299883862780646
1718 0.7733939165520045 0.3043982211241162
1719 0.21643405838764185 0.4125257457053224
1720 0.4519854827770726 0.9292418567264807
1721 0.1030454896999472 0.4126021796043665
1722 0.7981318757256642 0.25148441953779477
1723 0.4637789395492917 0.2920502215163474
1724 0.6356224601887617 0.2689566833918362
1725 0.5111897271504886 0.39527304790894624
1726 0.6624905842885634 0.4780648751592804
1727 0.8258336587961915 0.326403542161844
1728 0.5877770181015468 0.37319510556918756
1729 0.6679327146949322 0.7406451862975171
1730 0.4969721790486821 0.9404645056698329
1731 0.928145149887711 0.4474310639701986
1732 0.948473902732255 0.2057787323012472
1733 0.6196053013166555 0.759416765776737
1734 0.5544791743992232 0.9708644498242993
1735 0.7853651367375278 0.5499553505875913
1736 0.42194799342320954 0.5210829546032648
1737 0.383862343922744 0.581202304003706
1738 0.7352638207056431 0.660128204368306
1739 0.8492050538573528 0.6333486098823214
1740 0.013132624280803307 0.3124404811215612
1741 0.12446295482547809 0.8515920511707391
1742 0.5623176507411013 0.4043894234259855
1743 0.9042879783788724 0.9711468248350922
1744 0.14211818658185837 0.6939236976314798
1745 0.7628020447565667 0.05596677698210906
1746 0.5419763318155932 0.5270225126600506
1747 0.6394895091412441 0.1828017616175247
1748 0.4354538390476683 0.17663143182182062
1749 0.09084420232267498 0.8910792232176006
1750 0.2171410743980169 0.29805214383859624
1751 0.7817215647715038 0.4953880399852907
1752 0.03993021678681419 0.9418319836801182
1753 0.9549993678560205 0.13989017440881035
1754 0.8756740914062099 0.12759876902701106
1755 0.30326616339537915 0.22527389454526547
1756 0.9062990558038572 0.06325108439497673
1757 0.6154411461176794 0.0270223496130525
1758 0.016291811130197953 0.0013572871841588396
1759 0.6286595907106707 0.6839820796530768
1760 0.6853621974484101 0.631478079832066
1761 0.03748183729178123 0.26695149924852857
1762 0.2700068451445615 0.44543635717841634
1763 0.03405519343827346 0.9180216210315788
1764 0.9391690914982528 0.8107351563051531
1765 0.1088940172516466 0.5777626638516068
1766 0.4616614933759736 0.07180434588925089
1767 0.3443881822176105 0.14066690406328441
1768 0.6711948377152852 0.08238377086852944
1769 0.3138382286536999 0.9276507195634248
1770 0.8402566240661384 0.06645006112030905
1771 0.2081109960298615 0.6519433621370289
1772 0.5574418337656369 0.9127675548363292
1773 0.020769150785581836 0.15869765262157154
1774 0.5348068432343107 0.23843630491479018
1775 0.6150335564516831 0.5858180568261978
1776 0.7532382508597455 0.4643808773919972
1777 0.2517193420839905 0.7623198274072341
1778 0.2934954550186192 0.5539648300610602
1779 0.48243625561225867 0.9979165919523814
1780 0.9561550335174425 0.3376734113354789
1781 0.7163581239768086 0.9282304056345685
1782 0.6187808042224697 0.4526551836992776
1783 0.35980646140231765 0.5876304995797759
1784 0.8937004600252413 0.6308589118889114
1785 0.13027790228901648 0.4253578113614256
1786 0.9798892939314781 0.8415031977440125
1787 0.07462788696108003 0.3493957545788633
1788 0.6179593643042379 0.09765385629074297
1789 0.2596685130174491 0.005719209434224548
1790 0.7389709482725513 0.4713308943360688
1791 0.3765720010406376 0.2747004177162393
1792 0.5209502659257639 0.01653511298475463
1793 0.49423389329381884 0.35614980993454115
1794 0.6021478423795411 0.6362488837097149
1795 0.2286587503562415 0.16797094849771177
1796 0.9559146527841544 0.1558776777734161
1797 0.733561639372033 0.6048394152854365
1798 0.9874884351115247 0.03703695493893844
1799 0.7812227634018073 0.006364616097099818
1800 0.7964677769631582 0.24203307339994118
1801 0.3641867555233169 0.2713162642075425
1802 0.764280876516695 0.8771467386046818
1803 0.7894501913729688 0.8279073403917938
1804 0.49665907091011996 0.3875876570980349
1805 0.04615032015489806 0.3063122563771118
1806 0.7247108886257452 0.6028551512608413
1807 0.37162802034540166 0.2957742019396976
1808 0.9837212223680437 0.7880765005500545
1809 0.5293302826510482 0.8449580548494204
1810 0.5688987106565511 0.54621142378214
1811 0.9835792452739619 0.3921993446655403
1812 0.40504736016056997 0.05203292456955522
1813 0.8102887601436151 0.2861855702737419
1814 0.36942235199016427 0.18305431968337937
1815 0.5350784595392116 0.6510051384678803
1816 0.7840507814629604 0.9299454643703711
1817 0.5702460519723362 0.12905200099779357
1818 0.2383571408903078 0.8856958202132884
1819 0.03274370326655218 0.9267199351021423
1820 0.34849513758029405 0.12760451292941566
1821 0.9442701020265738 0.8920731635827424
1822 0.4298088840403359 0.08151741564794057
1823 0.30791007678737736 0.3737929559225057
1824 0.5993309553114027 0.8383135377572261
1825 0.25273947521894136 0.8158525909827014
1826 0.15353940659897491 0.4143792856156222
1827 0.19161161182517616 0.8809530713140492
1828 0.24659390181078344 0.7595435973397009
1829 0.1303361169721312 0.536215572163334
1830 0.09502751904713991 0.7991260476256858
1831 0.3756455558291778 0.38786263203176663
1832 0.9477139110624093 0.26524257114435157
1833 0.1899933831822186 0.42252919201601846
1834 0.9505669508609695 0.34274390021597145
1835 0.8949129885032521 0.19180134766771384
1836 0.90132362160907 0.7073106990149112
1837 0.5014475635375921 0.8340066047376208
1838 0.5640595280785421 0.8868070445793004
1839 0.6802918602352152 0.8315749444522101
1840 0.4945323022447923 0.041706714950620505
1841 0.6915625565977119 0.4511928852723781
1842 0.9851922385810754 0.33406410486587257
1843 0.3844736385981874 0.29845686451748965
1844 0.5473649414763019 0.3421785902482687
1845 0.8728529966323818 0.2992699333834319
1846 0.9571676853963752 0.11308373812087302
1847 0.44922254397992256 0.8550718584647206
1848 0.08448670227822985 0.7635141692175136
1849 0.9982701029378603 0.6595007497373334
1850 0.7700187150014722 0.28425194106177887
1851 0.9344498713502828 0.6611288295881871
1852 0.6606656056661919 0.040682796168150626
1853 0.6267093853394583 0.14698155978166905
1854 0.8351277298262498 0.09030954048465833
1855 0.8176810367909387 0.2044927944811462
1856 0.09663986732332241 0.5578767810767645
1857 0.9033523135319563 0.8128287005419795
1858 0.3764837774319856 0.0772067691790782
1859 0.9047782746096532 0.35113226593697844
1860 0.5626655963864358 0.5528879139597538
1861 0.2247867786325639 0.2046627813206886
1862 0.020275097954545296 0.2434366561390422
1863 0.15507434699667189 0.8194529418305294
1864 0.16587585712785158 0.550509639435243
1865 0.44055809657872813 0.7167621547284101
1866 0.1510418712261271 0.6881111070460494
1867 0.2431108838549273 0.1559993250399747
1868 0.7001557400921611 0.00418583752881152
1869 0.4934200040780541 0.31906183564181956
1870 0.8830282048450315 0.49231215174419085
1871 0.9778328075983039 0.556303352395569
1872 0.001983126459347173 0.47984128047307684
1873 0.8011690623002741 0.7034347471124026
1874 0.13713874846476715 0.6710439363790974
1875 0.9665504600638191 0.1662956413311295
1876 0.5016314194542498 0.3760362417021278
1877 0.6028542074870555 0.9610593402635441
1878 0.33189943729875393 0.12196862704312383
1879 0.4409832836472922 0.8771654669945226
1880 0.3685773499659992 0.268649749146488
1881 0.7458287915888284 0.3304852737814826
1882 0.7513625625819432 0.6867865744252047
1883 0.13245738305929644 0.30778949194245964
1884 0.3424635188913354 0.09760164529322213
1885 0.04104448584136022 0.6999015743441985
1886 0.7931938950787635 0.05345245212971317
1887 0.6962016315507644 0.39217515860536967
1888 0.44901474829220445 0.2776601629011919
1889 0.9365404616155163 0.9717826653685353
1890 0.2247963030157778 0.78245194730566
1891 0.6940864054269962 0.43091074948514074
1892 0.8907716813150915 0.9255032095551281
1893 0.7347630342306305 0.04503121585644654
1894 0.390476625275734 0.6650170948140145
1895 0.23804843531847175 0.46753472452385014
1896 0.09430237688666476 0.15273981580951068
1897 0.6565359255830997 0.9103444081684217
1898 0.23283094793622972 0.6595842141091148
1899 0.2627083430324376 0.11076371340635494
1900 0.29446076629378426 0.8181026197538483
1901 0.9274126771700848 0.8085424301221837
1902 0.8201779017695027 0.41763118904384455
1903 0.29836350097605446 0.25449136755402413
1904 0.9124023320838878 0.932551947756538
1905 0.39668688466167834 0.4612987243500779
1906 0.7686424914537429 0.28647866195719185
1907 0.6159457345704318 0.46265376438854533
1908 0.0040776004208723515 0.980051129528772
1909 0.367921139260736 0.3027368399525555
1910 0.25079942350417517 0.6494227771330657
1911 0.39007950483356846 0.5232570931624574
1912 0.33496545619975093 0.1193492969402088
1913 0.4373324656210553 0.6465577131489472
1914 0.2175539219513949 0.8051479314853991
1915 0.11716090149146552 0.055190256338306876
1916 0.3782814767269086 0.5620860937688639
1917 0.808811667208694 0.9637236478597586
1918 0.7266093191157847 0.3228762252349554
1919 0.5745847625531957 0.1462285730337357
1920 0.5656334539553372 0.20886735924835242
1921 0.3345568847277862 0.0006785386656290582
1922 0.2996589581530755 0.12397553424141328
1923 0.47978418766303055 0.021057419953164347
1924 0.9641819212443743 0.8824422540451456
1925 0.057475548878169413 0.611732232642609
1926 0.629600297858505 0.03620874005329755
1927 0.7996114974517324 0.9672435401689314
1928 0.5202086328039478 0.3741292429928582
1929 0.5260424575344119 0.37100043976769836
1930 0.4090810117048377 0.3647327822739289
1931 0.19701460085105882 0.3192008525178248
1932 0.04519409086271842 0.9301872945767641
1933 0.594521143842478 0.42455779902319235
1934 0.24044778717808468 0.5028204033017504
1935 0.809019479176849 0.09777240968935219
1936 0.6721524562903338 0.045467246116452475
1937 0.9253873474571382 0.13383423771678116
1938 0.21526127686611352 0.8459756483107457
1939 0.22741941931768583 0.4442529789460984
1940 0.28996088293205624 0.11605569505632973
1941 0.24446084080360098 0.7404140894064206
1942 0.9107627754947735 0.5744711811721394
1943 0.4918377640209377 0.40986406187150204
1944 0.6123794838219232 0.9683626986345073
1945 0.2808151638542573 0.2489266439569915
1946 0.9028853521114479 0.8318766147419363
1947 0.013315117955906897 0.7963675619598899
1948 0.858518912938767 0.8462221453806483
1949 0.18602478218564789 0.13865325354625357
1950 0.34271728036722104 0.2661252937113695
1951 0.34349885950863923 0.36637659837724024
1952 0.5217003451918292 0.9342230869444508
1953 0.7880230863273416 0.26536494195345395
1954 0.13703977831516145 0.40160372342019324
1955 0.5510588310939225 0.7565427407570477
1956 0.17574068614467975 0.816621631848092
1957 0.4979064201911635 0.6329465060971567
1958 0.9198170731508524 0.8645077720148173
1959 0.7890952035561334 0.5255646867975954
1960 0.925868510977885 0.7405362269424911
1961 0.4718037852774013 0.5744791159478257
1962 0.7065446203073259 0.5041194647350007
1963 0.8863943011967053 0.7701672903606355
1964 0.8511618922463532 0.8692700916780223
1965 0.9908388565766306 0.2634133864162531
1966 0.881603267211978 0.6707801959502033
1967 0.006958548353197647 0.44216713937530205
1968 0.10301002007252857 0.26753009498438585
1969 0.42586192596820815 0.7686016703669951
1970 0.30973985579069196 0.725746584728163
1971 0.02916819768129264 0.17603136522709462
1972 0.24558414252322136 0.3605155028043805
1973 0.04125481761615979 0.9824325954853482
1974 0.5164493268525411 0.5732491120225166
1975 0.8591086578598733 0.7303887641550444
1976 0.9791181087146625 0.8756631667459676
1977 0.4528485853172449 0.17530143562000033
1978 0.0011973338102732045 0.09910999743231497
1979 0.0371513058121381 0.2929445270913136
1980 0.06875417813376294 0.7398652074899371
1981 0.4706253375369933 0.6029346088011079
1982 0.5131928153973504 0.2054742259471315
1983 0.7857248991595764 0.09775915485322428
1984 0.010158861711685674 0.531071671819093
1985 0.8150842503153568 0.586618210742153
1986 0.9419028839771848 0.39163447457263667
1987 0.08784622460457725 0.9014580226748959
1988 0.6037657291735699 0.5881010279998089
1989 0.5574823303506716 0.4197150647221841
1990 0.3743516604136409 0.4191928994417863
1991 0.4488138412160142 0.3016204233883518
1992 0.8253448414265426 0.8775129239947703
1993 0.4102209358172191 0.5679201348176713
1994 0.33369715822521684 0.18555103587639554
1995 0.2513117857953019 0.6530230342797498
1996 0.1917220915257296 0.9003884929988811
1997 0.9507978746107227 0.7887491329355936
1998 0.39787407374864114 0.7972846242688544
1999 0.2898976399715967 0.22609737254029383
2000 0.722781461852764 0.5876236693323597
2001 0.5301777214255972 0.4917640129273343
DEMAND_SECTION
1 0
2 7
3 5
4 7
5 5
6 6
7 3
8 3
9 3
10 7
11 4
12 4
13 4
14 1
15 2
16 6
17 4
18 4
19 2
20 8
21 5
22 8
23 7
24 2
25 1
26 9
27 2
28 8
29 4
30 4
31 3
32 1
33 5
34 2
35 9
36 3
37 9
38 1
39 6
40 4
41 1
42 1
43 3
44 2
45 5
46 5
47 1
48 5
49 2
50 3
51 6
52 3
53 5
54 5
55 2
56 6
57 5
58 5
59 3
60 8
61 7
62 3
63 3
64 2
65 2
66 6
67 6
68 5
69 5
70 7
71 6
72 7
73 6
74 5
75 2
76 1
77 9
78 2
79 8
80 4
81 7
82 4
83 4
84 3
85 9
86 9
87 6
88 4
89 8
90 2
91 6
92 2
93 5
94 5
95 9
96 3
97 8
98 5
99 1
100 8
101 7
102 3
103 3
104 2
105 8
106 5
107 7
108 8
109 6
110 8
111 7
112 4
113 2
114 6
115 3
116 7
117 1
118 4
119 7
120 6
121 4
122 4
123 8
124 4
125 1
126 7
127 2
128 4
129 1
130 5
131 9
132 1
133 9
134 4
135 2
136 9
137 1
138 5
139 5
140 4
141 5
142 4
143 4
144 8
145 2
146 7
147 6
148 1
149 4
150 7
151 3
152 4
153 1
154 8
155 8
156 5
157 1
158 1
159 6
160 2
161 1
162 1
163 5
164 2
165 5
166 5
167 6
168 5
169 4
170 3
171 6
172 1
173 3
174 1
175 6
176 2
177 5
178 3
179 5
180 4
181 3
182 7
183 2
184 3
185 7
186 1
187 7
188 5
189 4
190 2
191 3
192 7
193 8
194 7
195 4
196 9
197 3
198 4
199 4
200 5
201 4
202 2
203 9
204 5
205 2
206 4
207 9
208 9
209 5
210 3
211 9
212 1
213 7
214 2
215 3
216 3
217 6
218 9
219 1
220 9
221 1
222 8
223 8
224 5
225 9
226 9
227 2
228 9
229 5
230 8
231 9
232 8
233 1
234 3
235 4
236 4
237 7
238 2
239 1
240 9
241 8
242 7
243 9
244 8
245 9
246 4
247 8
248 7
249 5
250 3
251 7
252 5
253 4
254 6
255 9
256 4
257 6
258 9
259 5
260 7
261 7
262 9
263 1
264 3
265 7
266 7
267 2
268 8
269 7
270 7
271 6
272 8
273 5
274 8
275 3
276 5
277 3
278 3
279 3
280 3
281 8
282 1
283 4
284 3
285 4
286 7
287 5
288 9
289 7
290 4
291 2
292 6
293 8
294 7
295 1
296 7
297 1
298 6
299 5
300 7
301 3
302 2
303 2
304 1
305 7
306 6
307 5
308 9
309 9
310 9
311 9
312 4
313 8
314 7
315 6
316 4
317 1
318 4
319 2
320 3
321 7
322 3
323 9
324 7
325 5
326 4
327 9
328 1
329 7
330 9
331 8
332 7
333 4
334 3
335 6
336 6
337 9
338 8
339 7
340 2
341 8
342 2
343 8
344 5
345 8
346 9
347 4
348 8
349 4
350 7
351 1
352 5
353 3
354 7
355 4
356 6
357 8
358 5
359 9
360 4
361 6
362 1
363 3
364 5
365 1
366 3
367 2
368 9
369 8
370 9
371 2
372 4
373 4
374 8
375 6
376 9
377 2
378 7
379 3
380 9
381 1
382 3
383 1
384 6
385 8
386 9
387 4
388 3
389 3
390 7
391 2
392 7
393 6
394 2
395 7
396 9
397 1
398 5
399 3
400 5
401 9
402 9
403 3
404 4
405 2
406 7
407 1
408 6
409 1
410 7
411 3
412 5
413 2
414 7
415 6
416 3
417 3
418 3
419 7
420 4
421 9
422 2
423 5
424 7
425 1
426 5
427 4
428 5
429 3
430 4
431 1
432 6
433 1
434 8
435 3
436 9
437 8
438 3
439 4
440 1
441 4
442 2
443 5
444 2
445 1
446 9
447 6
448 1
449 8
450 5
451 3
452 4
453 1
454 7
455 6
456 9
457 3
458 8
459 9
460 6
461 6
462 3
463 7
464 5
465 4
466 2
467 7
468 8
469 7
470 9
471 8
472 7
473 6
474 5
475 2
476 9
477 3
478 3
479 1
480 8
481 6
482 2
483 9
484 4
485 1
486 6
487 2
488 1
489 1
490 8
491 5
492 2
493 7
494 9
495 9
496 2
497 2
498 5
499 2
500 7
501 4
502 5
503 8
504 2
505 4
506 3
507 8
508 5
509 9
510 2
511 8
512 4
513 6
514 1
515 6
516 5
517 6
518 2
519 2
520 2
521 2
522 4
523 2
524 9
525 1
526 2
527 5
528 4
529 1
530 5
531 1
532 8
533 8
534 4
535 5
536 9
537 6
538 9
539 5
540 6
541 2
542 3
543 9
544 1
545 5
546 3
547 6
548 7
549 2
550 8
551 4
552 6
553 5
554 7
555 1
556 2
557 8
558 9
559 6
560 3
561 5
562 6
563 5
564 1
565 5
566 1
567 9
568 1
569 4
570 2
571 7
572 4
573 4
574 4
575 4
576 8
577 8
578 2
579 9
580 5
581 4
582 7
583 6
584 8
585 9
586 1
587 5
588 1
589 1
590 5
591 3
592 4
593 9
594 5
595 3
596 3
597 1
598 4
599 2
600 4
601 8
602 8
603 2
604 2
605 7
606 7
607 4
608 3
609 6
610 7
611 2
612 8
613 1
614 3
615 4
616 7
617 5
618 4
619 2
620 5
621 7
622 9
623 3
624 3
625 6
626 6
627 3
628 4
629 8
630 3
631 2
632 1
633 8
634 4
635 5
636 9
637 9
638 9
639 6
640 8
641 1
642 9
643 6
644 4
645 8
646 7
647 5
648 4
649 1
650 2
651 2
652 4
653 8
654 8
655 9
656 5
657 9
658 5
659 8
660 6
661 5
662 5
663 6
664 7
665 2
666 4
667 6
668 6
669 2
670 6
671 8
672 5
673 2
674 8
675 1
676 9
677 8
678 4
679 8
680 6
681 2
682 2
683 4
684 6
685 3
686 3
687 8
688 3
689 1
690 4
691 5
692 5
693 5
694 1
695 3
696 9
697 9
698 3
699 9
700 3
701 1
702 6
703 3
704 5
705 4
706 4
707 1
708 6
709 3
710 4
711 5
712 3
713 7
714 3
715 7
716 1
717 4
718 2
719 9
720 8
721 7
722 7
723 5
724 8
725 9
726 9
727 6
728 5
729 6
730 4
731 1
732 2
733 8
734 9
735 9
736 4
737 5
738 6
739 2
740 4
741 7
742 7
743 6
744 8
745 2
746 6
747 1
748 1
749 6
750 3
751 6
752 5
753 1
754 8
755 8
756 2
757 2
758 7
759 5
760 6
761 7
762 9
763 2
764 1
765 7
766 8
767 5
768 7
769 4
770 2
771 1
772 2
773 9
774 4
775 5
776 7
777 4
778 8
779 6
780 1
781 5
782 9
783 4
784 2
785 1
786 2
787 3
788 5
789 7
790 4
791 9
792 5
793 9
794 8
795 8
796 8
797 4
798 8
799 4
800 7
801 3
802 3
803 5
804 2
805 4
806 3
807 3
808 5
809 3
810 8
811 1
812 2
813 1
814 1
815 6
816 6
817 6
818 3
819 8
820 7
821 5
822 6
823 7
824 4
825 9
826 6
827 4
828 9
829 2
830 9
831 6
832 8
833 3
834 4
835 3
836 8
837 8
838 9
839 5
840 9
841 5
842 5
843 9
844 9
845 7
846 8
847 8
848 4
849 9
850 3
851 6
852 9
853 9
854 2
855 5
856 5
857 2
858 6
859 1
860 3
861 5
862 1
863 5
864 1
865 2
866 6
867 5
868 9
869 6
870 2
871 3
872 9
873 9
874 6
875 3
876 4
877 3
878 2
879 4
880 6
881 1
882 7
883 9
884 2
885 2
886 5
887 7
888 1
889 2
890 1
891 1
892 3
893 2
894 3
895 2
896 5
897 9
898 7
899 9
900 4
901 6
902 5
903 5
904 3
905 9
906 4
907 8
908 3
909 3
910 6
911 5
912 1
913 5
914 7
915 8
916 8
917 6
918 6
919 7
920 6
921 5
922 1
923 4
924 3
925 5
926 7
927 9
928 6
929 3
930 8
931 9
932 5
933 1
934 5
935 9
936 5
937 8
938 5
939 6
940 9
941 4
942 8
943 1
944 9
945 1
946 6
947 8
948 6
949 6
950 7
951 8
952 1
953 3
954 8
955 9
956 4
957 1
958 2
959 6
960 8
961 3
962 7
963 1
964 3
965 2
966 4
967 9
968 1
969 2
970 8
971 6
972 2
973 3
974 9
975 7
976 8
977 1
978 7
979 2
980 4
981 1
982 2
983 8
984 4
985 9
986 1
987 7
988 9
989 2
990 2
991 4
992 5
993 2
994 1
995 5
996 5
997 4
998 6
999 6
1000 9
1001 9
1002 2
1003 5
1004 4
1005 6
1006 7
1007 2
1008 6
1009 3
1010 7
1011 7
1012 8
1013 3
1014 5
1015 8
1016 8
1017 4
1018 7
1019 6
1020 2
1021 4
1022 8
1023 5
1024 7
1025 7
1026 4
1027 1
1028 5
1029 3
1030 9
1031 5
1032 8
1033 3
1034 9
1035 9
1036 2
1037 5
1038 1
1039 5
1040 3
1041 3
1042 4
1043 4
1044 5
1045 7
1046 6
1047 2
1048 7
1049 9
1050 7
1051 5
1052 5
1053 7
1054 7
1055 7
1056 2
1057 5
1058 3
1059 7
1060 8
1061 9
1062 4
1063 6
1064 7
1065 2
1066 6
1067 5
1068 3
1069 2
1070 2
1071 8
1072 9
1073 1
1074 4
1075 1
1076 1
1077 1
1078 7
1079 2
1080 9
1081 9
1082 1
1083 2
1084 9
1085 4
1086 3
1087 2
1088 8
1089 5
1090 1
1091 8
1092 4
1093 6
1094 3
1095 2
1096 1
1097 5
1098 4
1099 7
1100 3
1101 9
1102 4
1103 4
1104 2
1105 7
1106 2
1107 7
1108 9
1109 8
1110 6
1111 3
1112 9
1113 4
1114 8
1115 9
1116 3
1117 1
1118 9
1119 3
1120 7
1121 4
1122 4
1123 7
1124 3
1125 2
1126 6
1127 4
1128 8
1129 1
1130 3
1131 6
1132 6
1133 7
1134 9
1135 4
1136 8
1137 2
1138 5
1139 7
1140 2
1141 2
1142 4
1143 2
1144 3
1145 7
1146 4
1147 3
1148 5
1149 1
1150 8
1151 2
1152 1
1153 9
1154 6
1155 7
1156 9
1157 3
1158 3
1159 5
1160 7
1161 5
1162 9
1163 6
1164 9
1165 9
1166 6
1167 3
1168 6
1169 2
1170 5
1171 4
1172 9
1173 1
1174 7
1175 1
1176 1
1177 2
1178 6
1179 7
1180 5
1181 3
1182 2
1183 6
1184 5
1185 3
1186 5
1187 5
1188 7
1189 4
1190 9
1191 2
1192 1
1193 2
1194 8
1195 8
1196 4
1197 1
1198 1
1199 2
1200 9
1201 2
1202 2
1203 7
1204 5
1205 3
1206 3
1207 2
1208 2
1209 3
1210 1
1211 1
1212 4
1213 7
1214 7
1215 2
1216 5
1217 7
1218 3
1219 5
1220 3
1221 8
1222 6
1223 8
1224 2
1225 5
1226 4
1227 4
1228 8
1229 2
1230 2
1231 6
1232 7
1233 8
1234 5
1235 7
1236 6
1237 5
1238 8
1239 4
1240 2
1241 8
1242 8
1243 4
1244 5
1245 5
1246 4
1247 1
1248 3
1249 2
1250 6
1251 7
1252 5
1253 6
1254 4
1255 6
1256 5
1257 9
1258 3
1259 2
1260 1
1261 9
1262 5
1263 1
1264 5
1265 5
1266 2
1267 2
1268 6
1269 4
1270 5
1271 3
1272 4
1273 3
1274 1
1275 7
1276 3
1277 3
1278 5
1279 2
1280 5
1281 3
1282 7
1283 6
1284 2
1285 7
1286 2
1287 6
1288 3
1289 3
1290 3
1291 5
1292 3
1293 5
1294 4
1295 1
1296 3
1297 6
1298 1
1299 4
1300 5
1301 7
1302 1
1303 8
1304 4
1305 8
1306 6
1307 9
1308 2
1309 7
1310 4
1311 3
1312 6
1313 6
1314 1
1315 9
1316 5
1317 3
1318 1
1319 2
1320 1
1321 2
1322 2
1323 4
1324 4
1325 8
1326 1
1327 2
1328 3
1329 8
1330 4
1331 1
1332 8
1333 4
1334 2
1335 9
1336 5
1337 9
1338 6
1339 4
1340 1
1341 7
1342 4
1343 3
1344 6
1345 8
1346 4
1347 1
1348 2
1349 9
1350 3
1351 9
1352 4
1353 6
1354 5
1355 5
1356 9
1357 1
1358 3
1359 9
1360 8
1361 4
1362 2
1363 4
1364 8
1365 5
1366 2
1367 2
1368 2
1369 6
1370 7
1371 6
1372 4
1373 1
1374 1
1375 5
1376 9
1377 4
1378 8
1379 1
1380 9
1381 3
1382 6
1383 4
1384 8
1385 4
1386 6
1387 4
1388 6
1389 3
1390 3
1391 4
1392 3
1393 6
1394 3
1395 3
1396 8
1397 9
1398 8
1399 6
1400 3
1401 8
1402 4
1403 3
1404 9
1405 4
1406 1
1407 6
1408 4
1409 2
1410 8
1411 8
1412 9
1413 5
1414 2
1415 2
1416 6
1417 1
1418 2
1419 3
1420 8
1421 9
1422 9
1423 4
1424 8
1425 4
1426 9
1427 7
1428 2
1429 7
1430 1
1431 5
1432 7
1433 8
1434 7
1435 4
1436 7
1437 1
1438 4
1439 3
1440 2
1441 4
1442 9
1443 9
1444 9
1445 9
1446 1
1447 6
1448 3
1449 8
1450 7
1451 3
1452 3
1453 8
1454 4
1455 2
1456 6
1457 3
1458 3
1459 8
1460 9
1461 9
1462 2
1463 4
1464 8
1465 6
1466 7
1467 4
1468 9
1469 1
1470 1
1471 8
1472 2
1473 5
1474 6
1475 5
1476 6
1477 3
1478 6
1479 9
1480 3
1481 4
1482 5
1483 1
1484 1
1485 8
1486 3
1487 7
1488 5
1489 3
1490 1
1491 5
1492 9
1493 9
1494 6
1495 5
1496 5
1497 5
1498 6
1499 6
1500 2
1501 6
1502 7
1503 1
1504 6
1505 3
1506 2
1507 5
1508 4
1509 3
1510 6
1511 1
1512 2
1513 1
1514 4
1515 2
1516 3
1517 7
1518 8
1519 2
1520 5
1521 1
1522 8
1523 2
1524 9
1525 6
1526 8
1527 5
1528 9
1529 2
1530 5
1531 3
1532 1
1533 9
1534 3
1535 1
1536 2
1537 2
1538 5
1539 7
1540 5
1541 3
1542 6
1543 6
1544 4
1545 2
1546 1
1547 7
1548 4
1549 4
1550 9
1551 5
1552 8
1553 9
1554 7
1555 7
1556 2
1557 3
1558 1
1559 7
1560 1
1561 7
1562 9
1563 7
1564 1
1565 6
1566 5
1567 2
1568 2
1569 2
1570 8
1571 5
1572 3
1573 4
1574 2
1575 9
1576 7
1577 3
1578 6
1579 3
1580 7
1581 5
1582 6
1583 5
1584 8
1585 4
1586 8
1587 3
1588 2
1589 8
1590 1
1591 1
1592 7
1593 1
1594 9
1595 4
1596 8
1597 8
1598 2
1599 6
1600 5
1601 6
1602 3
1603 4
1604 9
1605 6
1606 2
1607 4
1608 1
1609 5
1610 9
1611 9
1612 9
1613 5
1614 4
1615 9
1616 1
1617 1
1618 4
1619 3
1620 9
1621 4
1622 9
1623 2
1624 6
1625 9
1626 7
1627 4
1628 1
1629 1
1630 4
1631 8
1632 9
1633 4
1634 8
1635 2
1636 6
1637 1
1638 8
1639 6
1640 4
1641 1
1642 4
1643 1
1644 6
1645 7
1646 9
1647 4
1648 5
1649 4
1650 7
1651 7
1652 6
1653 5
1654 2
1655 9
1656 3
1657 5
1658 5
1659 9
1660 6
1661 8
1662 2
1663 5
1664 6
1665 8
1666 9
1667 4
1668 4
1669 8
1670 5
1671 6
1672 1
1673 8
1674 1
1675 6
1676 6
1677 7
1678 7
1679 8
1680 2
1681 5
1682 5
1683 4
1684 1
1685 8
1686 9
1687 4
1688 3
1689 7
1690 5
1691 3
1692 1
1693 8
1694 4
1695 5
1696 5
1697 9
1698 4
1699 7
1700 2
1701 2
1702 5
1703 6
1704 5
1705 5
1706 2
1707 6
1708 2
1709 2
1710 5
1711 9
1712 3
1713 4
1714 5
1715 3
1716 5
1717 3
1718 7
1719 5
1720 9
1721 4
1722 3
1723 1
1724 4
1725 2
1726 3
1727 1
1728 7
1729 1
1730 5
1731 6
1732 5
1733 4
1734 9
1735 3
1736 6
1737 6
1738 2
1739 9
1740 6
1741 8
1742 2
1743 5
1744 4
1745 7
1746 1
1747 5
1748 3
1749 9
1750 3
1751 3
1752 6
1753 6
1754 3
1755 3
1756 5
1757 3
1758 6
1759 2
1760 2
1761 8
1762 3
1763 9
1764 8
1765 3
1766 4
1767 9
1768 1
1769 8
1770 2
1771 1
1772 2
1773 1
1774 7
1775 6
1776 8
1777 5
1778 4
1779 2
1780 4
1781 1
1782 4
1783 7
1784 8
1785 4
1786 3
1787 9
1788 2
1789 1
1790 4
1791 5
1792 9
1793 3
1794 8
1795 3
1796 3
1797 7
1798 2
1799 7
1800 2
1801 7
1802 1
1803 7
1804 7
1805 8
1806 3
1807 9
1808 4
1809 4
1810 9
1811 4
1812 8
1813 8
1814 7
1815 2
1816 4
1817 8
1818 1
1819 3
1820 3
1821 1
1822 9
1823 9
1824 7
1825 6
1826 4
1827 8
1828 8
1829 2
1830 6
1831 3
1832 7
1833 9
1834 9
1835 9
1836 4
1837 4
1838 7
1839 4
1840 1
1841 1
1842 2
1843 7
1844 4
1845 5
1846 3
1847 3
1848 9
1849 6
1850 9
1851 5
1852 7
1853 7
1854 5
1855 5
1856 3
1857 1
1858 6
1859 1
1860 9
1861 3
1862 6
1863 9
1864 2
1865 5
1866 4
1867 1
1868 8
1869 1
1870 8
1871 8
1872 5
1873 7
1874 6
1875 1
1876 6
1877 2
1878 3
1879 6
1880 2
1881 8
1882 9
1883 5
1884 9
1885 2
1886 7
1887 3
1888 5
1889 6
1890 8
1891 4
1892 2
1893 8
1894 6
1895 5
1896 3
1897 7
1898 3
1899 9
1900 3
1901 7
1902 3
1903 5
1904 1
1905 1
1906 6
1907 4
1908 5
1909 5
1910 3
1911 5
1912 6
1913 1
1914 3
1915 1
1916 9
1917 6
1918 6
1919 1
1920 7
1921 8
1922 8
1923 1
1924 6
1925 6
1926 8
1927 4
1928 3
1929 2
1930 3
1931 6
1932 5
1933 3
1934 2
1935 5
1936 8
1937 4
1938 4
1939 7
1940 9
1941 2
1942 2
1943 4
1944 5
1945 6
1946 2
1947 8
1948 5
1949 4
1950 6
1951 7
1952 4
1953 4
1954 8
1955 9
1956 5
1957 5
1958 2
1959 9
1960 1
1961 6
1962 9
1963 6
1964 2
1965 2
1966 6
1967 1
1968 5
1969 6
1970 8
1971 9
1972 8
1973 8
1974 9
1975 3
1976 8
1977 5
1978 6
1979 7
1980 2
1981 8
1982 5
1983 6
1984 1
1985 8
1986 6
1987 4
1988 3
1989 1
1990 2
1991 2
1992 9
1993 6
1994 3
1995 1
1996 7
1997 4
1998 2
1999 5
2000 9
2001 3
DEPOT_SECTION
1
-1
EOF
