NAME : gen2000_008
COMMENT : uniform customers, demands 1..9, generated by bench/make_tuning_set.py
TYPE : CVRP
DIMENSION : 2001
EDGE_WEIGHT_TYPE : EUC_2D
CAPACITY : 300
NODE_COORD_SECTION
1 0.5843561742064749 0.8657792706244792
2 0.5301509579898404 0.06094468068931058
3 0.668857066550351 0.6441531523825593
4 0.84438005568702 0.14011928841804067
5 0.5821647570294762 0.5344922588228694
6 0.6533509124195345 0.32380207780044035
7 0.8088223109217618 0.2666833815779739
8 0.9120685779014469 0.39094691596459985
9 0.9936211252730537 0.8056150549049693
10 0.23599796464883238 0.5813652820230683
11 0.8689353067708528 0.8291827164861447
12 0.6655245522746067 0.9841775785583026
13 0.3127591964182881 0.7392461651776094
14 0.8602894055941149 0.8215139563130134
15 0.03628312301139258 0.11659429399745669
16 0.5938614865896702 0.7658938291924746
17 0.25926823203284244 0.850213829189505
18 0.8674947613227321 0.5168457426333085
19 0.21222338330054613 0.9257396313199603
20 0.6726240165191916 0.29156119208240794
21 0.2235303275848095 0.5497850581916385
22 0.49201778597471757 0.24047674459493773
23 0.3735737329718758 0.0742470075466608
24 0.5987315873573269 0.10878361222594268
25 0.25397015453893346 0.4529689469796617
26 0.0728020648342218 0.20260173257885938
27 0.7640979225368183 0.29327318095944754
28 0.6058508011661959 0.4893157845486624
29 0.5384539185231118 0.08220242428900515
30 0.13327578630408132 0.9838466691288705
31 0.7360268024402331 0.2697580162040141
32 0.2118913048134916 0.027627818686492667
33 0.01771976216321558 0.5058538500625103
34 0.7902737059635631 0.44030552630492037
35 0.4104191783648007 0.5917331285334058
36 0.5680354780499407 0.14979666947638715
37 0.39709787703467003 0.09417363037447157
38 0.27565006486302945 0.430246864434751
39 0.39707975985956456 0.7542227812759955
40 0.1595539411958392 0.5298413430295529
41 0.5216214335375424 0.06356997021607003
42 0.9363942308518465 0.2851213452827627
43 0.3580845060625344 0.7003212434060387
44 0.07069145776710273 0.8854800838355121
45 0.29389241918297004 0.8966098769597041
46 0.6425791538244375 0.42772296242709884
47 0.3416946774840459 0.06888539913687797
48 0.5944308701497143 0.1695035870756516
49 0.6181263662710579 0.34632364856909736
50 0.09024032742280597 0.8603683552164297
51 0.17417280575863991 0.9163260778151773
52 0.5917756492285112 0.1772917053481513
53 0.5372837178200849 0.21517969565932182
54 0.892706043738772 0.7739116783047459
55 0.9289827363288082 0.6237611721726093
56 0.26645202260457135 0.713573391650074
57 0.1330842901337539 0.5964871752899137
58 0.7828914486794789 0.331690758182435
59 0.9483857034663202 0.9981485129557784
60 0.6158799500813128 0.8014254054525397
61 0.8810994040225694 0.01092825316674817
62 0.6140918477659213 0.9437229022084461
63 0.19192264782157709 0.5289384669424255
64 0.08046921484249248 0.7651449089801974
65 0.12171755667083783 0.051257240497120216
66 0.5500067772993179 0.3703973530735398
67 0.6767016192226758 0.13190642117408835
68 0.6575207858827268 0.723535120516904
69 0.2534738323449477 0.9090187100611226
70 0.08691224413544829 0.9291972830229
71 0.5556853970919781 0.6211121468375345
72 0.9122774181546187 0.9580393788931748
73 0.24106206150362286 0.2941636062393519
74 0.712027449209522 0.8973062763575429
75 0.9379389407998876 0.9915291084340823
76 0.8538165894076799 0.7919308651823882
77 0.8326435968209862 0.8129626586693562
78 0.6409822746682523 0.3208398968798215
79 0.7173876791641051 0.3354241501754547
80 0.9372205404540712 0.6243301879047146
81 0.1533275226392944 0.7347411797249856
82 0.6015224744932981 0.4317321114722191
83 0.936006519897732 0.15667442430260603
84 0.07054031201776889 0.23446323669540658
85 0.8509975760410482 0.23089821652660059
86 0.17318772015054895 0.6205475618693337
87 0.6262620478861803 0.7477081355513268
88 0.21583808291773088 0.5591992323434954
89 0.09970674864578988 0.6156853376245576
90 0.900832860373187 0.9976566858876551
91 0.2584979628298365 0.8073333551111143
92 0.8566896050940938 0.27064595424358173
93 0.6806518275654638 0.9942921046215183
94 0.6900134226952231 0.97390077290143
95 0.17073008261542477 0.07190184825733836
96 0.8699014997303212 0.4012200113868085
97 0.25937985080415393 0.7196484929544505
98 0.7541141713865379 0.12723439752458232
99 0.6541595758067118 0.7555435472511558
100 0.07451302506155033 0.4535387755566276
101 0.8029959136983666 0.02728813211669867
102 0.294034141922516 0.9671911397099823
103 0.14065501082211573 0.3022512242808735
104 0.9483967653106103 0.7583560532777128
105 0.753196359783921 0.6682633866792894
106 0.5287986558384625 0.54050601621371
107 0.6402880623060792 0.6018623849888134
108 0.6551643467479829 0.027119352499605398
109 0.3986454081724208 0.986664197644558
110 0.5653854285304759 0.9609771695283288
111 0.23226265666276125 0.4290714278773464
112 0.17551511711973866 0.35407245844720825
113 0.8626849211859995 0.24420819602035182
114 0.15251529267478314 0.4651203836372859
115 0.07528113166230666 0.6377797957969811
116 0.747460891901806 0.26486176079342794
117 0.26877201910116943 0.4769786590802645
118 0.2761550371110699 0.8415040617232181
119 0.9846049717685773 0.7117811365318655
120 0.6941277462776643 0.8444013361232271
121 0.32611523563901723 0.35559384229574054
122 0.8530843666773215 0.22231649486239657
123 0.8998873093038682 0.8654375292313635
124 0.10004319220181623 0.7787522811106836
125 0.930065402753063 0.6993976631422268
126 0.9782717061630494 0.3647278753138573
127 0.4909127334931399 0.7970190120581355
128 0.9866725277436348 0.9105890962454626
129 0.8507178003272805 0.6734492324422717
130 0.435367211392491 0.08404046485183092
131 0.975927890049228 0.8528844262578262
132 0.10176522702555701 0.6658345165542073
133 0.29703043200822155 0.14657903142064366
134 0.470426381134065 0.7201770062512762
135 0.41081356027335614 0.0994964217540153
136 0.22112519988611734 0.6783769932292685
137 0.8930798622815109 0.047598454277865465
138 0.01028489461431159 0.5628146890090153
139 0.7803485214627083 0.9670479405534307
140 0.5056612624258993 0.06469559910165867
141 0.484806233134658 0.9531476397319047
142 0.17962657943289928 0.9770545503984486
143 0.7622951794576711 0.9992044542015226
144 0.6971566556071211 0.9570818460920931
145 0.9517003759980998 0.27081129771603973
146 0.2628373458178652 0.15012160188503043
147 0.9333988187072418 0.41090624323895864
148 0.24670167862379355 0.3168037013582561
149 0.31825161601112684 0.2845128725567576
150 0.9070356077052919 0.8104298014761606
151 0.7086273950217765 0.331359080169515
152 0.6870461344449846 0.9577516485855342
153 0.1034202651879752 0.6686321802996362
154 0.5685480567676844 0.5965544528655671
155 0.14468325750193078 0.8871050561301405
156 0.31116983856703706 0.10130665891595625
157 0.0630986106005198 0.26643670269036124
158 0.057520962773653816 0.17084974539608566
159 0.2841177460340488 0.5857854243971876
160 0.8704506264008782 0.8039820816428217
161 0.19094958811404672 0.8902611054591535
162 0.4173670663547838 0.4919039898135402
163 0.9423268671419197 0.5364508841331677
164 0.4209185502974303 0.9607916723381886
165 0.14211954512720615 0.8043496082633824
166 0.1629684222285085 0.052112706028971445
167 0.12637919743679915 0.3627413271616249
168 0.5082265811717374 0.6063462500564122
169 0.4222393053590765 0.021142822787371784
170 0.12324173380099102 0.018245730724547493
171 0.44642818602532497 0.79178111045788
172 0.4242389818084976 0.32055427414060556
173 0.15229874199418247 0.8377253318660577
174 0.6148261876996941 0.6653395320129356
175 0.6518724888456566 0.39093557260797596
176 0.4598613502284695 0.2913826512285682
177 0.9942027938508577 0.2371598108517713
178 0.6999653321298731 0.10797766321092661
179 0.11548087063756529 0.9510406260557525
180 0.1533074481473341 0.07333000920383914
181 0.16555936722979658 0.5522696870631932
182 0.3626648489354991 0.04248372704487813
183 0.31333963988381386 0.2025190139875832
184 0.12376084731844961 0.06332953867612057
185 0.22264427306650447 0.8842277164978771
186 0.9457861757930974 0.3357688033396182
187 0.5981084051322502 0.0617230227582134
188 0.47981420495824956 0.568545423654986
189 0.5445819645433309 0.46924810142092876
190 0.8664846755222968 0.2845288850002746
191 0.0656465560667211 0.1359437947357095
192 0.32912738642808703 0.46367193545018803
193 0.10573666318946273 0.3109944836984686
194 0.221531727978181 0.6375151966081024
195 0.6564364502946589 0.19048816346818032
196 0.8611137343381947 0.6966977737034961
197 0.9202999223511902 0.43166234215306043
198 0.2030847081618692 0.8442685945391059
199 0.8363880052915322 0.21671835673760187
200 0.819409347990342 0.9771699192207505
201 0.8038305183296248 0.3150586973253392
202 0.8373983836085566 0.33419526782396014
203 0.7707897319955357 0.589595302510218
204 0.45998707202515743 0.6567572203238983
205 0.886931520041625 0.21320555296186428
206 0.7150631958487786 0.5017489933374973
207 0.28421915177508683 0.039236425529813546
208 0.9547547530206995 0.6180533733247104
209 0.33186987908896404 0.5464422105136708
210 0.472669915123628 0.7497233499197185
211 0.32868947106826785 0.05265590114297214
212 0.28071507625035297 0.273146430049495
213 0.6557345892866335 0.02152527673715532
214 0.3905870243032674 0.008245308653202499
215 0.5006223877731572 0.562039514072686
216 0.10408531589793857 0.155244718489716
217 0.8989316697074015 0.935669435028601
218 0.6343272186593042 0.25813717489487975
219 0.9928937809544155 0.003993781997570389
220 0.1477980558110642 0.927024443471465
221 0.35560795538085466 0.7509327448319982
222 0.47575184586906427 0.9308280534641956
223 0.21361990779368067 0.512714294949
224 0.9153916470670808 0.15651858502679916
225 0.404003888576956 0.8001417654060053
226 0.23810952716256828 0.716477596803772
227 0.39420839524622964 0.9918623495684599
228 0.34115390378783206 0.6003898569399306
229 0.3796157927253513 0.26261545475642845
230 0.5332665238416586 0.6558314832907862
231 0.04865746659917347 0.8600238417649932
232 0.6718395149978477 0.6786642892505148
233 0.18663589292672478 0.28979401783625114
234 0.8508344995420234 0.09923117619621769
235 0.1606273810789849 0.36264664554407433
236 0.7825646024660319 0.14883539452951633
237 0.5025984235305567 0.8456182398023563
238 0.5612574679189428 0.8682381013812616
239 0.5139345204035327 0.22576567407829162
240 0.5037645931001381 0.4258848242922092
241 0.3854781258909603 0.13239559114834876
242 0.9283630284101259 0.019626701883631692
243 0.9762752906510023 0.15603640906702654
244 0.5170359495557227 0.6755383089087017
245 0.9790010568548397 0.01058608699640684
246 0.37728762078306444 0.8699728214997128
247 0.5199542525579851 0.576347402325681
248 0.22142780723890276 0.9555063194863872
249 0.8802745973373407 0.3820543639750065
250 0.005783929732507409 0.23663437142040167
251 0.5474888334603577 0.6486732046046777
252 0.6330770746044012 0.94756581408595
253 0.03226338624106273 0.03174661634980158
254 0.36259707656049445 0.18305880859344048
255 0.6068848296896678 0.9145424945683014
256 0.6322762905787852 0.1428430099138558
257 0.8230013426481828 0.8680789434793855
258 0.5291823983881095 0.5036464772850718
259 0.5907600627388342 0.31901586657797876
260 0.265877930791355 0.3489476132833901
261 0.6461032272373007 0.6754832567772451
262 0.22038688130093298 0.3711613912996522
263 0.9225690817684689 0.3769954664028218
264 0.16305222294026245 0.1688739058484957
265 0.2515536394448248 0.7814539597047996
266 0.8815103738141093 0.9601798736516758
267 0.949457548402666 0.630720714049537
268 0.5882711406079167 0.3316886903062334
269 0.0035560867857347134 0.31208062604589015
270 0.306514175326026 0.13379547110927348
271 0.6769058145553459 0.5672082674609288
272 0.4376599459103333 0.3570604489134359
273 0.8694776085095469 0.6215778286569631
274 0.1383480897255377 0.5023882392840063
275 0.5467390646018194 0.4778318699393096
276 0.12172169622628148 0.03123500240533328
277 0.6320128024518239 0.6731933452421599
278 0.6074115430218082 0.1891091559437883
279 0.42306662588883015 0.3905759378845368
280 0.8023694928812096 0.35885377196597834
281 0.7691200578235713 0.04062842929109611
282 0.5060263240317834 0.7171651216195214
283 0.2900661842080028 0.12431419041645397
284 0.8012129008095734 0.8547225769103238
285 0.05029325643980387 0.6189442720500734
286 0.43335879044415926 0.038140264249565736
287 0.7260509135649869 0.40698563683738964
288 0.350935191914588 0.43571431672926475
289 0.5717810087202613 0.97473377434348
290 0.333733496855086 0.4391622122076173
291 0.7351769435958293 0.5833641860623695
292 0.583638944559557 0.45887922288990335
293 0.05861813712128694 0.8118806529391835
294 0.6540245682697607 0.4532554270333583
295 0.3781222805681157 0.7957264473217347
296 0.7195462425616403 0.6303604093637308
297 0.44972734713266416 0.09223889901945981
298 0.0934522075575861 0.05463894359456645
299 0.6752592199986399 0.782325637573235
300 0.4538689099517744 0.2782472351451998
301 0.3072472195133622 0.41224459916076084
302 0.23195503082253854 0.32378464346419444
303 0.7859701196453522 0.1631014538058857
304 0.19722039798504432 0.47461674579473645
305 0.8382533185358237 0.38075816824169106
306 0.4126424859978658 0.8329792718688922
307 0.7692617611737986 0.9120696005950344
308 0.7521402532934214 0.20481525663038325
309 0.5613609987306077 0.5190422385053309
310 0.12378877316518966 0.1175835742350434
311 0.17500603302099516 0.8947069868905131
312 0.4019025236174456 0.531877128751878
313 0.8212744110389456 0.6160288754829676
314 0.9032774823858055 0.466481241429045
315 0.8113689224492923 0.6993410754180843
316 0.012693877566021805 0.22967048159513015
317 0.31099370830673856 0.6728548251790992
318 0.3085699134922718 0.588585993009785
319 0.8890432069576093 0.3792286871210522
320 0.41446194700029393 0.19844515283949204
321 0.8104315426588008 0.06857998530868714
322 0.15098262769292492 0.6882011586814036
323 0.3800630979145906 0.8694735981167615
324 0.32647736751764467 0.6578128289546797
325 0.9962966838850495 0.9952394941543882
326 0.5054588162579052 0.8387862387365519
327 0.690323731446886 0.5852375467550243
328 0.6353290379009436 0.17894788888646396
329 0.9093325331617742 0.6996442573900512
330 0.9286846792865384 0.7757590109001788
331 0.6128609187552825 0.653091181226647
332 0.024501875275015905 0.13307204032739095
333 0.10550735475435602 0.2777837115599677
334 0.46705034625220976 0.4858324109480361
335 0.1756565796051167 0.08077918848633359
336 0.8499906723460265 0.20529601448672452
337 0.713416653859367 0.8802438964849463
338 0.39149925814269737 0.7402001409768098
339 0.7856503233847233 0.7153750709466046
340 0.6129969736486537 0.48804820918027725
341 0.6339441855979417 0.2624181418407874
342 0.9788685949251966 0.871172541572296
343 0.8190296864543168 0.1425057376798936
344 0.13784337435686578 0.2487656309281563
345 0.5715773624905064 0.5379891046071237
346 0.7274828980680303 0.7221402752504525
347 0.11198403958246117 0.7286468550718689
348 0.49377606384802875 0.7411340608929314
349 0.5229439306045943 0.7975113112923405
350 0.455807556772421 0.8748450957681886
351 0.6097369528109725 0.4620629138727148
352 0.6973227433885305 0.846446952983028
353 0.30704364150238406 0.942280380656458
354 0.3757642544876484 0.7580486797047298
355 0.062393636269178376 0.6452457386102997
356 0.16502992112495518 0.2498970933773984
357 0.3936390216170589 0.46393213608931194
358 0.565666144990739 0.5212645765541453
359 0.19966056204977078 0.26832421086297853
360 0.227866913074798 0.7468249208734128
361 0.26829693821542366 0.7390710220888022
362 0.9623463198076591 0.9429623647136638
363 0.35310208792370323 0.5095690961538526
364 0.7767495972538216 0.6395580128231697
365 0.700053680035304 0.9533875250833581
366 0.5683595705829484 0.06433420556462144
367 0.5459139113858715 0.8034829157598667
368 0.7162371917900954 0.28563726224938213
369 0.05949946841716891 0.8891059345699645
370 0.7936592931368711 0.23204364276377976
371 0.2498446692294808 0.8291362338641561
372 0.10087253787019401 0.938400999795546
373 0.22154661273898335 0.11453810572493484
374 0.5016805333335168 0.5391750140541751
375 0.5720324296834821 0.6922204852000058
376 0.7656241282106387 0.5140518672658836
377 0.2475178087041674 0.05244182478795412
378 0.10795223177341218 0.293255315452444
379 0.40940532020079323 0.23823124966929876
380 0.7960263273315799 0.4546943438001395
381 0.525222259004403 0.503915041807879
382 0.6804568130516814 0.012099210388813009
383 0.5460914531498158 0.4289774954290192
384 0.4195554970981542 0.0558705224246242
385 0.876753621434185 0.8951996705805463
386 0.6689676112677679 0.14413999622701834
387 0.5211881880774629 0.8089334019675604
388 0.48475192048515514 0.31314125197577514
389 0.3602024660516183 0.272691081236323
390 0.7273908855199621 0.35151299546953807
391 0.7555985577002782 0.04605501283583713
392 0.05181378162182826 0.6875121340916887
393 0.9636310933723403 0.9608437101559555
394 0.066911159044444 0.4727236976099446
395 0.14048499073274712 0.41394849933006905
396 0.4109746233154098 0.522122387888918
397 0.0721834934276494 0.9340849135642456
398 0.5053299628125046 0.22799563204003515
399 0.5421012199735606 0.033657935652306015
400 0.7566893232745494 0.8676244430361089
401 0.2552416146727955 0.12581402069753034
402 0.9046734650587038 0.6386270947886497
403 0.26194193720514514 0.6073471204816804
404 0.520030868254923 0.5344686700603228
405 0.7880389231769247 0.041487739618593644
406 0.5851909560979919 0.4462500155890282
407 0.506925414094943 0.7749962611046204
408 0.30973431204526436 0.16870793439761034
409 0.7357056410973989 0.5398790879931044
410 0.4594879953555223 0.40791863320914
411 0.7247121134144604 0.4552382319573428
412 0.1415771002130617 0.24509674419384242
413 0.08503382720784392 0.6870733636289719
414 0.6197578198477879 0.5331537068979083
415 0.1257275022965666 0.5196383973404194
416 0.40703050155655185 0.21750222378410022
417 0.26538367203554947 0.9579198019715367
418 0.9550628495768207 0.10419365526047342
419 0.6344223931536416 0.6868655987863146
420 0.04682923641852854 0.3995530207108482
421 0.48215008083737454 0.4513349396900237
422 0.8478455046692935 0.648750000723754
423 0.22435908054188036 0.36023849155084897
424 0.933694540242441 0.9657769887393955
425 0.49916713222856435 0.11939503470182833
426 0.5572874960981801 0.9868378782568956
427 0.25628735794332846 0.26966136317078226
428 0.440334723385588 0.2552444275365858
429 0.6473508175331121 0.7443065040722854
430 0.2645984101572121 0.7508534666360519
431 0.731608423029428 0.7249282501216355
432 0.929212646537398 0.08187998992201873
433 0.583867907737205 0.7080799401801491
434 0.07403322186788963 0.9205923249273581
435 0.2626648608750374 0.5961940435689898
436 0.20329669735121825 0.6237599053170029
437 0.24265093992789077 0.2852832943747253
438 0.17901474357868807 0.7577876257957993
439 0.5538328425383081 0.4475734518518676
440 0.9915335123180371 0.47526691527664666
441 0.7286578586769004 0.5568031197781547
442 0.4023768451481372 0.5897912292067728
443 0.32582982549166273 0.19903021660097653
444 0.18701098895229185 0.24890315877674374
445 0.8939529341908291 0.7698596779361195
446 0.3243408428033089 0.7015529714963336
447 0.8011413993859103 0.715557994583782
448 0.6629908098456773 0.028277731006805862
449 0.44699605644000084 0.5863512410922472
450 0.16292609538753244 0.7901800525382107
451 0.22778765355711839 0.6352511464675265
452 0.16321198418970873 0.02671176142565268
453 0.6386329649368744 0.7306295664139827
454 0.7476575673186129 0.3627745337653736
455 0.5583576091921615 0.06549876928941045
456 0.4450391817733521 0.7518409062177223
457 0.563927185958919 0.9116407164157904
458 0.6199304615734909 0.5897468543625238
459 0.3498631448819248 0.28386527697880315
460 0.5416458882039267 0.9997981549643098
461 0.9105238828103468 0.4835803866151622
462 0.8476410318533316 0.3395730600459843
463 0.5900198417961833 0.31693054852822866
464 0.5483769040403368 0.37650321919445473
465 0.3245612356479638 0.5669999068359728
466 0.27468757935783095 0.25092011245085255
467 0.6201880924828586 0.3394547294171715
468 0.23902635655511495 0.03574976414653297
469 0.17177421878454013 0.9993258105850502
470 0.5194507076014758 0.19158507320001872
471 0.9707519276486264 0.37158850637072516
472 0.4848631377821998 0.002545236117620475
473 0.15885428042495808 0.6984737561074551
474 0.5621571320996867 0.4289598456940208
475 0.21164193141730125 0.1440844584929467
476 0.9662126402549059 0.6456469723694295
477 0.3658498709705962 0.7159960766938777
478 0.6434379777397425 0.5222093556801929
479 0.02576313365381877 0.5245878621358103
480 0.06907889834524006 0.4774282752364233
481 0.028679190965499646 0.655220935045989
482 0.38225394450840244 0.9413269135293557
483 0.4667142467744866 0.5817212907977649
484 0.35513417482774756 0.5520509139762305
485 0.6114172606680732 0.8459440961377496
486 0.7104189088596261 0.3276890354951768
487 0.8982922050094212 0.5241713009162142
488 0.5586606383421504 0.4356951441941368
489 0.8146680903886838 0.643170363867036
490 0.28025352236291545 0.20428857659007016
491 0.26133298300484975 0.14721120850521296
492 0.03310359313242783 0.6938314622410254
493 0.10401222273503474 0.7751272587375538
494 0.6921120223006338 0.020225399087622664
495 0.485854854777102 0.3188225975675114
496 0.1410764062239689 0.8787345553897625
497 0.9378075236753132 0.8485753626508568
498 0.398533263136282 0.8374065273943506
499 0.1701416671261443 0.9384290486093624
500 0.7982369314077382 0.6268079894437623
501 0.09674370911174057 0.1722018032439101
502 0.9452048341482941 0.427157610916996
503 0.5524769173983902 0.6612913566438426
504 0.6022290575709425 0.5903102256314761
505 0.6162142055205991 0.9213839968137288
506 0.9841989408748757 0.12238733074112329
507 0.1953678684230714 0.9358861386246202
508 0.7862333388520097 0.8340554608712485
509 0.07436752939447488 0.6160983249214157
510 0.44324317309834493 0.3126682042370478
511 0.2018151800459802 0.329828289653898
512 0.8906066121384246 0.7074081870680295
513 0.8235154701211748 0.8990182899203801
514 0.43440728619396596 0.03455265334399371
515 0.8515414084469489 0.19967916178725398
516 0.6195532627376844 0.4999664484707689
517 0.10348349103719112 0.9433027969113843
518 0.8854915146217858 0.34349617536846877
519 0.42273835005015914 0.33718614189032825
520 0.3786603148639347 0.8488363361084686
521 0.3943569726856433 0.522444545290069
522 0.6283162509255064 0.9509009753113615
523 0.818586776735895 0.2175068102861888
524 0.8054685182282778 0.9850668041560472
525 0.10829376927786871 0.6182478226764617
526 0.7285909479502337 0.09695636486780934
527 0.12422402167471536 0.15146357220354545
528 0.17041231772356258 0.4977471339148627
529 0.39748251857209693 0.3714095758619169
530 0.38261778225916243 0.44135978089335426
531 0.26049239381724054 0.20470211996723187
532 0.3303192560585707 0.5396744325763361
533 0.2474349305507556 0.7134028280821354
534 0.8508658552144295 0.7635615276576112
535 0.2932055081865619 0.438280329778193
536 0.9250311065213884 0.6861202539053964
537 0.8679998443658076 0.29904239997941573
538 0.4186160031957791 0.6726334906481215
539 0.37578529631648205 0.0753467993977498
540 0.1566893935530761 0.6492827174652992
541 0.7052239644320994 0.2321677582359416
542 0.43502596311364883 0.5090143610773383
543 0.29571400508406975 0.13270091461749378
544 0.592312278604584 0.3303631706241571
545 0.35909162293248087 0.5055852453718706
546 0.44657886558129345 0.6416879276009405
547 0.8107008959375702 0.24976143489430025
548 0.1678216761439255 0.19571637200579606
549 0.05753377130820192 0.3188106658108355
550 0.2126462165472337 0.08433394850653919
551 0.928909953354218 0.2988195520462297
552 0.8524298841137598 0.516594778772353
553 0.46973366279869055 0.8785176949610979
554 0.36002950073578477 0.5430887059810153
555 0.3696086565208718 0.4152915605295281
556 0.5285949339312305 0.2882604752498299
557 0.9956410442984895 0.36689458603143665
558 0.9773115276740244 0.6790471091693001
559 0.6197376308077971 0.19271876570818758
560 0.13738679251081376 0.16168935086050917
561 0.594453397970823 0.20528528266659196
562 0.026978522427388074 0.29434781759868356
563 0.5351958404070186 0.43469371589625627
564 0.7191734663519487 0.602509542815017
565 0.06313354338266375 0.7666310897495133
566 0.7565906539123183 0.4462088826497781
567 0.16259528364525988 0.5497328669041953
568 0.06610082692476982 0.5547183359283147
569 0.8473879910384579 0.9799711019828027
570 0.4699124389094006 0.06276803254584973
571 0.04861414817970877 0.31007125506098854
572 0.46038046427486756 0.47023724826649627
573 0.504720261614529 0.8976091317319586
574 0.23267388248531973 0.27941367799403316
575 0.3990162745699889 0.11043625384284461
576 0.8387759403469417 0.5618400337136609
577 0.5448423658968807 0.48348631707627876
578 0.12167376106295646 0.6508165900842953
579 0.2390668865421719 0.22337769037296562
580 0.06592474156803796 0.3484171485467311
581 0.11859564775538256 0.07038793767060647
582 0.6465560113605066 0.14617289231937658
583 0.14949420164289962 0.9813666960786319
584 0.47913043261459887 0.274003523495414
585 0.1690063441978653 0.6914632593802655
586 0.5635701064010298 0.11148194579095005
587 0.3399820119810085 0.24183505697446717
588 0.31505314350005253 0.6925693426827896
589 0.9927328388064501 0.9015891405100749
590 0.48800024349802007 0.43637823069099724
591 0.2913668428119186 0.07406044578247128
592 0.9848675125623265 0.46384692852014
593 0.8737107634479404 0.6939575624412045
594 0.8667799073744364 0.9111358673314521
595 0.4296745860899277 0.9094276503804769
596 0.63134865705923 0.7519304450614056
597 0.30077374190474815 0.7600177592784065
598 0.7215094972198486 0.13216407960072385
599 0.7058471042426419 0.06812049460338554
600 0.6472922107207038 0.1434032271031228
601 0.24500074421365903 0.8505126857040596
602 0.8549804819535356 0.3542472519422266
603 0.31287956840011 0.4733965939629572
604 0.2014811340028364 0.5402022763764898
605 0.34996807528470686 0.8564187744061134
606 0.9513959513722018 0.9331658771354615
607 0.16425885726210732 0.6157125799824958
608 0.5814625890512661 0.5446471611632644
609 0.8113920113526847 0.7133856135789781
610 0.578470483462111 0.9910383423539598
611 0.6482342833061158 0.23205829493892371
612 0.17274073536680212 0.9551687900120471
613 0.1582229447339928 0.6874050540438253
614 0.03916924147646561 0.9883948570568162
615 0.1611073152025556 0.5042020616310063
616 0.03778918789581587 0.005131980804197411
617 0.27245025053004135 0.07275639646040066
618 0.5211401858722174 0.16895228501648718
619 0.4197162117591803 0.9699273009921627
620 0.8584171343130237 0.5170022695603717
621 0.960285610307578 0.6916058798029278
622 0.8669831469188891 0.2820305115245453
623 0.21040847140640606 0.3122206366472795
624 0.3005374095138613 0.9130184154274996
625 0.6934020460655632 0.7073502492919791
626 0.025899939960192242 0.8235794590489193
627 0.7651548751862738 0.05952619834305095
628 0.3131663727051869 0.4009525460652038
629 0.9527664614652367 0.3952984856362922
630 0.9970302661103952 0.22469038592637325
631 0.06398383273258568 0.35564489038387936
632 0.1101094222462875 0.9631193977406034
633 0.6576719743473087 0.24396457691008888
634 0.5639520411893622 0.35325531815749456
635 0.7368444488415444 0.3994527240903988
636 0.19996365577441877 0.2370227169103194
637 0.630829100335344 0.018675756688429468
638 0.07384533895064915 0.28282598387067814
639 0.38684527393093193 0.7302278322951753
640 0.35024781979198316 0.3621795175328556
641 0.22741200247318205 0.6900873059850685
642 0.5412049205227965 0.2832164165579931
643 0.582750452194871 0.6938153956836163
644 0.512521003234912 0.4436510222359905
645 0.03587872032701089 0.4400788866388554
646 0.6399292215317472 0.9013225069409799
647 0.4521021180145681 0.9909005943342712
648 0.7772952530754069 0.9494037427195967
649 0.010487215559519814 0.14108677792089586
650 0.938589357348867 0.4040314370565894
651 0.5112578982201632 0.18340731941068067
652 0.3657256935797657 0.7878324632048114
653 0.5330290638407559 0.22889957809498673
654 0.6952600929829678 0.6869332828100209
655 0.6452158355765361 0.6846027127087672
656 0.4380707142678436 0.3516639951454321
657 0.0023573132934426866 0.5369395655475225
658 0.8546158353592751 0.4635434230201605
659 0.06247772565036014 0.6277484781568123
660 0.020606215177045195 0.3179275344623823
661 0.6812283062082343 0.007791010006651722
662 0.7731008306300257 0.007981228113175809
663 0.09785447480951293 0.8494007460971985
664 0.1582113786622622 0.7874827113595887
665 0.5841263034441087 0.8165889418554604
666 0.7470567019839375 0.3145370919460916
667 0.019302557302361856 0.3901289457681879
668 0.41202260734028584 0.7485102851441219
669 0.7492921902745282 0.5385398395772582
670 0.48225162077357997 0.4423817211337655
671 0.4846550106098323 0.4093728101375631
672 0.02886792967798557 0.7666496650035644
673 0.07153338178603297 0.5903727901307617
674 0.2753201499685155 0.3854405333075943
675 0.0813943194521366 0.8011104399900191
676 0.6965805756596554 0.8063087052284706
677 0.2756148406257022 0.07047851592966059
678 0.3832833902355961 0.8309863248169791
679 0.46938108896927044 0.7649061401198819
680 0.5873810469271813 0.1297226599217557
681 0.8727770796341547 0.25409624949753074
682 0.14758564694713838 0.7641107748000409
683 0.7941062236007245 0.8517624922770363
684 0.22781948727678447 0.7005266509701327
685 0.64237753762516 0.6833644979894172
686 0.7175308218124975 0.34119673058321665
687 0.9906062445288785 0.5696759729381004
688 0.8072824822413864 0.4732902896164587
689 0.4966997835754471 0.7514315517883746
690 0.2717883697763056 0.9117312396798829
691 0.1302847495404067 0.19775125901431156
692 0.9924694861358668 0.8003281895001775
693 0.5664978608217952 0.5173531950450709
694 0.4966065672847666 0.539694115210724
695 0.9322260687889654 0.5740206271531832
696 0.026006023668389 0.6090266023220792
697 0.46672421523118657 0.6382027961782882
698 0.8848904499061989 0.4364377630106484
699 0.24716499149694215 0.15062185924175842
700 0.5902041932157429 0.42739704930268063
701 0.3160894125242133 0.6333979034679759
702 0.686555273546973 0.13508356868586313
703 0.08593281145772413 0.8703545152742236
704 0.7487689700665778 0.045575024512474194
705 0.9194528604337422 0.2574325038458598
706 0.9480505314447503 0.2870923323538135
707 0.01956896335604763 0.7307545720218104
708 0.7390338535110805 0.5852986960226824
709 0.5194695003098658 0.7220786545659095
710 0.18146037555008188 0.6436753032302975
711 0.14386737678598982 0.795200054933954
712 0.2978667186919519 0.6575755621459309
713 0.3615452077022697 0.6580771892147034
714 0.7891906140418685 0.7815069778589442
715 0.07326314208340501 0.8225076388992748
716 0.2411359046766347 0.26554371493910867
717 0.5117681976351359 0.6434266678130413
718 0.8919726632670991 0.7640678212841047
719 0.33809222617427737 0.2257669400586848
720 0.3859904774475351 0.21222120289847457
721 0.11734039331641966 0.10031394300320651
722 0.6164095099879346 0.9293751698414391
723 0.2415113890222933 0.43248096786361
724 0.8153488909137906 0.9704795776396071
725 0.5790285462007425 0.7966829478084924
726 0.15648040222416904 0.5984047136816111
727 0.5263351939998497 0.08371318763024593
728 0.9549411761424833 0.8536184950666851
729 0.12200759241252235 0.4685007982947683
730 0.38135708499190313 0.6182363174758556
731 0.06907536514488066 0.5556213865857024
732 0.1267216767023478 0.5017418847154778
733 0.1928803116182798 0.18216524503506126
734 0.4812222839624001 0.6337442072891515
735 0.7962020936073546 0.034463295028570484
736 0.7690750279495556 0.8249495391542115
737 0.060311291447876725 0.5653837396631024
738 0.4802282918777211 0.23709371242407318
739 0.7918712414497376 0.18089929807730554
740 0.07021019439774823 0.011923007540802999
741 0.3134507760462901 0.15967968964646717
742 0.3824652022979056 0.17901935258335278
743 0.16309895774968308 0.21587164416799842
744 0.4549435857345263 0.6918186977528088
745 0.8466784170495472 0.022446041700179054
746 0.3884530761710685 0.09838649115302767
747 0.36313440456718993 0.7787584421099265
748 0.6247057080709557 0.41650130437206323
749 0.7523720853992084 0.7141272870587646
750 0.5064257486411657 0.7760959854928373
751 0.024513013762499813 0.3809815416580541
752 0.1021658863456052 0.5571114307391876
753 0.5816742502365478 0.31394773883158456
754 0.9459182303965807 0.38426765778777605
755 0.5056585699767019 0.8336742307567279
756 0.073016459026636 0.8353292070696232
757 0.41374944542520287 0.6942932562596732
758 0.5635763660068224 0.1492311417900205
759 0.8798511567204003 0.45385616568153175
760 0.7185608231418579 0.17774103433990895
761 0.27165117153977725 0.7991661116433302
762 0.3999444751047033 0.9010877366329927
763 0.5114482183369418 0.7799412277097844
764 0.07432364256410107 0.8379097368188523
765 0.6579926331212199 0.8578210552051332
766 0.3873435360785965 0.4247662854302594
767 0.4368563041450513 0.4220350547482068
768 0.1671505282781397 0.8030875782654586
769 0.6931633424915378 0.24178617550103476
770 0.8997039837269137 0.7478184199386423
771 0.6373172616388849 0.7658068213485998
772 0.3378382764061526 0.5198363022630977
773 0.8842215952125589 0.9667570477821212
774 0.4163854486998292 0.9558454560272309
775 0.06674281621946831 0.0754819896708131
776 0.5576799948405597 0.5710284048309234
777 0.5734318263889384 0.13219384093841846
778 0.8341024147550538 0.2383274942889868
779 0.3415899482309793 0.4656505764846912
780 0.5673774085969078 0.20599522945442494
781 0.5736764755661884 0.7174352184134059
782 0.3361993340112026 0.921009126806612
783 0.9055198440971483 0.9354971043551581
784 0.5675257626731977 0.7398278621810777
785 0.3803409173959156 0.6113643990807497
786 0.008996535208594558 0.47809887532111073
787 0.3073848537872429 0.7189292939066542
788 0.1631725813186069 0.41226022184798006
789 0.11403915199911685 0.2907269480589738
790 0.4951854747209503 0.981369345333226
791 0.2628330146485449 0.8378826098124059
792 0.2985207349916148 0.18974131172397624
793 0.7158133223491516 0.10611786244052235
794 0.7953956773290423 0.7789910021596174
795 0.31878558569499194 0.6227442845193635
796 0.9042213809702515 0.8170396321682286
797 0.4509997664215588 0.2361704877166202
798 0.3754796128007861 0.785478902600071
799 0.6470949000666352 0.8317031006577421
800 0.2391807642354562 0.31676438091735803
801 0.5177437442505786 0.721438090433634
802 0.954212585408166 0.6976829661090959
803 0.7532232541268046 0.3204590853574276
804 0.38872807877758353 0.27109675427666147
805 0.22302480552275294 0.6355957474090789
806 0.5943055833820571 0.7685714596271801
807 0.08510601408381957 0.695568931197841
808 0.4390808506852114 0.7335472328557082
809 0.24836183234652176 0.9182781511439172
810 0.6794223688636288 0.9163375762417099
811 0.6436742444212163 0.22128468380614752
812 0.9380238919957768 0.07541263644491414
813 0.5620399866034078 0.043048101777687364
814 0.7092348265269496 0.37347289965860786
815 0.0372544153666331 0.843694997116793
816 0.22118816469155478 0.9466295826232878
817 0.8069842515264957 0.7306666436755911
818 0.09401542413169706 0.8950167958748404
819 0.9796807158301715 0.572183591975912
820 0.4181072280792393 0.4005848002578217
821 0.20935970453929764 0.7731694180908762
822 0.7796139324079895 0.15422439467763083
823 0.2915333436781089 0.91057387894799
824 0.9882312471066671 0.24824188619431797
825 0.5354373625311039 0.4851741559969047
826 0.72936717574949 0.03430259703355487
827 0.3551475095879236 0.3934949732667762
828 0.931066490650717 0.6191244643039873
829 0.5468033401146016 0.24411068848481499
830 0.04011269717005628 0.9949699986397494
831 0.554895136180756 0.1804491846396411
832 0.4904218750561081 0.138399975568528
833 0.7403054152743508 0.7982392172956823
834 0.579751615323445 0.9875958366639385
835 0.9792377802468774 0.03723814468779241
836 0.8087418636352243 0.7440684062167365
837 0.9798394618771004 0.3764768801238779
838 0.6085170051780331 0.1409131354270653
839 0.08563146978465896 0.16392473842031052
840 0.43532625072811715 0.8082169651183126
841 0.24399819111638543 0.37137882772025443
842 0.8753363620920059 0.46040944125442196
843 0.3624307935931531 0.43987957180811443
844 0.7581414552457425 0.5655437446440513
845 0.6461777018499567 0.12181779476397292
846 0.5937013162115616 0.916957016436702
847 0.16214921452630915 0.5921659780819694
848 0.8849396687114699 0.5964135140674555
849 0.605218835817654 0.3002119833842507
850 0.6108578696370408 0.9439554384336282
851 0.16298368083160397 0.9965533135551985
852 0.10490895231313546 0.9821050289329971
853 0.2600599503716785 0.6770611424817189
854 0.5649240341379069 0.22375745615218134
855 0.3762104951922912 0.5071828628002795
856 0.8795976518425422 0.25472213773610997
857 0.37477115522672866 0.048183197771196284
858 0.2704991592361844 0.9607537054339277
859 0.38480459177573834 0.3519781046469511
860 0.09086450803556323 0.1337177172345403
861 0.12216351472806819 0.7525483557254701
862 0.022962789848814946 0.8627017486587957
863 0.4530726151965183 0.19026887558244876
864 0.5732268773615586 0.6695389833605745
865 0.4885185665307198 0.38040073102875926
866 0.0857742395274681 0.6290842773048035
867 0.11599634762221267 0.8448246408624265
868 0.5666330459698908 0.6059536424062822
869 0.9285644061302369 0.7734257178855243
870 0.041879280663333684 0.17073401184764414
871 0.9249245249323745 0.6901253822931508
872 0.967539629584725 0.7214599092768887
873 0.9115968727742677 0.745725152253761
874 0.5189877723529364 0.039234525548136
875 7.280781865803831e-05 0.002951730550219911
876 0.2623611527781 0.9437977243388741
877 0.47044417643581216 0.23091194550283667
878 0.41602960007189094 0.9232779758625552
879 0.9852512604127225 0.4935577108596749
880 0.6484204436758231 0.7335596105161724
881 0.706175114600663 0.06865202853475494
882 0.29740464284014223 0.6942436734190427
883 0.7989634139435711 0.203295090909414
884 0.9557826805216751 0.19980590667244313
885 0.17281790433251032 0.33985345224977437
886 0.431570030455409 0.4829721523777094
887 0.11879836370627095 0.6897253696470341
888 0.4157813375708367 0.6291648517766848
889 0.7811159999371856 0.0699186507980305
890 0.5876075667073506 0.9841261852374171
891 0.9354654355930816 0.544144658733929
892 0.354862917903927 0.32362556621262284
893 0.23792390667838192 0.12771270747103114
894 0.5711194591792478 0.3140542036323607
895 0.40596686087535383 0.10297665120326593
896 0.15464120791046387 0.8752869407807273
897 0.7273876092229061 0.5201823261998679
898 0.12380983962231273 0.9819703669818933
899 0.47161517298065025 0.8436061311396692
900 0.7263246466171679 0.23982731229827925
901 0.8834193918628422 0.32357632583265217
902 0.7423733232594266 0.7270202965418008
903 0.45296323337949385 0.05706734080436637
904 0.9091657421266378 0.7446671699364477
905 0.7280235459925185 0.22878403846586737
906 0.17697832039006178 0.7871802467577885
907 0.10137150081359314 0.10386818901921702
908 0.9065500553570905 0.07989275049115674
909 0.8484326573625683 0.4703526124747688
910 0.13605254449914783 0.24418032183714034
911 0.7903079358274311 0.718417410988294
912 0.8271148217968979 0.9010840911073242
913 0.9413470208011119 0.24038375988214578
914 0.4844473253104311 0.12950954615092414
915 0.581804455620286 0.9589700139759312
916 0.8055983316654056 0.9801930734344487
917 0.9222387834618693 0.23732641911063523
918 0.509950237471681 0.999611227316953
919 0.6436658482370451 0.020540885379510376
920 0.27898623571348746 0.31095343531133735
921 0.1296305498654292 0.9600985343850099
922 0.38898225340822223 0.5628621049504179
923 0.2085379812050543 0.03562212693615474
924 0.5143618832385839 0.49674307197671586
925 0.9555597576877141 0.7727178233605766
926 0.13735176334511756 0.5698240119341065
927 0.10535404715872199 0.3611334532609527
928 0.6466174600749588 0.23133623772890288
929 0.09338874092245364 0.000126691937499257
930 0.0549162825602727 0.3585443042384613
931 0.519786275936369 0.4130043875416175
932 0.8167922278430667 0.46347671873672214
933 0.34690653234555957 0.04423767291594183
934 0.2868444933066593 0.242409161410176
935 0.9373027219332055 0.22511697934023067
936 0.9628904825454865 0.12250502034654054
937 0.1780660064033609 0.41210174063678495
938 0.1268900448003354 0.6680646116552967
939 0.6583398306431053 0.3423017231231301
940 0.8031421838102243 0.8426781099079573
941 0.5535705482817435 0.7875584985668074
942 0.6345394808113299 0.6150108535389368
943 0.347472068204546 0.10946368151007613
944 0.3638375287066745 0.490539495535562
945 0.7829693384111608 0.9536287781050258
946 0.7545781932896414 0.4626009669556921
947 0.7983862751840012 0.9091502081617419
948 0.06544380486941592 0.50589758902207
949 0.22293983612273693 0.796561058826159
950 0.8775395607359537 0.004478206371095528
951 0.5915517028223022 0.6344081838868247
952 0.5498564920811084 0.12210269078989233
953 0.9244226462827966 0.7943924815930721
954 0.3748445109683566 0.9774317441768476
955 0.6556989314836169 0.7162988498630455
956 0.30329844431763897 0.8307157723221003
957 0.09676945371388435 0.6396197834852754
958 0.5804859450172882 0.5781623719266763
959 0.48239664002088956 0.030593358657949876
960 0.02226286244057396 0.6709939228560378
961 0.835861642434542 0.08264554845028582
962 0.05133649812393981 0.3736865369549325
963 0.39168022049296036 0.14558924470292833
964 0.28874496955533435 0.24118899358501356
965 0.00712574783238229 0.5002661097513138
966 0.6219628844490211 0.31879044112155563
967 0.3506261408437149 0.5786847809826872
968 0.8120567135446497 0.4037072314017901
969 0.815118635619449 0.04796773041404456
970 0.22185229134803974 0.495651989995068
971 0.47608428329969 0.8440648097834709
972 0.17618251371512883 0.011155246868086333
973 0.9658823729576118 0.0619189242386865
974 0.6877843325982791 0.932863055745873
975 0.41586352672228033 0.9069367145314942
976 0.5957377327192946 0.9189390360665126
977 0.14266794227409696 0.42400963023376603
978 0.6717735461755958 0.0012047147651229606
979 0.28952735417344266 0.38119652563397344
980 0.43423667283745715 0.015524522859603596
981 0.7036480874443001 0.8096328526749316
982 0.8141638835886394 0.6046429388518827
983 0.1294101226456411 0.02326475977070175
984 0.5672106042518353 0.44765478490998845
985 0.26270092553684665 0.6459564052821123
986 0.12846667542023782 0.8092355138255494
987 0.9786131191707593 0.17958600326865148
988 0.26460538752911245 0.2229270676397095
989 0.9445182863928836 0.9667853292731023
990 0.7071403180932045 0.08781651236236665
991 0.6832743257853893 0.4262717241533801
992 0.18018018859763374 0.9395599666149267
993 0.5932819125788463 0.36986011459699675
994 0.8157303252876167 0.1744361758983346
995 0.8753475303260554 0.42420323778590296
996 0.13374804560561737 0.5416574790999761
997 0.7970652079087104 0.5272399848033456
998 0.9340453985236362 0.8835149114696407
999 0.5022795542605696 0.28297969128925116
1000 0.09231142482373078 0.17064141775329922
1001 0.2771521435443358 0.18069081267883502
1002 0.7608749939649135 0.5722582645245644
1003 0.13061006212774962 0.5750610802052547
1004 0.5199713959049197 0.888341734058101
1005 0.3063060302229723 0.4661841251428972
1006 0.4151050326989235 0.29103426772086627
1007 0.9992791116888761 0.23354466908159677
1008 0.23747957401238928 0.45462847806246043
1009 0.6449129863396786 0.8469327527179513
1010 0.1420504268869539 0.7519546617778538
1011 0.5099120412109941 0.7214383279086386
1012 0.27023599689631683 0.006931815871057179
1013 0.9636818150459106 0.09015071126869723
1014 0.8979913190651594 0.8818797272674318
1015 0.06306677206126055 0.4232257954798936
1016 0.684035778045871 0.6684310411638467
1017 0.37679604591823446 0.13262170305936372
1018 0.7629151455296632 0.6402504229335702
1019 0.1546087727506471 0.7764081907662447
1020 0.4231428721997502 0.008085272429217305
1021 0.7744938940303746 0.22324778286863778
1022 0.2897620792755644 0.5190294774271446
1023 0.9674212941470671 0.4356383986803235
1024 0.5283846993053998 0.1481929745377707
1025 0.694361779267322 0.6009749516071176
1026 0.8024662234205399 0.8597075643028826
1027 0.5002849786693037 0.12135974497968804
1028 0.034117715689983674 0.3740315480912427
1029 0.1285715467654942 0.7566821966967519
1030 0.7041430413923383 0.999880141808881
1031 0.9160801258399696 0.8122485536924597
1032 0.5506146868390113 0.6226576177611977
1033 0.007016096021442153 0.28836358444887233
1034 0.5941889245660175 0.1337988169917934
1035 0.645595747816539 0.3805525368510414
1036 0.43234717668872913 0.8139890767243495
1037 0.6571381731345778 0.41098377332559466
1038 0.0808488632589337 0.047965684756160365
1039 0.46788159323958145 0.610447679798678
1040 0.8899421586115815 0.402261748789126
1041 0.23487915893471256 0.42138605122025174
1042 0.6392911125115891 0.6037160538508763
1043 0.9913535305977044 0.6818068556751546
1044 0.9347507996246928 0.8706947575323126
1045 0.24659681513847254 0.5610879002075254
1046 0.847096062756684 0.3032361197022979
1047 0.770791044671745 0.3011730444962776
1048 0.8435470892010557 0.9457987663221377
1049 0.3256889579190866 0.11316586444248544
1050 0.5538542910434822 0.15097960619576622
1051 0.6088622167057585 0.8790771196468479
1052 0.5956689580935318 0.2885793896019069
1053 0.5108809978044239 0.718963814121279
1054 0.619935381133696 0.5716605114074114
1055 0.034255302115189346 0.008022102445641943
1056 0.8545483213291379 0.04170432865202656
1057 0.5853384298083851 0.4453445099635266
1058 0.5582074714915406 0.19119491849143944
1059 0.5819102057748325 0.21020471313717315
1060 0.47472984327062984 0.38026362358950394
1061 0.9978369871529501 0.8914103853106555
1062 0.06596614002556145 0.5523462914508055
1063 0.11437852830092288 0.39217893940245085
1064 0.8514098810512215 0.8442283695829444
1065 0.18331797463819577 0.8355310439712603
1066 0.0021981545865548124 0.9400573338550683
1067 0.8860852005873167 0.3316404813319763
1068 0.7796717538170138 0.35408425603619376
1069 0.34738435037889637 0.6857337115042651
1070 0.8545717530597996 0.15113062840859326
1071 0.1415854238693508 0.26452619592499416
1072 0.05246843606930629 0.5699101822477445
1073 0.8206466813916115 0.40298187123761087
1074 0.9527224651662813 0.2236299742412997
1075 0.6437762476064633 0.9568432428875395
1076 0.015035863618997447 0.7564797549865151
1077 0.5347523352425408 0.906492761349924
1078 0.45800684502730926 0.2357187844462807
1079 0.8408259123940506 0.7173348364074211
1080 0.13721065183935433 0.8352472035804406
1081 0.3150785868418666 0.3683850741791491
1082 0.7232308655782596 0.195839914385588
1083 0.20499065309459719 0.30043863822662276
1084 0.10628764950790226 0.3210104873642091
1085 0.13577837226190193 0.897689834347228
1086 0.09925063285265101 0.7179577328668777
1087 0.6637921635711506 0.6698088140325879
1088 0.8627431764119015 0.30192386050365905
1089 0.0010504506398122393 0.08081276917715663
1090 0.4032431971165844 0.17524156325597418
1091 0.7962759405140831 0.08723557248209901
1092 0.07309964311228156 0.4288180511196584
1093 0.8391672222506701 0.4684740987697086
1094 0.17213228035020622 0.4413929432268099
1095 0.660025795890353 0.8604213372713708
1096 0.9899534522427442 0.8841702524829613
1097 0.5018366565147293 0.3268662264267669
1098 0.3505290221729688 0.382943380754181
1099 0.030652940742522783 0.4427649698212782
1100 0.8611893142647662 0.34616072406208875
1101 0.3478162510689974 0.1359389017165552
1102 0.07000725079478742 0.4529537880907645
1103 0.7711904079589254 0.7437774086394805
1104 0.5317120213556197 0.9101324108708986
1105 0.4148495029428523 0.9132380638571475
1106 0.918656142660924 0.735142159246253
1107 0.8631798448550404 0.9665330501286888
1108 0.029691907596158362 0.22901125561826652
1109 0.6167275507251144 0.6675257891716854
1110 0.6341209464400591 0.3287307055039429
1111 0.10784531909716144 0.9693549293361176
1112 0.9430412576618864 0.6203676021785363
1113 0.021526072482678127 0.6064332391987831
1114 0.8194546641008271 0.8091621038461353
1115 0.05599988207522777 0.08846437157042553
1116 0.5443591040860692 0.9975621067517174
1117 0.2757467667266611 0.773710984274117
1118 0.4035996322221317 0.4787072314859815
1119 0.8139602635669905 0.7442270502994666
1120 0.9335435063341863 0.41759418352613376
1121 0.15783849624222612 0.12941463277334475
1122 0.15299521601800659 0.48691573861371285
1123 0.16871505744813275 0.21537942067404425
1124 0.1498749907238106 0.7635117055335188
1125 0.898680297966977 0.9310810852475851
1126 0.7129559253016869 0.10166301442908143
1127 0.28473616108243116 0.399036935346604
1128 0.46498685216597646 0.480400676444685
1129 0.9329587645392887 0.4812197148008791
1130 0.20780081777730475 0.07780760126678166
1131 0.15999550897289594 0.401862474287363
1132 0.6224795632891924 0.4940006561483208
1133 0.8199401737892166 0.50258092369725
1134 0.8150563345129033 0.1686329045845687
1135 0.451749963559407 0.3222438662633327
1136 0.2200441098678494 0.01441326948789634
1137 0.23954271758895584 0.3726678336406488
1138 0.49597256987773886 0.2965030970569622
1139 0.9139387146583304 0.6190879650587502
1140 0.07881951820931832 0.9266959843013499
1141 0.13393663418990953 0.3529283446713123
1142 0.3844678543374891 0.4311480060349421
1143 0.5676551445703949 0.8706224122170282
1144 0.8813154741061989 0.7567073877897442
1145 0.9674144335784579 0.3012775881131706
1146 0.8012914465312158 0.19055728303827968
1147 0.9081711063301494 0.8305049062548435
1148 0.9945816287900825 0.061724300071075655
1149 0.693662349587257 0.863134427430661
1150 0.6511053840954438 0.08220345418813813
1151 0.8374525612535905 0.6865646973100346
1152 0.19587827061251395 0.4018731100952949
1153 0.4122549880090547 0.02928614040055111
1154 0.21592055636155583 0.48992212886926667
1155 0.3568317761848957 0.7731159040342835
1156 0.004184265394144071 0.6684439620288604
1157 0.41234854229336626 0.6172625175938554
1158 0.10615680042594566 0.47326186638038936
1159 0.5660495864613931 0.9445026337591316
1160 0.266021728169358 0.5967817335419506
1161 0.6832194290979856 0.31583159404040717
1162 0.8258830691842792 0.5871780423371996
1163 0.7640966329679368 0.8122380134987811
1164 0.24727737299183083 0.779512548457837
1165 0.6475193323221448 0.8220577761620647
1166 0.8815364723720528 0.7841395160148823
1167 0.539194846307187 0.49411976928747714
1168 0.2373883023673593 0.48659086158266796
1169 0.31791898646653616 0.1857748007668928
1170 0.6644401700102172 0.6818086173896619
1171 0.3790662752576808 0.5823894384495624
1172 0.563151398689167 0.876190819900723
1173 0.8503225451914675 0.6974795980727799
1174 0.5269331667629046 0.7311621441234003
1175 0.6709976370384575 0.19400084623867764
1176 0.27653849500244454 0.4453671128202691
1177 0.5237185360287482 0.40262789081389627
1178 0.062284545983067985 0.18325732171006825
1179 0.27153493644714977 0.3324662988219256
1180 0.14482543884361676 0.27714133444477984
1181 0.23751363746019105 0.47710976806578065
1182 0.8542217255620476 0.009260283848230522
1183 0.05077322508111237 0.2209951195402159
1184 0.6011639291611603 0.5011430881823346
1185 0.3465772078323738 0.12317910674051269
1186 0.3785346275084519 0.11431207107541452
1187 0.3664272348736233 0.4941483165496292
1188 0.8438956130738793 0.7059713311867368
1189 0.7368414832472239 0.4709204051153383
1190 0.3870321245410112 0.41699586653480714
1191 0.9443709692629041 0.18990553287343304
1192 0.044997708319265195 0.4033413098319316
1193 0.9847050145553706 0.6983260951992887
1194 0.16881418455036412 0.7350258747572932
1195 0.16238635300511461 0.380891815724711
1196 0.2472282210469957 0.896997802686808
1197 0.6830667292429277 0.23218300313394613
1198 0.9585247543563685 0.8197324427340824
1199 0.290117650455363 0.6016868756603615
1200 0.7122251003762797 0.5593192084904492
1201 0.6378356734440496 0.8752639275860364
1202 0.3270151836225639 0.7392916699856854
1203 0.14634637063002642 0.20413169164146572
1204 0.4651718510597481 0.5543127076630402
1205 0.5634788157594094 0.8372015931808627
1206 0.6670016290958112 0.17832494229999962
1207 0.404441342978173 0.30698008375077146
1208 0.9289206913302259 0.8089245599941994
1209 0.7675129686455378 0.6534205367647307
1210 0.5718876994191886 0.678446983108105
1211 0.9106219246422941 0.05516489250519718
1212 0.2712376635509678 0.40352919113565033
1213 0.9135934401670975 0.5913986571447712
1214 0.5084700112143721 0.7730168973489644
1215 0.16803332217183964 0.3020943685837648
1216 0.6389648384231449 0.060532378316440205
1217 0.5842410961336436 0.203301054588644
1218 0.9547423864660984 0.5378836856939283
1219 0.3346482759440115 0.9479301296702136
1220 0.9639381468031373 0.037365938364178675
1221 0.6036240923836987 0.8689551713854494
1222 0.26566325323214746 0.035218144212935565
1223 0.10245311268113988 0.741845747903415
1224 0.03868725518629412 0.16514638551595684
1225 0.06995587039327278 0.8582727899756022
1226 0.6957237102889934 0.6855953502403292
1227 0.6021729380524286 0.8070438642695336
1228 0.10588413133582442 0.20422579388209772
1229 0.9969813393208009 0.6460395296955825
1230 0.7330632894125981 0.8738862045339177
1231 0.5126691086863168 0.8084980154848875
1232 0.9425658249986734 0.9385290492239653
1233 0.7211673503942827 0.6007055793877237
1234 0.12846172207161033 0.5481830770205275
1235 0.8130037959601291 0.47660672237875035
1236 0.47124248190761253 0.806570520389953
1237 0.9933729672073303 0.8258469318565379
1238 0.9441179962737796 0.9671413283318507
1239 0.15257217676285162 0.16121812742206987
1240 0.6570888773141291 0.13626784727903973
1241 0.28154875404560165 0.04488197428546237
1242 0.8921266498302756 0.3252147835047139
1243 0.0609333574145271 0.47557767413909746
1244 0.11928288643738572 0.23656907435886987
1245 0.44685029145862554 0.4904529605367748
1246 0.1631300379489924 0.5771990318756063
1247 0.18378881625292476 0.26614364094981624
1248 0.2435542485174228 0.9444291488482146
1249 0.8036852845337065 0.7259706482919156
1250 0.5333638385120641 0.3500777091142191
1251 0.8601225242755325 0.6709069898860128
1252 0.2969618306257642 0.6421040066422923
1253 0.9997826295202945 0.10021048972997848
1254 0.6921234237541881 0.4038321969497125
1255 0.0931384252273676 0.16918571533308846
1256 0.22622470420285445 0.4598134802717698
1257 0.4475007322911865 0.40579677388894697
1258 0.25292739311714185 0.07230733899163144
1259 0.2783817525094484 0.3920350119773992
1260 0.03400901084873709 0.0778229507784548
1261 0.3021348000234909 0.7768844439036175
1262 0.8208967684542551 0.1154804139258071
1263 0.6765161058366771 0.7922269542788156
1264 0.8646985447170314 0.6614552389497768
1265 0.8014592741372684 0.5656607904854005
1266 0.054779755421790144 0.5289320373996153
1267 0.9034756263887137 0.49654921047044076
1268 0.6952131362636124 0.1637017347109676
1269 0.7732074908618713 0.8015314248783115
1270 0.2722957719160667 0.13113352468638628
1271 0.2932976728402479 0.6304566435870256
1272 0.5298322390035647 0.014776478302886198
1273 0.5468560112040802 0.36299912292813574
1274 0.6411370152259752 0.9574879732767012
1275 0.4951424905743008 0.2990502193338962
1276 0.6484562813944484 0.762843420437807
1277 0.5808275850165865 0.7652582517308466
1278 0.41282178497988176 0.33081726267601885
1279 0.7098112199091611 0.6607711889776393
1280 0.10561846531710328 0.5999481032716668
1281 0.9328600835629828 0.9538875703571916
1282 0.8062898168693573 0.9631545826425936
1283 0.28235961818337485 0.6622844836664424
1284 0.8267020979374046 0.9205771826447642
1285 0.4487576744862699 0.9056680160425483
1286 0.41451539887659017 0.399399615505299
1287 0.7414960913475134 0.3995558970720826
1288 0.9750909023216415 0.6437260432688504
1289 0.6707598207719266 0.39877327839655163
1290 0.16089307375658923 0.2679994189353624
1291 0.30703987688716683 0.1605193799137442
1292 0.5367297338716619 0.10363357979244148
1293 0.6365016491777654 0.2995123643369235
1294 0.15527452650840856 0.7414976318900163
1295 0.740792495643307 0.6361524329873324
1296 0.9717120209120901 0.30347825891567337
1297 0.10921607172375236 0.4512452934505059
1298 0.7844117587075143 0.9626890309012837
1299 0.2743736421981914 0.627355158619022
1300 0.08816854891404857 0.1307690769989095
1301 0.5492878894516268 0.33016188273559155
1302 0.3344579662438364 0.17594173748653397
1303 0.5574141710109967 0.9220643114768451
1304 0.4348489354408225 0.34639669887535807
1305 0.6809280245705942 0.32249899861259457
1306 0.9947605149569617 0.6638453782569049
1307 0.3411716230289975 0.5959393601215339
1308 0.8746935834204249 0.2552489948885881
1309 0.9334842922031994 0.37893644009018546
1310 0.8585292116585221 0.6149774625152759
1311 0.30802058633027884 0.10708498273565925
1312 0.8134217261813499 0.7499559425004091
1313 0.6464409037045745 0.6981588054025517
1314 0.710842946978262 0.198671325166363
1315 0.3359324443927465 0.42488608928189464
1316 0.12758855821998527 0.8989068414880423
1317 0.7160687201752045 0.6372747947152059
1318 0.552632544249646 0.020452514091387486
1319 0.5668387127178137 0.8929179167219814
1320 0.9928878686451867 0.6595201398388063
1321 0.5370116587999397 0.5693345874632021
1322 0.06853842065211202 0.34050273963192135
1323 0.8294794659817163 0.9691630335254382
1324 0.4368308237243964 0.04467318751935112
1325 0.8936844224019316 0.3889475815101354
1326 0.2820344441562376 0.16424164640114125
1327 0.8601234708026343 0.677478914777303
1328 0.6185774484082043 0.07366875394364891
1329 0.9081011436196137 0.37460292258135275
1330 0.1557939790148395 0.856135605942903
1331 0.04192147182664985 0.1597405765925055
1332 0.030462780625345798 0.37958992093979005
1333 0.6614059875144254 0.5147747254999434
1334 0.5653619785932207 0.49949856458684305
1335 0.5346151876335731 0.661969422454003
1336 0.4310068403864217 0.27989118939223945
1337 0.5892063946937217 0.5866991825013782
1338 0.3480694521903829 0.6028722688858381
1339 0.32642636224728505 0.31305805286396327
1340 0.12327685141182154 0.8819036622012547
1341 0.16916332152731195 0.017966705225699542
1342 0.4533953465739885 0.4162400445354736
1343 0.918719943480141 0.9374207634212661
1344 0.6973163023553427 0.25222807289244487
1345 0.5315491255494543 0.8075711133051876
1346 0.43110860518971117 0.45293546496246084
1347 0.9678943117327498 0.8645313493749585
1348 0.43194883964061803 0.8170994655466127
1349 0.9673885321477059 0.6617543765151809
1350 0.9625829303344091 0.6714877272296024
1351 0.45949780851162936 0.7249434642236476
1352 0.8916789228358086 0.023446358422792635
1353 0.10285928121178389 0.006396359264414175
1354 0.08639237066342387 0.3000738889704597
1355 0.4114626055374029 0.08703422572201724
1356 0.8085890174352935 0.5679173638501979
1357 0.45608525480065565 0.45361461303667927
1358 0.9153790682016488 0.5062489520840742
1359 0.6173549609614333 0.5022925446549785
1360 0.34548507652360083 0.19798141890587373
1361 0.3475345117644092 0.07630015568932014
1362 0.4175576682344809 0.8649508792513259
1363 0.11119742007876787 0.8088836249067041
1364 0.49636326863731506 0.027142280063279678
1365 0.8294088736769438 0.4874672832084067
1366 0.2390725238929694 0.5503322699390033
1367 0.8444147089691795 0.37371240468706257
1368 0.7091314302030272 0.6357910482511834
1369 0.9370852306541144 0.8209707005843625
1370 0.02242254927241727 0.9130877042579597
1371 0.16061511329311107 0.7247900804297701
1372 0.5443326505539081 0.5994790109775571
1373 0.7424987414268341 0.8768924128661201
1374 0.05870935582728787 0.6238305854809111
1375 0.12541586900621182 0.4345447593255055
1376 0.6255040385797555 0.70322907141008
1377 0.5445557944828375 0.5780824169567843
1378 0.052783092250572095 0.5085104918577953
1379 0.23559360467710078 0.997904322579899
1380 0.048912001457638965 0.43081817382787546
1381 0.7898703877357277 0.6819097980107619
1382 0.6950604987534469 0.0005321413381307316
1383 0.5358449631773065 0.10272082661629545
1384 0.018670538738324804 0.07711291163583678
1385 0.05013934174891166 0.33291625936144165
1386 0.49581246509934485 0.2636677350944443
1387 0.396673903068804 0.07594732714663499
1388 0.7335981291508668 0.4170675388136319
1389 0.6379890678777618 0.09680065834280682
1390 0.5570358482461722 0.5883066757471244
1391 0.39091589603830845 0.29478264561166423
1392 0.6851429877055734 0.911574309362994
1393 0.8493889369225391 0.5016723067153956
1394 0.3535285650399327 0.79823627403954
1395 0.9072473316687686 0.6510048193957696
1396 0.4681189607403201 0.7493530422642131
1397 0.06353840037353731 0.5864215966839202
1398 0.5154925706717517 0.07610902349403681
1399 0.16457854495145052 0.3147660423600769
1400 0.6210712482721604 0.2667468436084497
1401 0.2610354917730815 0.7012764365290395
1402 0.018699336997876292 0.20269326657287978
1403 0.014475850244821564 0.35104968774728207
1404 0.34485647863501145 0.08572999438200268
1405 0.9129438469098282 0.5478370173731678
1406 0.3353760223298361 0.4919344363864039
1407 0.6898922306060757 0.9925618746269765
1408 0.38225761532480584 0.6752336244888447
1409 0.9778299767602003 0.14109808667755053
1410 0.4528361441728028 0.8751107490946203
1411 0.5133531181706875 0.26320980348469514
1412 0.9609703267366777 0.9281018108266371
1413 0.305264988941476 0.1947258190482668
1414 0.21816329309557259 0.5481191644506934
1415 0.2907675131390808 0.02765798389847285
1416 0.6673735538508432 0.42907959561972975
1417 0.06084210087019337 0.5248483811583459
1418 0.9797850129164181 0.7487992951260477
1419 0.2916237563380363 0.8520628560427838
1420 0.5288606958331611 0.847491030989991
1421 0.683629925160295 0.9707465575039292
1422 0.9672840150308873 0.07578969574802197
1423 0.5771097817417912 0.9545436027396502
1424 0.6131933613719137 0.732839737999939
1425 0.5663472693681034 0.412824781128011
1426 0.5053108869670239 0.04526142369509445
1427 0.5450893144817476 0.41075382805791694
1428 0.553300060927852 0.8219482542898795
1429 0.23651914681796127 0.06857423115807659
1430 0.06142727234103296 0.8851435441329412
1431 0.6271243224437323 0.6277258441533233
1432 0.40151536233062324 0.09249293127214542
1433 0.6951916848904258 0.2605858802372977
1434 0.43370136814954896 0.39603147468898137
1435 0.4877135753661975 0.12296240847865547
1436 0.3351462504016085 0.24864472189845277
1437 0.11292660794944709 0.5697113306607758
1438 0.11470012122620832 0.609936134545313
1439 0.36067350713824564 0.5084619696094902
1440 0.6137969518884546 0.8648706969060838
1441 0.6906660261050216 0.21528337901979588
1442 0.5885551299119183 0.5307625898743948
1443 0.07138499141621901 0.49374197736973147
1444 0.795911756949982 0.18929318898192826
1445 0.40755457572148157 0.950662135286841
1446 0.3754375891451053 0.8043211837444189
1447 0.04619218280352777 0.5438260819314
1448 0.825400052398051 0.3764283480028334
1449 0.9745460245261041 0.32453452739352184
1450 0.2348983017971299 0.21641749269585275
1451 0.46277923596067916 0.9408260785699092
1452 0.5527082779896199 0.15760334371923967
1453 0.11116309751188058 0.8451378189950854
1454 0.4960160735451413 0.8388633029316995
1455 0.11209889579969279 0.7512631441778403
1456 0.8598233698339621 0.6744857726008148
1457 0.8288174689274729 0.4867157312842637
1458 0.3111068335210728 0.6607498476359063
1459 0.7269381690011433 0.7801342306648823
1460 0.06799615460403197 0.7003461278520235
1461 0.30276965581562365 0.6493878852478402
1462 0.7414717372130953 0.5326204686760456
1463 0.21171604719585513 0.4892595385820947
1464 0.6021564560465169 0.24447607593395182
1465 0.06763671070085897 0.9146471310020559
1466 0.23872312749608637 0.08754084754029023
1467 0.37248907009798893 0.2782123249116226
1468 0.06175930986668343 0.3313409894893813
1469 0.8327541835361915 0.05154168989008212
1470 0.6165971471727479 0.40957490534641106
1471 0.04728459373849492 0.20544370311609728
1472 0.5504432406011032 0.36227091882747475
1473 0.4468781375578902 0.24876138778854273
1474 0.5598766069182104 0.3187561574355071
1475 0.6639773927425064 0.260193298822186
1476 0.37439985617890936 0.21792459367908212
1477 0.5299648004075148 0.14695349120830337
1478 0.5582194669687455 0.8028855452619094
1479 0.22828373826445525 0.03316607397022031
1480 0.45768413709777567 0.5416039826171254
1481 0.1818245563431764 0.2820495298014818
1482 0.43962501034769996 0.04453922576233027
1483 0.34005830275439564 0.8806379927492372
1484 0.5520513733293829 0.37654898589141717
1485 0.28941086843769337 0.3029789089357442
1486 0.5688267169362401 0.47446812224236057
1487 0.335424232898324 0.6892137293894643
1488 0.9035590749418844 0.45022415179602016
1489 0.09764323092624094 0.5072296649075504
1490 0.4413932865348752 0.5894875960257009
1491 0.11140693420111192 0.4869757648981228
1492 0.6690927283543244 0.49327188759473006
1493 0.8061342909498722 0.8048466374946747
1494 0.8797031399823734 0.7866234761201643
1495 0.7604034365681307 0.6140057427819953
1496 0.7012154955009678 0.7447981181219078
1497 0.7373365225038265 0.04194497692515442
1498 0.8763972820345408 0.9773708766906878
1499 0.028652517207443218 0.7887990440994379
1500 0.18089380475959882 0.9701131313523773
1501 0.7246734333177817 0.23135392040630354
1502 0.4949572071158145 0.4114197622780864
1503 0.34662970301583784 0.4866853224612607
1504 0.4469379466448583 0.9245873664122647
1505 0.04212256430576067 0.3297137358228478
1506 0.24700748796531014 0.7474197650446084
1507 0.5340402893198372 0.8288115577222565
1508 0.36581655815875536 0.665711314858947
1509 0.6120658941091379 0.7683758170647608
1510 0.44402942685239455 0.9018835391033113
1511 0.5199798269037765 0.20598510690882588
1512 0.8537385906510575 0.06956304868604701
1513 0.9121413227787236 0.8586503089752172
1514 0.4101427956724516 0.8432338387280564
1515 0.6001999311687183 0.17845677871695764
1516 0.14125030192722787 0.760695170091576
1517 0.10037661098869588 0.7896027226421901
1518 0.7968316852890368 0.03762994835540712
1519 0.8733063538512875 0.5349185738940099
1520 0.8397751767928039 0.032948641670724865
1521 0.20724053254644703 0.008792487155279916
1522 0.4610686934631446 0.7716168950280171
1523 0.15466896840694366 0.9236904020622487
1524 0.48060917731295527 0.2746788855959056
1525 0.8474566963322846 0.4921245698446367
1526 0.6292360424818976 0.8010232968190993
1527 0.024489442789600524 0.8795278345106224
1528 0.22925464297026532 0.6233381237362855
1529 0.5332506489116664 0.44712370865055207
1530 0.5303085387181079 0.1647071829916742
1531 0.01435844575439349 0.850567596474905
1532 0.7058688455748144 0.27855530222449165
1533 0.06279578026904453 0.30402396097861706
1534 0.30094702332920165 0.06561182212861849
1535 0.134740984510047 0.37379927033957183
1536 0.9324374292108338 0.7568032946651075
1537 0.8858607753106661 0.05677456540533732
1538 0.9579531752158396 0.08189625704367198
1539 0.08498964265750408 0.9732165892998523
1540 0.8122358775286096 0.6005632961537705
1541 0.7003529485766689 0.19193071436963027
1542 0.897993622997109 0.009877889848807109
1543 0.3422261837508179 0.41669035559268175
1544 0.3172150427134044 0.6613770816806888
1545 0.8180581128648403 0.4206328740044811
1546 0.28462345518486043 0.399908933939938
1547 0.6141793957373425 0.5539495049217299
1548 0.16611201318469615 0.29799615133193114
1549 0.22024760561625445 0.7860171198821391
1550 0.39456072747684723 0.12052889408385381
1551 0.479904678864701 0.6090210322288883
1552 0.07065542972045591 0.2908414601279721
1553 0.8187886553967252 0.028364137394840228
1554 0.14797425343999748 0.037123436963166556
1555 0.9880312486605672 0.9426397816245187
1556 0.8865203537230257 0.43128095092624186
1557 0.40551624333061365 0.06818889737601286
1558 0.7351968694119463 0.3698214144612263
1559 0.9835114822504212 0.3239383667753203
1560 0.5354978785847095 0.6815378217460163
1561 0.3906759506944346 0.038684356681920606
1562 0.8944514287166695 0.5941204500968005
1563 0.20402269584360788 0.1360958272539483
1564 0.0870925282494851 0.8460765623223061
1565 0.4001751678699772 0.8085799218882812
1566 0.9621826757581352 0.18660080664204215
1567 0.4703310487843364 0.582385184082625
1568 0.5657684413557209 0.08590685824234678
1569 0.31241522830939616 0.939931139427248
1570 0.08941639476869478 0.47675688612102873
1571 0.8001149219019003 0.45823274530397706
1572 0.7800717085460719 0.7912561405485433
1573 0.5320710133135648 0.9232302674451421
1574 0.29980335210046805 0.7968324482955318
1575 0.018168397158066174 0.15125856256891723
1576 0.9224560508129035 0.6863267882329379
1577 0.5333656051428457 0.35996635963141344
1578 0.6213902845421048 0.15905000886974008
1579 0.7067772687038911 0.1993856360809967
1580 0.062293391257384756 0.17106665681071387
1581 0.10873362146672405 0.1262490318246151
1582 0.5891119928580506 0.7994578870309176
1583 0.15135721554518566 0.19089798025142646
1584 0.7334748240444185 0.8162928259329589
1585 0.7061905631663623 0.6485590322013056
1586 0.44886084524580916 0.9100504343855521
1587 0.5128449993469827 0.8689611894494017
1588 0.18000429246524574 0.9036896714845635
1589 0.15255346931211344 0.14201491193684168
1590 0.10518851506868132 0.676070136563746
1591 0.22175444151840285 0.956026286943238
1592 0.8638480026275378 0.192156145701321
1593 0.14531311213520381 0.37451615231545254
1594 0.4687242584060429 0.4989084685285643
1595 0.6291558218004122 0.6261327697901842
1596 0.2658255231764216 0.1616125706983942
1597 0.6510486064351771 0.42000941143212767
1598 0.9547489360528891 0.4436319320466543
1599 0.2687017441800461 0.3492958316311682
1600 0.6908107713911774 0.7648252288743927
1601 0.40027098432497277 0.5869475906498445
1602 0.8083336836904579 0.6786693277510703
1603 0.37474404025412456 0.5952581558474637
1604 0.5829346619828614 0.1194243009554592
1605 0.2474612917464749 0.33346578494591383
1606 0.24383186784688426 0.37085753778186725
1607 0.8135110228182733 0.8616875382854258
1608 0.9301213756377623 0.6540737519209389
1609 0.6882825300149574 0.9020316541627207
1610 0.21067230784464708 0.11006524842538212
1611 0.3309214126682347 0.8827886254830511
1612 0.7506404642968888 0.9999844374409735
1613 0.4642510644010551 0.92598089854342
1614 0.9532052346264522 0.8041008701551258
1615 0.6501117611401779 0.031222216678416292
1616 0.9118215464882297 0.09263491811130298
1617 0.21904966784262137 0.18427827321842316
1618 0.1421266314216607 0.21151809739858707
1619 0.016521212159334775 0.9685241155379295
1620 0.7168642040889772 0.6035815210956299
1621 0.0764850682612791 0.49895784968267276
1622 0.03209940451258475 0.014295938061366864
1623 0.10249054657215029 0.032101682170716295
1624 0.9820495899166694 0.742738237661899
1625 0.5720099386131812 0.021398997651687846
1626 0.6774540849866181 0.3511165368897863
1627 0.11635244144295043 0.4631326002453433
1628 0.040835016154756265 0.5347460170619958
1629 0.3399788971431801 0.14511747014144516
1630 0.44042309815677194 0.7442268610101774
1631 0.01670964125135277 0.7357640670440182
1632 0.9203438193525304 0.5224483879714854
1633 0.26189997755144445 0.6120763236612676
1634 0.8155667400533101 0.2738203765114281
1635 0.24863359103718286 0.4294900197028704
1636 0.8980618153979228 0.920753074507178
1637 0.6363537668773129 0.26274566916243225
1638 0.07738200227246883 0.7962693667131863
1639 0.43889508430663704 0.09965169467922275
1640 0.737395510252333 0.31674442054282137
1641 0.13753906478912092 0.1929670452604466
1642 0.869141115543172 0.9298316429221288
1643 0.3701814675156422 0.3025244466842443
1644 0.4206045701551133 0.41092049245736606
1645 0.6793821863637203 0.3702580912229867
1646 0.2680919234274358 0.18433720590632385
1647 0.8050472521920077 0.9181119622603324
1648 0.09807649546023167 0.7131664031111101
1649 0.016644335907460728 0.21765100211989863
1650 0.6855192762908557 0.3832228180799251
1651 0.6040994536253164 0.7745346296300114
1652 0.6465394658562542 0.23679173323315095
1653 0.6081351562989226 0.46290534880292555
1654 0.9623049079777192 0.8431143103632057
1655 0.17017349679320193 0.8495110910721325
1656 0.6600999526184318 0.8673758042687598
1657 0.5175070289201983 0.1887776892029106
1658 0.39084529915378896 0.6692402788601517
1659 0.08991781187295289 0.35075876866249645
1660 0.8654626209588533 0.7650939922357258
1661 0.09702438792588552 0.17511479213246772
1662 0.5477001921981297 0.42838985339021496
1663 0.13937572553557065 0.5738146946954193
1664 0.15355831950913623 0.032103562552691645
1665 0.23627018719077053 0.3538614668925011
1666 0.5877900866354998 0.025398890013233033
1667 0.17133602812366944 0.2969723078252794
1668 0.8268374630843233 0.22160355602515536
1669 0.5113192913205494 0.6726713430023931
1670 0.6686779382913196 0.7412274065478913
1671 0.8403143707844676 0.9679898507842895
1672 0.6683183899439585 0.21725907695989655
1673 0.19564178877427996 0.9037729963592854
1674 0.3940673997502536 0.672847062913451
1675 0.667869327378547 0.2459135572952239
1676 0.5430835182012448 0.4597639950856387
1677 0.3707505400675296 0.9558757398840785
1678 0.911021951461319 0.12947477686391484
1679 0.3698950061517772 0.6912423093713556
1680 0.5180799225011764 0.06844753677512128
1681 0.05649190441071117 0.8023179574563706
1682 0.674617868837945 0.21886490877850173
1683 0.8667627872186445 0.8102052089008497
1684 0.326435744638931 0.3878440728434296
1685 0.2608822021087174 0.492920381517141
1686 0.6889449618474228 0.2723591360403962
1687 0.3308539783497578 0.7513697924531374
1688 0.3431394340775652 0.41102128384117476
1689 0.6315347380644971 0.5660769694935662
1690 0.27175649149163517 0.5690808879505671
1691 0.6172619096806925 0.33808882378934213
1692 0.9855597357626915 0.33488140313697834
1693 0.8723588631498082 0.38690504829047023
1694 0.8461454439020057 0.43629891224070216
1695 0.9735795964568301 0.6467500606007531
1696 0.24118245784610237 0.8748697067047196
1697 0.3476303847982919 0.029369963511801767
1698 0.010245228425195041 0.00640075490424219
1699 0.5528030136656537 0.646258562102708
1700 0.06712061038108907 0.4911380286451925
1701 0.8609512431804061 0.4163762907671251
1702 0.14826869018175282 0.23852541331487997
1703 0.5858125311052944 0.4572479373543751
1704 0.19327396312244893 0.5423034728529332
1705 0.212811509767733 0.6802257965285035
1706 0.5386811127307343 0.29531240254448043
1707 0.910356647458014 0.7318766553632524
1708 0.8446794838292915 0.5609358433671024
1709 0.877020722736109 0.46156202731832907
1710 0.7428660974557888 0.8962072851192937
1711 0.8146928060929393 0.7302718901569182
1712 0.9921725613586992 0.8303894544106445
1713 0.4446740660672446 0.052629062931557447
1714 0.06248451881952111 0.24418509466189386
1715 0.4633106862465528 0.8843327354225046
1716 0.15626293045487816 0.2333838341753297
1717 0.5243310236579544 0.8583480285715123
1718 0.8903603647707525 0.5215104941455556
1719 0.59052541487566 0.13667656753699975
1720 0.3800470386724747 0.93796785450978
1721 0.7408149785334798 0.1908664771086297
1722 0.595792940466635 0.15070033846061182
1723 0.7807190695491569 0.27288866266740164
1724 0.8692002952923881 0.007501704009590493
1725 0.984749636771889 0.6810293561742568
1726 0.4838222392392897 0.18263435282695384
1727 0.05678060598678747 0.167240410544107
1728 0.132684663794707 0.38436502679141094
1729 0.15894922746532647 0.5712065775461103
1730 0.6878665421947168 0.7792673354676686
1731 0.33015018158846365 0.6441923785417847
1732 0.20614242686730833 0.312183283176263
1733 0.9584522771744196 0.45997029102518416
1734 0.6789894645892988 0.5569925843217869
1735 0.10981649179502773 0.08076712329987656
1736 0.8355262013117687 0.5930118587186275
1737 0.01688847912197944 0.5561653557375191
1738 0.9824246529079484 0.7438394687294323
1739 0.5771504406967214 0.31239265205037703
1740 0.7055744764293751 0.6394054224735096
1741 0.9413161414431055 0.7949529809840441
1742 0.7915165962519897 0.8316648710144194
1743 0.015536226544516363 0.4647394691049497
1744 0.2418017709023439 0.09355058944422667
1745 0.6968494326899726 0.2440586719063611
1746 0.5514933309625526 0.3039072681240884
1747 0.9662428166388346 0.3324326813629702
1748 0.8735500979907888 0.6690683602258998
1749 0.4199189537236835 0.28018951164023576
1750 0.527395786470176 0.12571213199749542
1751 0.2996903470877521 0.3405595842594672
1752 0.8515357660864962 0.06005218657457423
1753 0.1641808951416146 0.5053157978884678
1754 0.5480630398560151 0.2662433206753956
1755 0.3075240757764254 0.21986462534766305
1756 0.2025600412068933 0.011784325671264306
1757 0.9874400646103992 0.991935638844581
1758 0.44398521671837843 0.753598755927907
1759 0.5926465853610453 0.6188466746458279
1760 0.4833683721264622 0.20412059317527997
1761 0.8444011575585928 0.3709182005531094
1762 0.4081961264265075 0.7997493550023745
1763 0.5594222352798263 0.8143034826569284
1764 0.926262438854135 0.7516228892282263
1765 0.48388056468815177 0.13528293070485997
1766 0.47016108378508636 0.6279254971974351
1767 0.5892191549022167 0.7270025627977177
1768 0.38272687771755776 0.36675608436124796
1769 0.9314894052243168 0.6061002053817427
1770 0.6676398723768178 0.26813433372099027
1771 0.827905868042402 0.07703246045818113
1772 0.8998744025326715 0.2737431628190994
1773 0.6900016101202359 0.8526338002946672
1774 0.5200672950844589 0.4113744799488456
1775 0.4804413130725337 0.246215054753248
1776 0.054433730800383384 0.36381468282966756
1777 0.7860067279603048 0.9650967302482636
1778 0.8212788216569824 0.7401746299375053
1779 0.693481051942846 0.08815123578011264
1780 0.8957094567000785 0.9568689791126442
1781 0.9930794982513141 0.09578690466894868
1782 0.22592222360962588 0.17341358225674508
1783 0.42108144383941826 0.11279622297000624
1784 0.5560410152774462 0.36243879649548205
1785 0.757702942768713 0.40766637891134094
1786 0.769550734017308 0.09895927458141407
1787 0.4405260379322524 0.17049764232105868
1788 0.14591680394118567 0.3289925202030639
1789 0.9319899146822759 0.7156464096826605
1790 0.386230989086346 0.2875226556843993
1791 0.8448992039167382 0.2425387032289562
1792 0.8605377551598621 0.7237152072103935
1793 0.3505100684159861 0.9877633582636286
1794 0.5242957965801426 0.37005916206553424
1795 0.2970680797509705 0.3465064989384683
1796 0.4406675475646381 0.7027639000911581
1797 0.7703400616155052 0.806840592144619
1798 0.6428347203394127 0.7391449979109004
1799 0.8356808851127691 0.2808057594345982
1800 0.05580098169587522 0.8231449053598604
1801 0.7583865455277571 0.8745545858931082
1802 0.15694144583564495 0.8346211377472673
1803 0.3439447204317365 0.0471547458949374
1804 0.3596779286569116 0.34878615693947157
1805 0.7543235369189967 0.36676274814800935
1806 0.866849441447252 0.321483644270647
1807 0.9616627680773625 0.10233705595240317
1808 0.3669942544853325 0.8167787697705715
1809 0.6219074313706251 0.018961910158825424
1810 0.7721183433478036 0.11980561035389059
1811 0.628988164265381 0.7244478471283529
1812 0.4411185859666926 0.11219869807068261
1813 0.5627319213332564 0.17936117052722678
1814 0.37505662943295937 0.5140151855569512
1815 0.993115684589024 0.7648958948561722
1816 0.040554197360281985 0.019552939011109438
1817 0.781348534813582 0.483513370508307
1818 0.2127204400190883 0.0395798187684554
1819 0.043632768501382646 0.2325192039211328
1820 0.9306485707716531 0.8763096405029195
1821 0.5053467711087613 0.7685068846391286
1822 0.12042169385905233 0.9885195915184941
1823 0.07967667281472224 0.3865869934030087
1824 0.5293117471714948 0.5592483360165016
1825 0.9229016365996726 0.8126035876386681
1826 0.43867495283322344 0.860421462515027
1827 0.39514636770076383 0.6552134636910104
1828 0.634946708490755 0.3902260452450522
1829 0.6598185952784625 0.8741964712857199
1830 0.42670507755665743 0.6362167176749286
1831 0.9806706280225318 0.7032005564313781
1832 0.5178547985307973 0.4405104714420709
1833 0.5968297719894927 0.995184043397115
1834 0.20336123327181854 0.6079468071769921
1835 0.8637794066571615 0.2187216505583942
1836 0.4996953669380114 0.1448222212775534
1837 0.3795702860247224 0.08614190078549311
1838 0.49291806095320334 0.21747182381135943
1839 0.9548572507446695 0.1815884166127485
1840 0.5629722482276167 0.7600435161577547
1841 0.651247878804392 0.5700448476054055
1842 0.8064563107513762 0.7230546300785918
1843 0.3408743382543168 0.7230616133002091
1844 0.09381755139392622 0.8173124111164624
1845 0.16830238079009185 0.8733564913020407
1846 0.022436256408335464 0.7752711137957005
1847 0.7167663130526915 0.11407325588010198
1848 0.8086565649859558 0.43250415875980475
1849 0.164072680433055 0.031031751425438125
1850 0.2939363994741203 0.9731328486131043
1851 0.7018326296188431 0.5660100855208389
1852 0.838297794914877 0.08310741244638464
1853 0.10860026019490943 0.9113296721134021
1854 0.20544775528023063 0.6590339928513598
1855 0.23037370079732822 0.17166345535290106
1856 0.03145521139424379 0.5715210614008834
1857 0.06775463044647878 0.5756270543169691
1858 0.23267074185726278 0.9865068291036132
1859 0.78328663438993 0.4072719480410274
1860 0.3144255970444786 0.36982795560113535
1861 0.5693949113054076 0.25009449085132995
1862 0.4942892022826153 0.3228932981712467
1863 0.571726451750096 0.6788898643693676
1864 0.8578315215500729 0.7424014708467876
1865 0.5962739341498532 0.2571265212567846
1866 0.03986397264163244 0.7835214881778841
1867 0.749659088402583 0.22195733750503
1868 0.2559410097541174 0.1020642268297195
1869 0.421176521504951 0.9727641711633528
1870 0.6603567684447642 0.4305245292862021
1871 0.5410865441489834 0.02508506730096094
1872 0.43607098404584654 0.7031831768318764
1873 0.3661160001601538 0.8369873508213143
1874 0.998108408581146 0.8874291074025775
1875 0.2210464419748911 0.5365484663113546
1876 0.567054095511005 0.44416281124360557
1877 0.277590642905712 0.09590281285080582
1878 0.14650090988852282 0.5598734868321785
1879 0.5573788630250383 0.49230027395028664
1880 0.5105439817142102 0.48551407767417953
1881 0.990465698121845 0.8478049870575516
1882 0.73346150551725 0.18099967550234863
1883 0.5679636141636047 0.13923469653057885
1884 0.4036039945783666 0.15293234067090822
1885 0.9480845548535992 0.48490313630214754
1886 0.9491624081778052 0.8968065246676561
1887 0.17988601732674492 0.1686149623820432
1888 0.5655145130363608 0.08962404777176491
1889 0.5953770578385297 0.8030172730184005
1890 0.4142771863545327 0.9831699731888556
1891 0.036599767042562625 0.0930205446052853
1892 0.17460188773817165 0.6880126999453643
1893 0.8285651950492615 0.7777883915919325
1894 0.1347330850610129 0.35998748860057916
1895 0.5823420773361228 0.010833425402987151
1896 0.6388211156209601 0.02433831854807833
1897 0.3490923238600181 0.04955449456561878
1898 0.20944867916811816 0.5246358535554804
1899 0.9475920271247135 0.9450058023926295
1900 0.25058104640943557 0.8954879818139576
1901 0.28417436469502866 0.37699958091562036
1902 0.353314798841909 0.7353629661514638
1903 0.28111345786517217 0.15863819240400123
1904 0.4934497584949421 0.9821769504054115
1905 0.5697532949656492 0.7303884049579382
1906 0.22546632554220725 0.4628386464749469
1907 0.03464546235921073 0.39737377365103177
1908 0.691864949016968 0.9511548839131284
1909 0.1808742151057663 0.9552285364474
1910 0.9855457969780608 0.17024981567790676
1911 0.7633607783250584 0.3965154513668466
1912 0.49018693598780383 0.16362386900694925
1913 0.45610299024720313 0.4256613860075611
1914 0.5848066468739429 0.3961411558405544
1915 0.178618645758023 0.17080325514187011
1916 0.5948134013136448 0.7672652760194003
1917 0.7204242930375883 0.11120060551357269
1918 0.7407703381969256 0.6634056953663775
1919 0.744676462051299 0.06689476505922543
1920 0.36067073965274854 0.04554405401454509
1921 0.34804869433192465 0.46970364705811796
1922 0.3675552842864718 0.48926165341334127
1923 0.34678068197632406 0.5224965664103293
1924 0.8935947443597899 0.45282765090162114
1925 0.5233757921707346 0.03898459768154794
1926 0.15835904417782498 0.15509875230713976
1927 0.6495818625594513 0.3313855754711441
1928 0.5638981414172395 0.4290331346005549
1929 0.8125227174106582 0.3375120837328739
1930 0.9640897455921791 0.2804445281539917
1931 0.11233521881957975 0.22699401015814857
1932 0.7085984815373776 0.9351960061723158
1933 0.23246055021893963 0.21712632520525343
1934 0.8484168078485951 0.8892592045276833
1935 0.6116539310046314 0.058383651255705216
1936 0.3894990380551959 0.8085047031518012
1937 0.01456938915669248 0.5750515718792787
1938 0.04431667284392937 0.41310279591286114
1939 0.3573397017674399 0.056481105938802734
1940 0.3402400989093781 0.5417504002509702
1941 0.6784525146353432 0.35976032806561975
1942 0.38021860497854776 0.24737481719546606
1943 0.538237127894169 0.713318221942345
1944 0.29024960697775426 0.908585351035494
1945 0.04813573396774118 0.07960737620725855
1946 0.8753611053810412 0.3504103950336305
1947 0.17609174128433236 0.14623943319865396
1948 0.7314068037954297 0.05517675280778633
1949 0.14619473393432347 0.04214893159006672
1950 0.1872104888080658 0.9031876066125787
1951 0.8174198103469034 0.702567316511122
1952 0.1497947781211869 0.8212718876394919
1953 0.8217956278139844 0.29964565788447817
1954 0.2523730521706522 0.994543030286776
1955 0.8312917228788759 0.9796264350622684
1956 0.5565423301067441 0.13412174238485508
1957 0.5188979326282651 0.7040444084995409
1958 0.2453811516154828 0.20436047533334578
1959 0.7534740465001007 0.14586641205394535
1960 0.6203660294752997 0.9403138024070378
1961 0.16489143189702193 0.47881723926203257
1962 0.02224253795346076 0.0739366741787475
1963 0.8938776459025787 0.8103886901882624
1964 0.14904182401042343 0.30530446452947213
1965 0.09530865595900728 0.9754432033894556
1966 0.7774446549527301 0.6532319611097321
1967 0.5981074901813255 0.29160300475903445
1968 0.2986452717981507 0.722883719543255
1969 0.3930417103588264 0.25951717846651
1970 0.25199814808109067 0.6853787466351233
1971 0.5934156543116725 0.41504334070674853
1972 0.2828299054419058 0.7301638416689722
1973 0.6557086746274022 0.6936568903808643
1974 0.2538493011535725 0.8718204640079371
1975 0.9900679948023815 0.6180462891455217
1976 0.9267194543047558 0.7220653409158163
1977 0.9824745814735382 0.34634406761405456
1978 0.6011450224598117 0.30476190991605634
1979 0.5540559456602997 0.6237036912834908
1980 0.7365129041788928 0.3843367493574952
1981 0.5439257568857179 0.8530178120474617
1982 0.6536302423687933 0.9931864981132768
1983 0.28266731572503545 0.7188027887216598
1984 0.4148755839002918 0.47781026125508874
1985 0.27054414220469336 0.5981305956869449
1986 0.4410927151892784 0.9278011073580251
1987 0.6573824647296144 0.8848575590710027
1988 0.45008023625818794 0.9432553884062587
1989 0.6792633955882927 0.743241191189303
1990 0.6008744843033377 0.034049733455453146
1991 0.7751369268677789 0.9930986915997121
1992 0.6924445930051496 0.5050933395264835
1993 0.4569084100157087 0.49476720947890107
1994 0.5625498206522587 0.41671768572806345
1995 0.8478935586200855 0.33161629632276823
1996 0.17583403413315934 0.35067053748175314
1997 0.2581054983936374 0.042307939646044734
1998 0.7867140282915059 0.8416681933164047
1999 0.6460196209898214 0.6140776399978548
2000 0.024207172764037832 0.7893364493282229
2001 0.0019833309183693304 0.9253342302153158
DEMAND_SECTION
1 0
2 8
3 7
4 1
5 2
6 1
7 1
8 8
9 1
10 2
11 6
12 2
13 6
14 3
15 8
16 5
17 2
18 9
19 7
20 9
21 7
22 8
23 2
24 7
25 3
26 2
27 5
28 8
29 9
30 6
31 4
32 1
33 2
34 6
35 1
36 2
37 1
38 1
39 2
40 1
41 7
42 6
43 6
44 4
45 8
46 3
47 2
48 2
49 8
50 9
51 5
52 4
53 4
54 8
55 3
56 4
57 7
58 3
59 2
60 2
61 5
62 6
63 9
64 8
65 7
66 4
67 7
68 9
69 2
70 9
71 4
72 8
73 4
74 3
75 3
76 6
77 4
78 3
79 2
80 8
81 6
82 9
83 3
84 8
85 2
86 2
87 5
88 3
89 5
90 3
91 1
92 8
93 2
94 5
95 8
96 6
97 6
98 6
99 6
100 4
101 3
102 7
103 6
104 3
105 7
106 2
107 7
108 7
109 8
110 4
111 9
112 8
113 7
114 3
115 6
116 7
117 3
118 1
119 8
120 4
121 8
122 4
123 2
124 4
125 5
126 5
127 2
128 8
129 7
130 6
131 3
132 6
133 6
134 8
135 8
136 9
137 5
138 1
139 8
140 2
141 1
142 8
143 1
144 1
145 4
146 7
147 4
148 3
149 4
150 3
151 2
152 6
153 3
154 8
155 6
156 1
157 4
158 6
159 2
160 6
161 7
162 6
163 9
164 4
165 9
166 3
167 2
168 2
169 2
170 2
171 2
172 4
173 4
174 1
175 7
176 4
177 9
178 4
179 8
180 8
181 9
182 4
183 3
184 5
185 2
186 3
187 6
188 7
189 4
190 8
191 6
192 7
193 5
194 7
195 1
196 4
197 6
198 7
199 1
200 3
201 8
202 2
203 5
204 3
205 2
206 5
207 9
208 9
209 9
210 8
211 8
212 7
213 3
214 5
215 1
216 8
217 6
218 2
219 3
220 2
221 7
222 3
223 4
224 5
225 9
226 6
227 6
228 5
229 4
230 8
231 1
232 3
233 4
234 3
235 8
236 5
237 9
238 1
239 7
240 2
241 6
242 8
243 6
244 5
245 6
246 8
247 9
248 4
249 6
250 4
251 7
252 9
253 9
254 3
255 7
256 4
257 3
258 6
259 4
260 2
261 3
262 1
263 1
264 5
265 1
266 5
267 3
268 9
269 5
270 2
271 3
272 9
273 5
274 8
275 3
276 6
277 5
278 6
279 4
280 1
281 9
282 8
283 1
284 3
285 1
286 7
287 2
288 7
289 2
290 4
291 9
292 6
293 7
294 4
295 8
296 8
297 9
298 7
299 9
300 8
301 6
302 7
303 8
304 5
305 4
306 9
307 4
308 6
309 9
310 3
311 2
312 2
313 3
314 1
315 6
316 3
317 1
318 7
319 6
320 1
321 8
322 1
323 2
324 5
325 3
326 8
327 2
328 4
329 1
330 8
331 9
332 4
333 7
334 2
335 3
336 5
337 4
338 5
339 6
340 9
341 5
342 5
343 8
344 4
345 1
346 4
347 1
348 2
349 7
350 1
351 8
352 5
353 4
354 6
355 4
356 9
357 4
358 1
359 2
360 7
361 5
362 2
363 5
364 3
365 5
366 3
367 9
368 2
369 1
370 6
371 8
372 9
373 9
374 2
375 8
376 1
377 7
378 9
379 5
380 4
381 3
382 2
383 9
384 9
385 6
386 3
387 1
388 5
389 2
390 2
391 9
392 7
393 3
394 3
395 7
396 6
397 2
398 7
399 3
400 3
401 2
402 5
403 5
404 6
405 5
406 2
407 7
408 3
409 9
410 5
411 1
412 2
413 9
414 5
415 3
416 6
417 4
418 6
419 6
420 3
421 6
422 8
423 8
424 8
425 3
426 1
427 1
428 4
429 6
430 6
431 6
432 2
433 8
434 6
435 7
436 5
437 2
438 6
439 1
440 5
441 3
442 7
443 1
444 6
445 7
446 2
447 7
448 5
449 1
450 4
451 1
452 6
453 3
454 3
455 4
456 9
457 1
458 1
459 7
460 6
461 5
462 6
463 4
464 3
465 1
466 6
467 1
468 7
469 7
470 9
471 9
472 5
473 4
474 4
475 7
476 5
477 5
478 2
479 7
480 5
481 1
482 4
483 5
484 6
485 5
486 6
487 7
488 1
489 8
490 4
491 1
492 9
493 8
494 7
495 1
496 2
497 2
498 1
499 5
500 3
501 8
502 8
503 8
504 4
505 2
506 5
507 1
508 6
509 7
510 5
511 5
512 2
513 4
514 6
515 3
516 4
517 1
518 2
519 4
520 7
521 3
522 1
523 9
524 2
525 4
526 5
527 8
528 5
529 3
530 9
531 1
532 2
533 4
534 6
535 8
536 3
537 4
538 5
539 4
540 2
541 9
542 3
543 1
544 1
545 2
546 4
547 1
548 2
549 6
550 6
551 1
552 5
553 5
554 5
555 7
556 2
557 6
558 3
559 2
560 3
561 2
562 7
563 4
564 9
565 2
566 4
567 8
568 9
569 3
570 4
571 1
572 8
573 3
574 6
575 2
576 3
577 4
578 6
579 6
580 2
581 9
582 6
583 5
584 3
585 5
586 9
587 4
588 3
589 1
590 4
591 8
592 5
593 9
594 1
595 1
596 2
597 9
598 1
599 5
600 9
601 2
602 1
603 5
604 8
605 6
606 4
607 1
608 7
609 8
610 8
611 4
612 5
613 8
614 1
615 5
616 5
617 1
618 6
619 2
620 6
621 9
622 8
623 4
624 9
625 1
626 2
627 6
628 9
629 8
630 7
631 1
632 4
633 3
634 2
635 4
636 8
637 4
638 2
639 5
640 9
641 4
642 8
643 6
644 3
645 3
646 6
647 6
648 5
649 5
650 3
651 4
652 4
653 8
654 4
655 5
656 4
657 3
658 9
659 6
660 5
661 9
662 9
663 7
664 7
665 2
666 2
667 1
668 1
669 4
670 6
671 4
672 1
673 9
674 5
675 3
676 9
677 9
678 2
679 9
680 7
681 7
682 5
683 1
684 2
685 3
686 1
687 2
688 5
689 4
690 6
691 5
692 3
693 8
694 1
695 3
696 6
697 4
698 2
699 1
700 4
701 9
702 4
703 4
704 4
705 7
706 9
707 9
708 3
709 6
710 9
711 3
712 5
713 9
714 2
715 8
716 7
717 5
718 6
719 9
720 6
721 2
722 3
723 6
724 6
725 6
726 7
727 1
728 3
729 6
730 5
731 1
732 8
733 2
734 8
735 4
736 8
737 2
738 8
739 7
740 6
741 7
742 3
743 2
744 9
745 8
746 8
747 2
748 1
749 1
750 9
751 9
752 7
753 8
754 6
755 9
756 8
757 9
758 7
759 7
760 3
761 8
762 4
763 1
764 2
765 4
766 5
767 5
768 3
769 5
770 1
771 8
772 5
773 8
774 2
775 6
776 7
777 7
778 1
779 4
780 2
781 6
782 2
783 3
784 9
785 9
786 7
787 7
788 5
789 7
790 8
791 8
792 5
793 5
794 7
795 1
796 6
797 7
798 9
799 8
800 1
801 5
802 1
803 6
804 1
805 4
806 7
807 4
808 4
809 8
810 4
811 1
812 4
813 2
814 1
815 2
816 6
817 2
818 5
819 9
820 7
821 5
822 6
823 2
824 7
825 9
826 6
827 5
828 2
829 6
830 3
831 7
832 5
833 5
834 5
835 8
836 8
837 2
838 8
839 3
840 9
841 6
842 3
843 7
844 2
845 7
846 3
847 9
848 8
849 4
850 9
851 3
852 7
853 6
854 2
855 4
856 4
857 3
858 1
859 1
860 3
861 8
862 9
863 1
864 7
865 4
866 9
867 2
868 1
869 6
870 1
871 4
872 4
873 8
874 3
875 2
876 7
877 8
878 9
879 4
880 6
881 7
882 9
883 5
884 5
885 8
886 4
887 3
888 2
889 8
890 4
891 7
892 3
893 9
894 1
895 3
896 1
897 8
898 4
899 9
900 5
901 1
902 6
903 4
904 7
905 6
906 2
907 2
908 7
909 7
910 6
911 8
912 5
913 4
914 1
915 1
916 3
917 2
918 1
919 9
920 8
921 8
922 5
923 2
924 2
925 4
926 3
927 6
928 9
929 3
930 7
931 3
932 3
933 9
934 2
935 6
936 9
937 7
938 6
939 8
940 7
941 3
942 4
943 6
944 8
945 5
946 9
947 9
948 4
949 5
950 1
951 6
952 5
953 1
954 3
955 9
956 4
957 8
958 3
959 1
960 1
961 2
962 8
963 4
964 6
965 1
966 4
967 9
968 4
969 4
970 4
971 1
972 6
973 6
974 2
975 4
976 4
977 9
978 8
979 9
980 6
981 8
982 5
983 7
984 7
985 6
986 5
987 4
988 2
989 3
990 7
991 1
992 4
993 1
994 5
995 1
996 6
997 1
998 5
999 7
1000 4
1001 6
1002 2
1003 8
1004 4
1005 2
1006 7
1007 4
1008 6
1009 4
1010 3
1011 7
1012 5
1013 4
1014 4
1015 1
1016 3
1017 9
1018 1
1019 6
1020 2
1021 1
1022 8
1023 5
1024 3
1025 8
1026 4
1027 2
1028 6
1029 6
1030 2
1031 4
1032 2
1033 7
1034 3
1035 6
1036 9
1037 9
1038 8
1039 3
1040 8
1041 6
1042 6
1043 6
1044 3
1045 6
1046 6
1047 2
1048 1
1049 3
1050 2
1051 9
1052 5
1053 6
1054 9
1055 9
1056 2
1057 1
1058 3
1059 8
1060 1
1061 1
1062 6
1063 8
1064 8
1065 7
1066 1
1067 7
1068 4
1069 8
1070 1
1071 8
1072 9
1073 5
1074 6
1075 4
1076 9
1077 5
1078 9
1079 8
1080 4
1081 4
1082 9
1083 7
1084 7
1085 8
1086 1
1087 4
1088 9
1089 5
1090 6
1091 5
1092 3
1093 5
1094 8
1095 1
1096 3
1097 6
1098 5
1099 2
1100 3
1101 2
1102 6
1103 7
1104 3
1105 2
1106 2
1107 6
1108 8
1109 5
1110 9
1111 2
1112 9
1113 6
1114 1
1115 6
1116 7
1117 8
1118 1
1119 7
1120 8
1121 1
1122 5
1123 1
1124 1
1125 4
1126 2
1127 4
1128 4
1129 3
1130 7
1131 7
1132 1
1133 5
1134 2
1135 8
1136 9
1137 3
1138 8
1139 6
1140 4
1141 4
1142 5
1143 4
1144 1
1145 6
1146 2
1147 4
1148 1
1149 1
1150 2
1151 9
1152 4
1153 2
1154 1
1155 7
1156 8
1157 3
1158 5
1159 4
1160 7
1161 1
1162 3
1163 4
1164 8
1165 2
1166 5
1167 6
1168 5
1169 6
1170 2
1171 2
1172 9
1173 4
1174 7
1175 1
1176 9
1177 6
1178 1
1179 9
1180 8
1181 4
1182 7
1183 7
1184 4
1185 7
1186 6
1187 5
1188 2
1189 8
1190 6
1191 5
1192 2
1193 2
1194 4
1195 9
1196 3
1197 9
1198 2
1199 3
1200 6
1201 6
1202 9
1203 5
1204 2
1205 5
1206 5
1207 3
1208 9
1209 9
1210 8
1211 8
1212 4
1213 2
1214 2
1215 4
1216 9
1217 2
1218 3
1219 4
1220 4
1221 4
1222 9
1223 4
1224 2
1225 5
1226 4
1227 2
1228 3
1229 1
1230 5
1231 6
1232 2
1233 6
1234 3
1235 8
1236 2
1237 9
1238 5
1239 4
1240 2
1241 6
1242 4
1243 2
1244 7
1245 9
1246 6
1247 2
1248 5
1249 9
1250 7
1251 7
1252 8
1253 9
1254 8
1255 2
1256 5
1257 1
1258 4
1259 3
1260 2
1261 9
1262 7
1263 4
1264 5
1265 2
1266 8
1267 4
1268 3
1269 1
1270 7
1271 9
1272 7
1273 3
1274 3
1275 4
1276 8
1277 1
1278 5
1279 2
1280 6
1281 2
1282 2
1283 7
1284 3
1285 3
1286 5
1287 9
1288 4
1289 6
1290 7
1291 7
1292 2
1293 6
1294 9
1295 3
1296 4
1297 2
1298 9
1299 2
1300 3
1301 7
1302 2
1303 8
1304 7
1305 9
1306 1
1307 3
1308 9
1309 9
1310 1
1311 8
1312 9
1313 1
1314 4
1315 3
1316 2
1317 5
1318 6
1319 6
1320 5
1321 4
1322 9
1323 1
1324 5
1325 3
1326 7
1327 3
1328 2
1329 6
1330 9
1331 1
1332 2
1333 5
1334 2
1335 8
1336 1
1337 7
1338 5
1339 3
1340 8
1341 7
1342 4
1343 3
1344 5
1345 8
1346 1
1347 5
1348 5
1349 6
1350 4
1351 8
1352 8
1353 2
1354 8
1355 2
1356 4
1357 9
1358 9
1359 3
1360 7
1361 2
1362 1
1363 7
1364 7
1365 6
1366 2
1367 9
1368 9
1369 1
1370 7
1371 4
1372 1
1373 2
1374 1
1375 9
1376 4
1377 5
1378 4
1379 1
1380 9
1381 6
1382 1
1383 2
1384 6
1385 5
1386 2
1387 5
1388 2
1389 5
1390 8
1391 7
1392 9
1393 4
1394 6
1395 5
1396 2
1397 4
1398 2
1399 1
1400 3
1401 4
1402 5
1403 4
1404 6
1405 8
1406 9
1407 8
1408 3
1409 8
1410 6
1411 4
1412 9
1413 2
1414 9
1415 2
1416 6
1417 8
1418 3
1419 4
1420 9
1421 4
1422 5
1423 6
1424 1
1425 2
1426 8
1427 6
1428 7
1429 5
1430 4
1431 6
1432 6
1433 3
1434 7
1435 4
1436 4
1437 4
1438 9
1439 8
1440 1
1441 4
1442 8
1443 4
1444 3
1445 7
1446 9
1447 2
1448 8
1449 8
1450 8
1451 7
1452 1
1453 3
1454 9
1455 7
1456 1
1457 8
1458 7
1459 9
1460 8
1461 5
1462 8
1463 6
1464 3
1465 4
1466 9
1467 6
1468 7
1469 1
1470 5
1471 3
1472 3
1473 6
1474 4
1475 4
1476 4
1477 9
1478 5
1479 9
1480 5
1481 8
1482 2
1483 1
1484 6
1485 9
1486 2
1487 4
1488 6
1489 9
1490 8
1491 1
1492 1
1493 3
1494 9
1495 3
1496 6
1497 1
1498 3
1499 5
1500 7
1501 9
1502 6
1503 1
1504 7
1505 4
1506 9
1507 6
1508 8
1509 1
1510 9
1511 4
1512 3
1513 8
1514 5
1515 5
1516 4
1517 4
1518 6
1519 2
1520 6
1521 7
1522 5
1523 1
1524 6
1525 8
1526 6
1527 9
1528 4
1529 1
1530 5
1531 3
1532 9
1533 6
1534 2
1535 2
1536 5
1537 5
1538 5
1539 9
1540 4
1541 8
1542 8
1543 2
1544 7
1545 1
1546 8
1547 4
1548 4
1549 3
1550 3
1551 1
1552 9
1553 5
1554 9
1555 4
1556 4
1557 2
1558 4
1559 3
1560 5
1561 5
1562 5
1563 9
1564 7
1565 1
1566 7
1567 9
1568 2
1569 8
1570 6
1571 6
1572 9
1573 6
1574 9
1575 3
1576 4
1577 7
1578 3
1579 1
1580 8
1581 1
1582 3
1583 3
1584 9
1585 2
1586 1
1587 7
1588 1
1589 5
1590 8
1591 4
1592 8
1593 3
1594 1
1595 7
1596 8
1597 4
1598 4
1599 2
1600 4
1601 6
1602 9
1603 2
1604 6
1605 6
1606 3
1607 7
1608 8
1609 3
1610 2
1611 7
1612 2
1613 6
1614 4
1615 8
1616 7
1617 5
1618 8
1619 5
1620 2
1621 3
1622 9
1623 1
1624 4
1625 1
1626 7
1627 1
1628 9
1629 5
1630 7
1631 5
1632 7
1633 2
1634 3
1635 9
1636 5
1637 5
1638 9
1639 5
1640 2
1641 4
1642 7
1643 2
1644 2
1645 5
1646 3
1647 6
1648 9
1649 7
1650 5
1651 7
1652 1
1653 9
1654 9
1655 7
1656 8
1657 3
1658 5
1659 6
1660 3
1661 8
1662 4
1663 9
1664 1
1665 6
1666 8
1667 2
1668 4
1669 4
1670 6
1671 3
1672 3
1673 1
1674 6
1675 2
1676 1
1677 8
1678 5
1679 4
1680 2
1681 4
1682 5
1683 7
1684 6
1685 9
1686 4
1687 7
1688 3
1689 8
1690 6
1691 6
1692 5
1693 5
1694 9
1695 7
1696 8
1697 3
1698 3
1699 9
1700 5
1701 3
1702 4
1703 5
1704 1
1705 5
1706 8
1707 7
1708 6
1709 9
1710 1
1711 1
1712 7
1713 5
1714 6
1715 4
1716 6
1717 4
1718 8
1719 7
1720 1
1721 3
1722 7
1723 2
1724 5
1725 2
1726 8
1727 7
1728 5
1729 6
1730 4
1731 7
1732 4
1733 9
1734 9
1735 5
1736 8
1737 3
1738 1
1739 6
1740 9
1741 1
1742 7
1743 9
1744 9
1745 2
1746 7
1747 2
1748 1
1749 7
1750 1
1751 9
1752 7
1753 3
1754 1
1755 8
1756 8
1757 5
1758 8
1759 7
1760 2
1761 6
1762 2
1763 4
1764 7
1765 4
1766 1
1767 1
1768 5
1769 8
1770 5
1771 5
1772 8
1773 3
1774 5
1775 9
1776 3
1777 5
1778 8
1779 4
1780 6
1781 9
1782 1
1783 3
1784 6
1785 6
1786 4
1787 4
1788 7
1789 4
1790 4
1791 7
1792 5
1793 3
1794 9
1795 1
1796 9
1797 9
1798 4
1799 1
1800 9
1801 1
1802 6
1803 6
1804 4
1805 6
1806 6
1807 6
1808 9
1809 5
1810 6
1811 6
1812 3
1813 6
1814 4
1815 1
1816 5
1817 3
1818 5
1819 1
1820 5
1821 3
1822 1
1823 3
1824 7
1825 6
1826 3
1827 1
1828 3
1829 2
1830 1
1831 9
1832 6
1833 8
1834 1
1835 5
1836 7
1837 2
1838 3
1839 4
1840 2
1841 1
1842 4
1843 7
1844 9
1845 4
1846 6
1847 7
1848 8
1849 4
1850 6
1851 7
1852 3
1853 8
1854 1
1855 7
1856 4
1857 9
1858 9
1859 3
1860 2
1861 2
1862 5
1863 6
1864 4
1865 7
1866 4
1867 4
1868 5
1869 8
1870 3
1871 9
1872 3
1873 1
1874 2
1875 7
1876 9
1877 6
1878 8
1879 3
1880 6
1881 8
1882 7
1883 8
1884 2
1885 4
1886 9
1887 7
1888 2
1889 3
1890 2
1891 9
1892 9
1893 2
1894 4
1895 7
1896 5
1897 9
1898 5
1899 6
1900 8
1901 8
1902 8
1903 6
1904 5
1905 4
1906 3
1907 8
1908 4
1909 3
1910 5
1911 8
1912 7
1913 2
1914 9
1915 1
1916 3
1917 5
1918 2
1919 8
1920 9
1921 2
1922 2
1923 3
1924 5
1925 3
1926 2
1927 9
1928 8
1929 5
1930 1
1931 4
1932 2
1933 9
1934 3
1935 2
1936 5
1937 3
1938 9
1939 1
1940 8
1941 8
1942 9
1943 3
1944 7
1945 6
1946 7
1947 3
1948 7
1949 4
1950 9
1951 1
1952 9
1953 8
1954 9
1955 3
1956 6
1957 9
1958 5
1959 3
1960 3
1961 5
1962 1
1963 4
1964 9
1965 5
1966 1
1967 3
1968 9
1969 2
1970 8
1971 1
1972 2
1973 3
1974 1
1975 7
1976 9
1977 4
1978 1
1979 4
1980 6
1981 6
1982 6
1983 5
1984 6
1985 2
1986 7
1987 7
1988 3
1989 8
1990 4
1991 9
1992 9
1993 2
1994 3
1995 1
1996 1
1997 9
1998 6
1999 4
2000 3
2001 5
DEPOT_SECTION
1
-1
EOF
