NAME : gen2000_003
COMMENT : uniform customers, demands 1..9, generated by bench/make_tuning_set.py
TYPE : CVRP
DIMENSION : 2001
EDGE_WEIGHT_TYPE : EUC_2D
CAPACITY : 300
NODE_COORD_SECTION
1 0.521141351622125 0.8335120786672513
2 0.14734946531087978 0.5801849529912528
3 0.8398098408566869 0.2969892869273195
4 0.6551754532699178 0.31753755162239505
5 0.6943640714149872 0.18519339690950598
6 0.25122734404503244 0.2140932416683211
7 0.2698983956422043 0.6364886991608626
8 0.001049128933175325 0.8492719974928388
9 0.8714230269964606 0.679950061653848
10 0.7636034306276885 0.7910205697165051
11 0.1304900090394182 0.4313182279705561
12 0.24385299230473545 0.016815449364015245
13 0.05712835631601476 0.44846184025951574
14 0.09736515117050315 0.9891679283288006
15 0.47550199603691246 0.11717791328819505
16 0.48802620754901627 0.6905136829176207
17 0.7914886692547577 0.37750736897901505
18 0.9994944431109648 0.46244607888236233
19 0.6792831577391232 0.5161735762874878
20 0.325692735237084 0.7405728228476769
21 0.0068248706197275855 0.3048748774686638
22 0.7912926139656752 0.9558011599441109
23 0.3876055921314494 0.8997146921424303
24 0.6192229107831239 0.317436500994583
25 0.5414618066997224 0.6261925205082327
26 0.08751390996547981 0.9801889619676786
27 0.39644813358645004 0.33482840867432206
28 0.7545075609424573 0.49555870938023416
29 0.6811159467183115 0.7817963306254365
30 0.10653799771958772 0.22662034025311317
31 0.38473442070646613 0.9214532283727118
32 0.3904353909236996 0.3035835026925261
33 0.3781836754218483 0.5645531580782984
34 0.8201297367517271 0.18291151673770267
35 0.9064956836885292 0.17317163848388462
36 0.007824653404386761 0.7436288048131876
37 0.4683487383443663 0.3186162885660966
38 0.2621638504924605 0.14157871687299595
39 0.856477209128216 0.1033051430366656
40 0.7536483429503916 0.940835680115972
41 0.9898529556512509 0.8446023950698207
42 0.8076736975256844 0.9042797961995982
43 0.325413219207467 0.13762764447198284
44 0.5689533589189768 0.8367300194430702
45 0.7944478119673265 0.8039494684716061
46 0.7049776088026954 0.17560896624727818
47 0.4379537690606746 0.6479322219477659
48 0.9725254189317144 0.47294502190476173
49 0.9957683059881581 0.1152324566214471
50 0.8153927568521936 0.8368821555446496
51 0.7133115944061766 0.6137764252942233
52 0.7328529201490385 0.12082996663006484
53 0.5310387350879423 0.8862772191553792
54 0.7600743419510759 0.23070787073078813
55 0.6893991549900448 0.4387921476890766
56 0.433725206811159 0.12624496100996052
57 0.985012858135613 0.44190967263831593
58 0.4373053306426028 0.8114527236336612
59 0.3335110114036137 0.8621835536324074
60 0.9843676383944797 0.4487158597400831
61 0.6666122212886882 0.2627955068859451
62 0.2560281653986517 0.7105872003063123
63 0.44616967377383154 0.22857324313557748
64 0.6054154636602869 0.5573951700018699
65 0.4410983613672984 0.5235374512086988
66 0.8635578307108949 0.8373063340362812
67 0.8712582603615957 0.5634188028452589
68 0.8997224241684795 0.25322320887693894
69 0.576278765492718 0.024761908541558464
70 0.15490700679864955 0.06281884232926116
71 0.34615382532972727 0.5717845685729986
72 0.06365145171470354 0.6119928527803772
73 0.9794717503499952 0.9255009361684015
74 0.367963623522662 0.9884755170573299
75 0.08293287456127796 0.3779489062339577
76 0.2620520321846561 0.5598406340092605
77 0.12653648233798587 0.30035205518104935
78 0.5676253136216779 0.659420494936885
79 0.40237752143332317 0.273378310809372
80 0.44623909685279195 0.716449194342422
81 0.06347113848062713 0.5103999262065666
82 0.3543041445542533 0.30051783063830007
83 0.39149489111123137 0.7693879084113212
84 0.9548296304953059 0.23884277623549244
85 0.88664665038154 0.20340742925771382
86 0.6739444484630421 0.29999812132370174
87 0.3705077647639521 0.2872731747448348
88 0.380002699550413 0.14271922981862828
89 0.778790518053899 0.8003996784984968
90 0.07541802227898053 0.8833981180787744
91 0.4062561782252715 0.2845893839386957
92 0.28741730650596387 0.35085972222376705
93 0.9414780191803004 0.8412335552950108
94 0.18134737090494424 0.8798412627752881
95 0.4006133259367265 0.5579730619249947
96 0.3109189056067143 0.9848752788727465
97 0.0014529276480920172 0.5471148073601941
98 0.9702373566421356 0.777018539254172
99 0.04382059675508376 0.6221913858793272
100 0.46421797979374346 0.5095140768583231
101 0.941742505519874 0.7079158014467388
102 0.9116371902321827 0.8760253778960733
103 0.06399099446697665 0.1832159741432029
104 0.4009513552243602 0.6368103048474925
105 0.6349593135908381 0.22456577299214242
106 0.8373661991797597 0.3538030900176349
107 0.6466341796243144 0.9143916217149796
108 0.34507929530712755 0.5071187558451716
109 0.9426231437419383 0.7725511554548937
110 0.525064929756078 0.7138099074812054
111 0.946618561824232 0.8197640175919975
112 0.597000385540877 0.6311287368674403
113 0.5268302132149288 0.6625538768923898
114 0.03256724485769735 0.8512486631414284
115 0.5204758760289477 0.7950710725699499
116 0.5526820257007472 0.3375463876726724
117 0.920671095466703 0.2511998918179805
118 0.6509059536591972 0.8981930807049611
119 0.8916949454340065 0.8000949506662726
120 0.7394096318803559 0.9846667825090443
121 0.2017106138903787 0.5111126078684469
122 0.8304079260523507 0.21549870051489617
123 0.94712243636164 0.22320204626875295
124 0.15374578300960595 0.3662538280661126
125 0.08638079298384471 0.8854055054148511
126 0.6551846070007766 0.7233260983930279
127 0.33813451467324784 0.7299789249512525
128 0.18078028236485233 0.3155309707548979
129 0.44231004735839874 0.3671386652882408
130 0.5639461562655977 0.9128770711758408
131 0.9139505589513999 0.6270729132602214
132 0.6455658882776516 0.40467844228716787
133 0.6699439647066634 0.0621113998029984
134 0.7120507198373711 0.361615994038479
135 0.7998121192019713 0.3435283226350425
136 0.03159657820778217 0.2542264691109486
137 0.16240410769182234 0.6723815338191451
138 0.4530984368214601 0.7408648512100376
139 0.4630890376194211 0.828359774769827
140 0.2534822995290098 0.3390674929763752
141 0.0030403110583955284 0.11879022780132398
142 0.9508775023722772 0.9620064499613449
143 0.7233553791124954 0.30993756762196
144 0.49898698412895937 0.5285988357446068
145 0.15249560505973547 0.5420333329730482
146 0.5221413036015311 0.7545566673297085
147 0.8872299061157989 0.9251430719230687
148 0.9780888149595627 0.30284971391314874
149 0.4610045102136803 0.5680066145380439
150 0.5975422386096644 0.9431544725908352
151 0.9082687202247732 0.9783295836141713
152 0.6929240135227551 0.6163035102945884
153 0.19018257119661774 0.002170127422504886
154 0.7522728877102172 0.66405959109962
155 0.6160860905798118 0.7243019647193941
156 0.6872705890883152 0.65877931135222
157 0.24826092723047744 0.08845077443453542
158 0.8443707201583235 0.15347430357064962
159 0.6082555574114425 0.789604702437886
160 0.01137921303783529 0.7872012669893764
161 0.10272821268260235 0.2478457627149061
162 0.8557899266249969 0.4853637374396331
163 0.6952987951750728 0.3729173938638337
164 0.21172318776490806 0.875625030652319
165 0.9067521041596323 0.8628263810803618
166 0.6125717082828755 0.7683936594540697
167 0.4588794788964595 0.9188373634136661
168 0.8211325129984478 0.27178937302153416
169 0.21947604091143946 0.7691330981015836
170 0.5831588445363634 0.6684064383786926
171 0.38071859645029027 0.09482188891498933
172 0.6931511892856702 0.8265479449304238
173 0.9635011238893609 0.6645349405017533
174 0.43996546788994917 0.49299891468029733
175 0.24426282761289964 0.7830301463504419
176 0.7159532679127932 0.3980073656822195
177 0.36099396633216463 0.49481305784021423
178 0.49961273251240246 0.790469476617718
179 0.8145260157447377 0.5076187658502864
180 0.0767848270393443 0.8344199824726818
181 0.43505899855531394 0.20285597630729257
182 0.22625812295723402 0.24451320842963387
183 0.9039364977201731 0.08400413692698172
184 0.8382850116193052 0.5098929357912965
185 0.3259800623341691 0.01270881058451201
186 0.4224948324948161 0.3176099501482579
187 0.655995208702461 0.9809861370172981
188 0.15318931030056615 0.11026374043651266
189 0.9873244409700289 0.6945959866618276
190 0.8903812625679722 0.45473844436306354
191 0.03573945271558521 0.8568495929313049
192 0.9066379945806371 0.8609391582103592
193 0.4475355468489779 0.5236105859313133
194 0.7864668815042358 0.19962176554126598
195 0.27691665277579736 0.2948161677642507
196 0.5111999760777072 0.2414691171199589
197 0.7089192966489265 0.49939047751351584
198 0.5890505810825486 0.7167971281402713
199 0.6800725718890583 0.8030553841549499
200 0.28257140692884164 0.1702518224134124
201 0.17545863678416407 0.6227368463876614
202 0.9003103345937647 0.5113914687175841
203 0.214947037271088 0.5184043562497455
204 0.40798321159927264 0.15923862318652948
205 0.7055638030784989 0.9333651190919813
206 0.3625187603005622 0.8115292232286121
207 0.15351425749698777 0.27101032339863973
208 0.36297616867982996 0.20899393691368118
209 0.7563444354061255 0.8247945701535201
210 0.5977728092846524 0.43540665528456024
211 0.1507429635504739 0.19270854462163922
212 0.6598277751567371 0.8975810630460908
213 0.12101307492786173 0.4419932596166003
214 0.09512988696559921 0.8702403278715318
215 0.4687763030669613 0.07153795534425123
216 0.29832996721987615 0.5146932913113741
217 0.3233929480045872 0.2829595541435017
218 0.06796027200665278 0.32186243476853427
219 0.6030350289178084 0.4161099032167437
220 0.02861225071530571 0.7103353832853844
221 0.7427941666415068 0.5846123216667751
222 0.5080460243954242 0.1093344881243119
223 0.9961310791765505 0.8035949915052513
224 0.9263877912891295 0.37554498804173975
225 0.9327160134958186 0.6960976247026411
226 0.38570099131303126 0.1264597718749907
227 0.8050534682900847 0.6225364851064222
228 0.9718116683351259 0.21479252958071793
229 0.6375456152009152 0.3811851873053682
230 0.26839190767991405 0.31184196552160104
231 0.1752322497249993 0.9363132181910059
232 0.6647829799106227 0.45388647920143677
233 0.3168391970756611 0.6857788588391843
234 0.2531240428951489 0.21469180040272196
235 0.442801834881863 0.7403931278518756
236 0.4385260955843395 0.6532325269494881
237 0.8229233851771434 0.9524600720346315
238 0.9772035294368421 0.34331122698692995
239 0.31184674397971757 0.2701818455368056
240 0.7801540297841264 0.3545284808798129
241 0.6374334314083686 0.3990816711644154
242 0.9751423560771341 0.7707415637165255
243 0.13391558674991855 0.6027092186274975
244 0.8591769270663526 0.09773261624941554
245 0.038222053844715886 0.9556437787252581
246 0.31223816715105013 0.6254439879978966
247 0.9076814031614543 0.8021279404740953
248 0.30048436768004827 0.3750648180678615
249 0.03504289036788166 0.5116733722887373
250 0.10056682274054984 0.7184484896453363
251 0.46386892603217733 0.45808339095035544
252 0.4248628707960902 0.8729385252772134
253 0.35573420530289634 0.6338590580008203
254 0.08890237388967737 0.5072561572870875
255 0.39571024450274517 0.6368871022458209
256 0.5335119704833595 0.5897544885639923
257 0.34941751513280184 0.8759356346907045
258 0.43607573659261245 0.5475025003076687
259 0.5988294288080329 0.8376993085173786
260 0.6267331017921443 0.5231979339992237
261 0.32348989921947824 0.3898429347837995
262 0.21330079273286517 0.3902502312378596
263 0.40856514258250143 0.8503794403300107
264 0.5196435302876047 0.8772931844277535
265 0.6800241412344153 0.5384910465048061
266 0.16222493035307806 0.059312677703238226
267 0.9491855274159191 0.9742275534553955
268 0.16136826574867036 0.2828418170180155
269 0.16993434761021708 0.13515204616450205
270 0.8102096006516638 0.4075520584943523
271 0.8203405740467692 0.8855975044520008
272 0.4408108879717427 0.6352349658037386
273 0.7112978417699789 0.09296364058392526
274 0.6293622334614524 0.7807079434554535
275 0.6534810680977602 0.6917855397166861
276 0.264155697248447 0.6244429892724137
277 0.14060525550611402 0.04004496242638966
278 0.720672197111949 0.03948223737183609
279 0.27444442966023286 0.18817813295547925
280 0.7596623957812566 0.952635716072657
281 0.7221028633847856 0.1559945107266657
282 0.8692929602972848 0.33318077198654217
283 0.6172691436000791 0.38379150705604226
284 0.8679313172671307 0.9859621630495078
285 0.9146538467785319 0.11276269522296423
286 0.21989438889633983 0.10920110425113316
287 0.10395991077022304 0.9403895708940685
288 0.1983521264806315 0.17274803205403955
289 0.8586765459895441 0.8581960662903908
290 0.9500908699263978 0.10167206268127704
291 0.04092840629795169 0.6273826559627694
292 0.04994884138406752 0.15319681390663675
293 0.947563271484049 0.27137266341061217
294 0.6407427206037769 0.15755415112691584
295 0.5469911506479012 0.9761884066812448
296 0.5652432253245545 0.54593842918037
297 0.03252724115522476 0.24072033610499088
298 0.03691161588478176 0.694823310148034
299 0.4938029564240801 0.2194029951123817
300 0.7691003786503079 0.8061354854127202
301 0.9229421853033651 0.981927381443219
302 0.9419500288731617 0.6454615866649209
303 0.5672242400473873 0.70253732744277
304 0.05896969703704735 0.6001858391920908
305 0.4124926481776996 0.6425022222221569
306 0.24105124197411043 0.5931162781833664
307 0.7461975439097752 0.6300629966106536
308 0.5249196876290871 0.21425097131325244
309 0.4873922064968972 0.8017207642298042
310 0.5356522551086077 0.13440454771157395
311 0.6850104508621461 0.269990840608753
312 0.2249478022485345 0.054794747777544006
313 0.01397404455721274 0.5571264972111449
314 0.9283974243834745 0.17655650413774293
315 0.8657650740786861 0.03936667724604326
316 0.3094394091353555 0.43073612710033016
317 0.02800550474543717 0.2825208387781529
318 0.8300380679044583 0.328483747246195
319 0.06189109925427272 0.7662181192772866
320 0.6953943405756836 0.8471788456725465
321 0.22134230822014955 0.26909124888191627
322 0.5692490523917539 0.88173746015334
323 0.6894447886495734 0.9628689139777689
324 0.8185619137576782 0.500928130316006
325 0.5961968437848043 0.11920803258382551
326 0.28994078908642984 0.0911996052589662
327 0.574545348001315 0.25533907439208603
328 0.8255471125357505 0.21295046579210042
329 0.9126482542896018 0.5328533526740813
330 0.051162031692893795 0.2954857711016501
331 0.06705964747890436 0.32247081562971625
332 0.39588893610396103 0.20974117816416782
333 0.5095504166468102 0.5775208045756426
334 0.9110743533467365 0.35747202940103573
335 0.7383867135003387 0.27383796153573703
336 0.7381357236072252 0.8370878178233262
337 0.19765993396554327 0.9773185720299149
338 0.8906632941943918 0.9289763708572341
339 0.8371746729238478 0.8448234143527849
340 0.7781430107735393 0.24877459236708177
341 0.3264510690477459 0.12805790615749268
342 0.6297902818840256 0.5405986499652013
343 0.13263848593406125 0.2628126742164405
344 0.49449594666497054 0.9414924715909184
345 0.12031801498508876 0.21344018434319112
346 0.6094217469168409 0.3494182898621804
347 0.23993358968576473 0.08903426208919762
348 0.42100393796410573 0.8976474725528424
349 0.6452714900475776 0.09950613443184708
350 0.5596789145377209 0.6112551461256028
351 0.9401243962676552 0.9195585552352371
352 0.12517101533983188 0.99906224570942
353 0.9756782184262264 0.7445164998500953
354 0.7284732593148293 0.825416670263871
355 0.12817142789052527 0.015247638681419984
356 0.3575466861925575 0.1867813892102942
357 0.8837000720850532 0.5097077258486544
358 0.78382359070405 0.40676225698625634
359 0.49734405670068604 0.5878273809048019
360 0.74654929906984 0.8008490242939084
361 0.01089514798211122 0.5836678188036087
362 0.8163372315005671 0.8273039148948496
363 0.5116201223425717 0.6786759118959226
364 0.8271921711318291 0.7367154222573298
365 0.7929209096134298 0.7467733598051173
366 0.8691391217234443 0.45251460958664935
367 0.5125420787332744 0.303338763836828
368 0.321520809195429 0.6789128868598304
369 0.21910242480967324 0.7040730350142008
370 0.29292412233545395 0.41013784563763256
371 0.9951475112495446 0.7509049461670975
372 0.12264789750325666 0.8689599540580282
373 0.9442699057548369 0.9829283159045946
374 0.28450207681373296 0.8593227266001642
375 0.33873354549503365 0.03353087203205862
376 0.3816764695684586 0.6181859951795747
377 0.46310647521360904 0.3116366978100843
378 0.19694372925436843 0.7142867441907262
379 0.6959263234668059 0.7847580311122786
380 0.5723630729995137 0.2374359274997534
381 0.13224841584977376 0.7498960228238761
382 0.8995170126910322 0.86016049485077
383 0.32066747176476496 0.31219818294919877
384 0.45691063223678474 0.835066254140228
385 0.8039410488550605 0.5027322094641138
386 0.007726124199116113 0.799182125661781
387 0.9160146956299186 0.8897080627993542
388 0.4985187404743512 0.8941705147248964
389 0.12321751295359828 0.009689655156050914
390 0.9144401394450675 0.37928777032508465
391 0.4978648871594936 0.19845835685210733
392 0.9944064832629065 0.04759808575824698
393 0.8755807105339324 0.0017368801838085757
394 0.37795098659456305 0.8078574993187417
395 0.7639103714663439 0.17919385324707882
396 0.9075485198341908 0.1533437650982895
397 0.6252313818258464 0.24242237163616676
398 0.4759191178054203 0.5023295605602923
399 0.36747849770682617 0.9075487452916938
400 0.1378394399661682 0.11352797188356367
401 0.9154812351579467 0.6405200124301257
402 0.9226848277395654 0.5068434959848035
403 0.7645805134494138 0.7249631682145139
404 0.20434180406919789 0.7819341383939032
405 0.5817597155488721 0.554487114501798
406 0.2721828675783463 0.6142967827217545
407 0.598924315626565 0.5844282041972945
408 0.9638415190707614 0.327881380326422
409 0.17459205487235752 0.06442674658856984
410 0.5852926593381504 0.10411451918164893
411 0.6807934607454972 0.7033265825252955
412 0.8666025966706377 0.1570509231021382
413 0.002863270058376499 0.36698152268667594
414 0.7475588316786518 0.9297962435412767
415 0.7455973057152531 0.262015188666622
416 0.7294047005320522 0.973681406879475
417 0.19933828596503622 0.9407665015986892
418 0.16296493994588168 0.4802688116229282
419 0.48441289612970395 0.6186251147214791
420 0.28378751173865313 0.8837240194597552
421 0.03978327329411291 0.9485794524915537
422 0.821432030815831 0.33445800645365487
423 0.5262306180317201 0.5527673326572574
424 0.8302962394823091 0.32334280988201325
425 0.6918821931855679 0.6606343112299268
426 0.27366952934748 0.6702314992905235
427 0.08772508412469315 0.890301285533007
428 0.4269088104645935 0.844280748872849
429 0.01730186953376678 0.15163833623262735
430 0.8214400113643956 0.06683299687778466
431 0.17494140061359031 0.30212569517129384
432 0.29419642720795847 0.35813560837957614
433 0.411245184121538 0.05294665564129275
434 0.7345644544218818 0.8019305718809877
435 0.4284091212372022 0.9328255681943707
436 0.4300112866236564 0.7165616980406763
437 0.10145847181624346 0.14090093652977498
438 0.08247961717424157 0.847489620150172
439 0.5124284868262822 0.7473998255400486
440 0.038063717347738835 0.47977789458576237
441 0.7030860973997061 0.25727686644336434
442 0.2623706421779296 0.883797039059574
443 0.7055619973127033 0.6150095500764144
444 0.15581218316560608 0.3659987479537258
445 0.3987925680371628 0.08692309250850228
446 0.18338552506300532 0.4116100645314559
447 0.7237995940446341 0.8889620282885479
448 0.22768426773825634 0.18807535813987486
449 0.4947399586869671 0.6896264301901027
450 0.59134870895538 0.984831639745562
451 0.22198127505448073 0.49123082667264695
452 0.12953481100939412 0.6623906559012429
453 0.29841907490069675 0.09413915212654456
454 0.6162839971601075 0.249824169884292
455 0.35344564638765985 0.578492371653861
456 0.14308344407080054 0.4350248896355736
457 0.08087232385897392 0.2430304238436135
458 0.915516767614734 0.903429345490486
459 0.4216976313562306 0.7888415147885088
460 0.8491088096018912 0.49082494842006386
461 0.10064125853298234 0.5004655990839132
462 0.4725267789236125 0.9276119804176076
463 0.022087028164043843 0.5910615275897012
464 0.904448465812654 0.9245110767039264
465 0.40795162371312765 0.1441553249970018
466 0.03867009449220482 0.15733215844475057
467 0.12321688190019664 0.4665609836251863
468 0.45517865459277984 0.6117374252844637
469 0.5132254865725738 0.7374590898515908
470 0.9489541975365857 0.34204916557920406
471 0.5277950867098582 0.7358225472946301
472 0.8733452400916212 0.6626245751915381
473 0.08468767253321752 0.8842536832403752
474 0.8540754244527771 0.15553595353503868
475 0.16316184865893546 0.7837663185741541
476 0.9227689324015752 0.9444218904398187
477 0.23779608716273315 0.010313652005190632
478 0.4540282286434061 0.36473963619738514
479 0.8172425792859063 0.47615589008441894
480 0.21104067132106497 0.4746718688954623
481 0.3781091433219156 0.6160247546044862
482 0.5653735187684101 0.3360974387960931
483 0.7450179855475482 0.49845199222099257
484 0.43619511147641177 0.224903614618581
485 0.747270016031904 0.658998754344328
486 0.8706329508576709 0.9162147449616045
487 0.706333337318166 0.4626250133243105
488 0.8148533502055778 0.9034852845040131
489 0.19326577495065378 0.20676843373786158
490 0.3876626957538931 0.6348427742298858
491 0.8238054290600856 0.6114647292342412
492 0.7867028879288177 0.18687077963487486
493 0.608440579783854 0.6140090910211858
494 0.4442095904230191 0.8744651048852322
495 0.28581278212004924 0.8847811745419037
496 0.19435731119631205 0.8434309879048784
497 0.6361353771118493 0.3236460198144333
498 0.737407216127603 0.3425694528462231
499 0.08476965663103031 0.3002584263135436
500 0.07064760071989584 0.6716805859439008
501 0.1674997467592234 0.7782854048540373
502 0.8379057210178529 0.1857423030364873
503 0.0017218821674889195 0.021107965649215465
504 0.77222204560095 0.9983326055027899
505 0.3303830752417989 0.6670257808274442
506 0.40777264507390176 0.0158462559394954
507 0.062444080477939035 0.3847845083860675
508 0.8245034482183539 0.6782614347270507
509 0.7783585525054229 0.8426509253995134
510 0.569020477745182 0.6090412671370832
511 0.27793003889916645 0.40403884457180395
512 0.5193137529799053 0.8589419395150389
513 0.7189527703246134 0.40166817472093774
514 0.9457617021250456 0.5616911430012145
515 0.3152501228236714 0.5406786546710532
516 0.2581191676190969 0.251723436309639
517 0.382910806883745 0.2042970195358138
518 0.07520131814146636 0.500539203717996
519 0.31474799530284214 0.86705579623149
520 0.07607974439343124 0.7822949472348575
521 0.8768516613369998 0.7470390858081595
522 0.8513216590409125 0.9084604874194377
523 0.722882164403306 0.7106977826828597
524 0.5907392709499434 0.7175001043789149
525 0.18648027630025255 0.36498629910364455
526 0.7919455871139013 0.0467079202679499
527 0.5922613277499091 0.7520093470878113
528 0.39834358433180284 0.3908404288996995
529 0.20636560119652247 0.510455660977478
530 0.6040716522619309 0.8457314943802114
531 0.7899643589426503 0.03688927394646113
532 0.23064485721976746 0.08469382891327348
533 0.5535403465013311 0.3307181994586327
534 0.48574727346908986 0.5631975255411493
535 0.5312712526814988 0.7739436115467198
536 0.22201291443292281 0.24337085167381312
537 0.8189411830523732 0.5428576142794329
538 0.028386845421550788 0.5985906221653023
539 0.7472906327243072 0.10617349834525203
540 0.38137539005952825 0.5337093029080342
541 0.7868260107136809 0.8289687465036484
542 0.05645934276843123 0.4240608480687377
543 0.49292473241463997 0.5506688881973247
544 0.48195342101642147 0.513432092132875
545 0.5703766740582488 0.08378042080396864
546 0.35684634409125304 0.9913990581211684
547 0.6477165713282752 0.17305553038299992
548 0.6098225513565082 0.8823004297296233
549 0.8420425224601352 0.29972457767718885
550 0.22477134040701652 0.3273040670482885
551 0.908502039911946 0.2537747527713693
552 0.4534708260401026 0.8898114840149236
553 0.30583954515378675 0.6095481960078575
554 0.616700274218223 0.43396710886106393
555 0.08891122327806578 0.8649256865018268
556 0.5808226861404499 0.13939319003850315
557 0.09862675827894685 0.49679681668889597
558 0.613630948783912 0.3772244148506724
559 0.29621629766636104 0.7234189260518931
560 0.9375213298111958 0.7574026643102467
561 0.2269175423338261 0.18801673033713828
562 0.7736115807302506 0.3477457741887615
563 0.9602722423363781 0.9576323046801206
564 0.5950776472745228 0.5735188766896798
565 0.284490800189123 0.6140467209844277
566 0.267879866995154 0.5130462746815581
567 0.9586239587076861 0.4837907012254311
568 0.6315821008392707 0.34184621874303156
569 0.3147959611984459 0.06302162882177864
570 0.23695725446431026 0.7359162356280661
571 0.6722853656258759 0.2866007929904948
572 0.9635121227752056 0.7605810408723197
573 0.09964364648251234 0.30615634157465055
574 0.3686085241026277 0.3625410653794394
575 0.5463829026328583 0.8211750947995305
576 0.09681571844321879 0.9470064100661157
577 0.60761315985179 0.59227698186091
578 0.20483577762146687 0.7987307112265376
579 0.8463749719209037 0.5157265600654918
580 0.562359613943735 0.2993087318813279
581 0.061098403299883364 0.34527777934431725
582 0.4648392502632387 0.5112818825419304
583 0.15545600184283892 0.9805008996931314
584 0.9687541876967996 0.9385129077341007
585 0.9439408221629183 0.8064198958669351
586 0.12951815151521406 0.8962453106941767
587 0.11764102642076057 0.04052983928054377
588 0.6497072471149539 0.21564770757474694
589 0.5919553143193578 0.1655294957336686
590 0.13100917104496457 0.5819075592935335
591 0.613586505950115 0.6182484910058349
592 0.45824773419564313 0.5281751648605632
593 0.020879538247338125 0.7240100147517909
594 0.46049849740963844 0.0804799830017493
595 0.5462537552563269 0.5255553869171955
596 0.19621535172961335 0.674892386194554
597 0.12542880467307915 0.2702740338867815
598 0.27064742214355586 0.5546678138190614
599 0.8460923014213012 0.4363465149421566
600 0.8354695601973137 0.13143967185589522
601 0.4928391068006789 0.5320526114805132
602 0.6142332535488604 0.8074825828901601
603 0.5284345002583796 0.7203546804192515
604 0.9989734421260895 0.16588371095588184
605 0.10474915131337958 0.9664111658968402
606 0.152624439733128 0.24901128726795851
607 0.818301491873491 0.9197582631312858
608 0.760165693259747 0.56609715153793
609 0.5306071702586928 0.4877884722932301
610 0.8773668368849921 0.6457618420399936
611 0.7845595483766273 0.5949162999992633
612 0.04936598637558587 0.4045603685743806
613 0.9397643312643787 0.9599756301052746
614 0.8072841962664514 0.38617310777988867
615 0.31084008056448353 0.6794503935117437
616 0.13924277955459385 0.9081341099746079
617 0.5193626833734878 0.797100462347599
618 0.26604434223656803 0.34997168245575905
619 0.8884905608558461 0.5647231364722642
620 0.8162243450997605 0.08964816071405268
621 0.04717163248279255 0.9519349783127975
622 0.243964725500752 0.3939340364214551
623 0.5789752410633827 0.5463116252505885
624 0.023867380150653594 0.5517500055262938
625 0.5129905804825413 0.6201712379460868
626 0.8278445971388692 0.8288201057701745
627 0.33286181720790076 0.8536091174355193
628 0.4864195764966851 0.1429932333638545
629 0.6536210849823987 0.36437395674619866
630 0.33760142048917174 0.5098205989762035
631 0.9710586494421428 0.42482561242416395
632 0.3565125751932452 0.6994908582764287
633 0.0281270701698233 0.5935541093003547
634 0.8008290234149634 0.8296803146490387
635 0.011020721672376443 0.12954503988865118
636 0.5433560268801461 0.31564932901152876
637 0.39100627901049345 0.08622269223954582
638 0.5981064326290942 0.20108776016102736
639 0.31395582619812745 0.3899487601765709
640 0.14055898179091209 0.8014003230487641
641 0.09845497339807163 0.024919504336351816
642 0.7227880299301024 0.7371545109823018
643 0.9304992316427495 0.24056414776509805
644 0.5582488256207474 0.5701871261270125
645 0.1806038520909513 0.05491013735938133
646 0.9299083718745993 0.9905137774889073
647 0.4656747138927795 0.5415526264435263
648 0.6381060812022304 0.922754662496834
649 0.30984289770944984 0.07044331550190353
650 0.9171429199944728 0.18275654041529088
651 0.22008039314448402 0.3278717618315323
652 0.30832512804660384 0.734630003347419
653 0.355451937006923 0.013365104258485805
654 0.4465110067771516 0.4049271187524248
655 0.5948311009172923 0.6005077559482604
656 0.8791125736128222 0.09677238282628131
657 0.9812936168842632 0.6570531096969537
658 0.06422847814798571 0.5769190194949939
659 0.7977885046665556 0.24183096941195925
660 0.40735404380357576 0.8076301196783598
661 0.3506373290216319 0.9811399255642207
662 0.6122132689357187 0.43771797125152767
663 0.4726631890242725 0.5645472913297174
664 0.1263979425177436 0.9491738256801133
665 0.8938359098828326 0.17765170765725413
666 0.20726307634010155 0.13864062054314097
667 0.2667137946511007 0.9874513866369593
668 0.7018436130607507 0.09558967580697031
669 0.8964389316139721 0.6396684710940604
670 0.7630650194266693 0.34345296769231926
671 0.6620260843550712 0.34011517007637326
672 0.7940736900135685 0.59565545643005
673 0.5684016242085034 0.40620707450535964
674 0.7998808103710286 0.1511130152372041
675 0.43650216072194226 0.435547971438193
676 0.8727143889861605 0.3978107363966187
677 0.5147475686341265 0.9862583198542517
678 0.63552386605339 0.6458867283759965
679 0.8293409716318548 0.26172881971769857
680 0.7993569622205298 0.1761196704896132
681 0.7680357100376551 0.5607616409956571
682 0.05226375895364521 0.11557139595265997
683 0.622237213918019 0.14866424543196033
684 0.03271789474680731 0.5735233714515419
685 0.41093561717668103 0.49449627699176235
686 0.6245771504884913 0.11228049639317972
687 0.023344584779121158 0.20662829019554307
688 0.40162757749998923 0.9469957228367791
689 0.7493315013155778 0.12076898488265897
690 0.3509938107142643 0.9453477643233706
691 0.07866950334242073 0.844971426457418
692 0.9554819639674379 0.3487629341390648
693 0.5208714182201797 0.5160641045096609
694 0.6077582921145651 0.8997370074348001
695 0.4992510886992989 0.7452885083941279
696 0.30901511679796745 0.6563990935051786
697 0.9192264676449988 0.1942791374080871
698 0.21553881360420557 0.3222466263856576
699 0.3436278228154175 0.05179478143539684
700 0.0928597201848268 0.024227312291033698
701 0.2989417090244435 0.7605796250435268
702 0.2857048992135923 0.40453859006487314
703 0.01344557781602651 0.5520751741760866
704 0.24817034118711268 0.004444195255896788
705 0.3141977415884172 0.4968571675867104
706 0.6165620189534003 0.5899030039681182
707 0.12317401312143905 0.9022504900241872
708 0.8812748308762315 0.7168893291308019
709 0.19091938443294254 0.5526598245329873
710 0.15750303018169587 0.9457263716614643
711 0.15084118935468138 0.023634471482773978
712 0.01158224406394781 0.18684924639855993
713 0.08675815841763046 0.3827055213959293
714 0.5642499660971236 0.8039790105424636
715 0.5075504239539076 0.15340950950559962
716 0.18914922822016733 0.492030632428038
717 0.16154818297141527 0.32476177504538606
718 0.725857253988713 0.024726331747758512
719 0.8541790678930373 0.636163467772375
720 0.3744070399545286 0.3145253893524905
721 0.0006683905433702009 0.0686730460351408
722 0.6332713247088149 0.18384435568610658
723 0.06069702475931782 0.4630221729130536
724 0.46122041803799196 0.8865393680017553
725 0.6307501765938925 0.4371608162381426
726 0.5940446895552319 0.29511005458245754
727 0.5323669340009616 0.10489960755357686
728 0.6746485977340259 0.9931814439617649
729 0.7261578836671115 0.5210788556582577
730 0.18673515347205127 0.32792114687487484
731 0.7574601937959019 0.10490686279599748
732 0.7899811092401361 0.45131934680543007
733 0.4777076459836326 0.5398482388573458
734 0.7451493783071743 0.6062093896318071
735 0.8575523835790954 0.7561176152385379
736 0.2526127959303043 0.4575178775507449
737 0.48094469548693075 0.7262712812789263
738 0.10252422922648041 0.39202486723372254
739 0.9113382178248169 0.11711934672504243
740 0.6125162263894417 0.02318535980882952
741 0.4989733725503809 0.9950554840286568
742 0.3944547345988295 0.1610933686950885
743 0.8848890376268802 0.36912441418084607
744 0.06424457878107825 0.8594377617659433
745 0.4206564201301819 0.7219049845090352
746 0.41642643995197026 0.3036150674715232
747 0.7019633545538754 0.6138062303327756
748 0.8130405256465303 0.33578330047367444
749 0.09358292341543772 0.9690538200778469
750 0.562165367618853 0.9705484962670929
751 0.5491741681366216 0.40080446442183104
752 0.54039363976536 0.3757908039694877
753 0.08986125894424346 0.7139163741962766
754 0.9713681174648308 0.5980243805580091
755 0.3117208823897043 0.44086768241084895
756 0.021848378060384976 0.8313776907649685
757 0.01419897596348274 0.04881809649938473
758 0.1779667409325999 0.689610068984207
759 0.5750375976899933 0.20598781911980768
760 0.002571576811687848 0.45534134488079914
761 0.39976889363040213 0.07282638211467884
762 0.9971146213010265 0.28445773672540053
763 0.3444841226048141 0.44614486391909436
764 0.9233077789535682 0.7207380700532748
765 0.5143424882655627 0.2618645627148374
766 0.008592207494655613 0.5348771820147356
767 0.3952040932129285 0.02273061423918077
768 0.5970035614221676 0.7193770144967958
769 0.5700108155626631 0.8046782038826443
770 0.2980638131866953 0.8361437511148971
771 0.9146140553557547 0.1598950154583504
772 0.5533454126073734 0.6322194748808108
773 0.7147329095452807 0.10776380198049551
774 0.43757079566849433 0.08760725733103336
775 0.8096883140066279 0.29209424625898117
776 0.9691104772689058 0.5745521310655677
777 0.6802884856110446 0.19821558561765085
778 0.3430358960824933 0.8411120953798927
779 0.17052002718028092 0.39888366375543105
780 0.778946892376058 0.9020957197251792
781 0.3493369848643588 0.4646204851927279
782 0.5908485328228337 0.7988245226000761
783 0.7176810120951793 0.5107843282993434
784 0.8895736715490189 0.953915909282262
785 0.5259309608778263 0.6744953982129778
786 0.14088378646844735 0.050008564057892335
787 0.2094383289124061 0.7915204808561263
788 0.08396605007331925 0.3992218267777613
789 0.560942639084404 0.40847795642961426
790 0.11621116348960292 0.4766365227912889
791 0.24966576387293082 0.9501657506339289
792 0.3064780623438489 0.8981666479813202
793 0.7892241321077564 0.8033100056161379
794 0.8412045950795618 0.24629593412325657
795 0.538072775385968 0.7934518721366983
796 0.7537452987253215 0.551039571506031
797 0.27159101646306416 0.15098789284419056
798 0.42395134175153937 0.7461560323485554
799 0.9203590149035714 0.9634989210414856
800 0.9632687021221711 0.9458652757416852
801 0.3517596179453436 0.41616081028566676
802 0.599354470230582 0.25764891482515795
803 0.2481961036298702 0.1498876533993635
804 0.48814066530572 0.5370346842812076
805 0.3477716759079904 0.5193815423564504
806 0.9137774591559613 0.7575224628879026
807 0.6378621239809115 0.9186516165243652
808 0.8254324629458328 0.06074709872911788
809 0.4583706578936273 0.7275899304985359
810 0.7370058230666587 0.5708542635452707
811 0.03404639422121869 0.13201906576768674
812 0.8117520317780353 0.09798146701932897
813 0.9865264895150709 0.10687526070597153
814 0.8492423210743806 0.71479502942542
815 0.5527588968577074 0.004101990756896212
816 0.9791431451009247 0.24569649171362284
817 0.1364928760613322 0.9683040109115104
818 0.340829064427865 0.6104330854385499
819 0.8250472759773596 0.6638760937507903
820 0.9016474019724405 0.8082518951486423
821 0.1396455886386988 0.1915537777205668
822 0.30375155183262104 0.4464406263924636
823 0.6498530104448027 0.7648453908799941
824 0.6918272264835391 0.39310704707329747
825 0.41306019930374815 0.4244491414727074
826 0.4226089195633408 0.3236442595026927
827 0.9675717138190956 0.5005930587591215
828 0.9106211119471095 0.861900289042
829 0.3709787377221273 0.08486902989060507
830 0.8341406643913047 0.4349764252597761
831 0.6255575987225904 0.40916473754643323
832 0.20584004458469185 0.022998425344201268
833 0.8347891894253076 0.4071138260795556
834 0.3319870784194906 0.7394704857832047
835 0.396114316315504 0.34941040828294656
836 0.9185260407487508 0.11815142476863993
837 0.9947087254755949 0.380635275818465
838 0.7706392929555448 0.3165705996912277
839 0.4714289506457844 0.3096759776908239
840 0.491223623525578 0.025210739998596354
841 0.7990273802459719 0.4715093724555405
842 0.5044547092056134 0.8273058127679295
843 0.7549618270694309 0.4416668022454082
844 0.9547038785832438 0.7524168250448976
845 0.9856755710216956 0.26899045668303656
846 0.7137256762187938 0.05674838295213658
847 0.23152817053580366 0.8118128987559343
848 0.6105059338816209 0.3195552278335786
849 0.3520360091517263 0.10548174595370274
850 0.725587048232577 0.033879154457206795
851 0.9003645666904438 0.3769961759343332
852 0.41091151796971737 0.6507062672326217
853 0.5200876842627316 0.4687064553653131
854 0.5671116954496122 0.19039869043490598
855 0.5400686278728776 0.9392098074308174
856 0.6857723830505167 0.9171847806267993
857 0.9757449455979931 0.9498815092954889
858 0.06315907001823495 0.9045038239576706
859 0.03012596804871215 0.041529791888031964
860 0.26720458348704 0.7561473958926477
861 0.7907220059658642 0.9005824050740161
862 0.7289539198779853 0.6917391733491258
863 0.17474877666105193 0.7284663748576065
864 0.6358749778010747 0.3669987374132062
865 0.6124662103359714 0.3525507876006633
866 0.6494501622436727 0.5262915037861975
867 0.3654716459558721 0.5577586883571041
868 0.6274006921753192 0.5771187841379994
869 0.3884719123662682 0.3066463178130744
870 0.36440798236827665 0.5717018776978293
871 0.9382763824154765 0.9857363237345794
872 0.5824830357234292 0.9699191020925163
873 0.5185091132433199 0.2677569770027409
874 0.4057898336508976 0.23313300135390447
875 0.24230813400787776 0.6770514422324646
876 0.37324495932152646 0.7716226049009509
877 0.7419039442647882 0.8747426440982918
878 0.9029654381075366 0.7629132765343535
879 0.3373723264537529 0.3128585033457493
880 0.5260482826249526 0.3188372858849011
881 0.31066301679146546 0.23107704049478306
882 0.947247951975795 0.12266592933780207
883 0.8690932416348393 0.21364565332146468
884 0.16536582995721938 0.04969322554399036
885 0.11509534289336798 0.2562551529983844
886 0.4095853147024747 0.4628669036168216
887 0.19908668672369667 0.4129337927399175
888 0.4694925624506989 0.6792055904177743
889 0.7415618475954834 0.7075459131860159
890 0.8518315177321396 0.7367168148937748
891 0.07604162764082811 0.7055749076365013
892 0.5600366199189514 0.7722610143798063
893 0.8134808592269369 0.15789035183962485
894 0.077504147058445 0.028427705264293612
895 0.8460224308643916 0.4451873106601779
896 0.8769577817229449 0.9311634022670838
897 0.14254894920029648 0.3756673491570395
898 0.6686220266938258 0.35330073541823537
899 0.8732909924969386 0.9960662216014158
900 0.5996895617610463 0.31582086546558985
901 0.2780226443919587 0.6000887570946946
902 0.2003287351248697 0.4197543743498403
903 0.40473866489470167 0.5736937937546732
904 0.7673413147429713 0.6704466686182807
905 0.9151302494840564 0.4538554732452261
906 0.976274192610673 0.44024520110444976
907 0.47784008615571893 0.350433760424942
908 0.6059003462721098 0.5282658327765355
909 0.24896381698976244 0.1821512320776284
910 0.4780346717097884 0.5690587306893835
911 0.12343223562021544 0.3545004215629055
912 0.17190692918111894 0.5742957787848393
913 0.788294451427412 0.6925006968593784
914 0.9215757697024533 0.9118583500249698
915 0.8876744086001502 0.34286789938500584
916 0.8374641395021523 0.622231245998925
917 0.015633614089119785 0.6296397753074867
918 0.5620609681494514 0.23644123178644627
919 0.7441398678710782 0.07581190058130327
920 0.2878223916212762 0.8534395201612195
921 0.8797211895508952 0.782957840435551
922 0.4434629515790791 0.29326178539197967
923 0.5003326875670614 0.9109963744487898
924 0.20397386960469988 0.4412696397046332
925 0.6831290815564759 0.8298460279348644
926 0.409061522904532 0.19371460763924564
927 0.39493677350775436 0.9237291239401265
928 0.673248428219878 0.6247011850250456
929 0.31176369659182535 0.4562406512127849
930 0.9280535470495987 0.7258279989445824
931 0.5428607179159805 0.3115909442045225
932 0.021238449143095806 0.2746937049089695
933 0.855597504623797 0.8898983309530379
934 0.1323444098633202 0.7778643320119022
935 0.095453458694151 0.5860690606687462
936 0.9645979219470288 0.011488315185939735
937 0.952951572295864 0.9339913888557118
938 0.3131568350395385 0.6784487615911294
939 0.0974710961725036 0.20336295404287907
940 0.7050254598960173 0.2092219091806231
941 0.3520022390562314 0.72450368148503
942 0.3124692231513926 0.5318633330008646
943 0.3231406498001228 0.3282759260248297
944 0.503363724813866 0.928465780821511
945 0.6845548217182984 0.045008030856525494
946 0.2880893409909685 0.6622012349503852
947 0.8629925927368504 0.1308567116122934
948 0.7419096920388749 0.3604628193424344
949 0.24379635051683135 0.7184835665934709
950 0.40261434323488643 0.8753490915749712
951 0.7789769975537493 0.8357535391500576
952 0.9850962516288593 0.36458296606031493
953 0.1412064652216649 0.9588328983123563
954 0.966533091334259 0.4203836775603088
955 0.7808737695092828 0.8545148452775231
956 0.033153347554634505 0.1829383651769333
957 0.7259376493592814 0.0022663422446201897
958 0.31632868721973273 0.7063043897495958
959 0.31908989074415106 0.33750826817519086
960 0.4349795715300535 0.5968233744271562
961 0.9578984619923492 0.2537692706704776
962 0.7171956427446163 0.8892608838192831
963 0.6116869523615215 0.6064351647664503
964 0.046775261991629735 0.7910821188082496
965 0.8386633603831453 0.19962771277253177
966 0.30973644934897104 0.3465940269332892
967 0.7715111889126731 0.26201318974400734
968 0.2856296932735055 0.34344177882718174
969 0.07308830344667516 0.3701924063529257
970 0.5277896297932853 0.10282656454569616
971 0.838914959569294 0.4619242093889745
972 0.5141549971005535 0.4254824673524862
973 0.9031838038862467 0.2536683432897292
974 0.6709682311413037 0.35091528116714854
975 0.6960328093884691 0.17447797648521102
976 0.4219702525043785 0.7230324429378349
977 0.8121078687579746 0.3645117658184984
978 0.19902637721398497 0.05196632031244475
979 0.16217959298086138 0.9281836973280044
980 0.751496361985422 0.18719185035789498
981 0.8317781269685651 0.08314022547924005
982 0.675176503147018 0.5596268473007138
983 0.9592215693630816 0.7418930787905129
984 0.467473186491708 0.29316602251515056
985 0.820468786068591 0.45576097115044434
986 0.5111880231107366 0.8324595085167766
987 0.20478914101371115 0.8161075649061686
988 0.7380675545785913 0.0385590535484982
989 0.11338403935383645 0.719568431855036
990 0.3923016685308913 0.04710603119606793
991 0.712703177936116 0.6383106092974811
992 0.40946673538489353 0.08318124302823937
993 0.28483168486095456 0.5663496245203871
994 0.7359464667425273 0.4915009402090621
995 0.3620213133855804 0.5366400377854691
996 0.9878293240373788 0.30766751384140023
997 0.8099184047744664 0.20376001498942686
998 0.7531213258527425 0.7908030767107591
999 0.8550966445587846 0.9399148081254877
1000 0.9606188428465393 0.7729981457323015
1001 0.8674248644794043 0.936198607524425
1002 0.8799839596011847 0.9426881274329675
1003 0.8555356126140193 0.7129410896084334
1004 0.20316123071984293 0.8900145198617347
1005 0.48160492840538216 0.4031411707584165
1006 0.7481624809467232 0.7203869189451724
1007 0.5214858152286551 0.2327240865836745
1008 0.6926698345791198 0.6172523936439164
1009 0.8358876678355402 0.8213768378174308
1010 0.4184946612358874 0.24082343759573632
1011 0.3603977907350482 0.3546937237006673
1012 0.6826706816131161 0.7982672475132592
1013 0.6593879483854115 0.944405770961125
1014 0.43536125716500895 0.4417662074513473
1015 0.3754921797215719 0.31381861772126396
1016 0.31768740079771063 0.32186890217089015
1017 0.6069204877708244 0.5344781190778992
1018 0.48832301890188556 0.6373271158634494
1019 0.6366896523480281 0.8508610890618636
1020 0.013550441634857302 0.32641760952195553
1021 0.8743672382695149 0.2896802244183049
1022 0.6708788634496277 0.6929117538724325
1023 0.246882986337557 0.6657770584517403
1024 0.11009040698784889 0.40913163049550005
1025 0.037300880130454295 0.8723503471482448
1026 0.4733301882314762 0.6285531876368123
1027 0.43252370425735964 0.7766249994179428
1028 0.8934338781113247 0.769782893259786
1029 0.433901528108972 0.5116889166471529
1030 0.24494362079325682 0.9471681211589609
1031 0.10665436780899262 0.5395417239409747
1032 0.22855573488336944 0.746679409930815
1033 0.2815661738228141 0.9029121714571139
1034 0.6905195939170046 0.5579957322017299
1035 0.43556627789948055 0.8313620868751843
1036 0.5885826975157069 0.12733447859731395
1037 0.4993584525145487 0.1465705919427035
1038 0.5481609951534793 0.023789971540449706
1039 0.3478451604910463 0.36259887543931624
1040 0.5344414626027572 0.9159280119085546
1041 0.39939766854740466 0.9264754505215779
1042 0.8966273756565191 0.14014512440855076
1043 0.03329959236097291 0.042691521073977445
1044 0.41885880080906457 0.9579399673695789
1045 0.6406274801741481 0.8992898298601323
1046 0.043155962486530086 0.2618119623320443
1047 0.6940254231474638 0.29461652504951186
1048 0.8708319670860855 0.9560198851908782
1049 0.21456015323715294 0.2527930678923457
1050 0.19858091723170657 0.5299857815935032
1051 0.07700934591222341 0.45690249520681603
1052 0.32696517187247853 0.9080077616099498
1053 0.05162581662301802 0.4200411065004447
1054 0.901472816700469 0.883191282156279
1055 0.7414202709948049 0.5941178504740368
1056 0.8508357747698696 0.3607529082109956
1057 0.36915198801946314 0.3999177022799295
1058 0.3218100578287998 0.470169077315703
1059 0.5952260804086066 0.052425196803864815
1060 0.5537415656288968 0.13948270660114004
1061 0.160634881005995 0.36212680568800903
1062 0.7001659127598752 0.6260976146342836
1063 0.9424508595310459 0.18574736874709086
1064 0.6281038392742754 0.37698485023025075
1065 0.5335397445590084 0.01580963522462353
1066 0.7232818100178509 0.4740362394294715
1067 0.4129065770692022 0.1502637099482539
1068 0.43441533102197927 0.9720517455358744
1069 0.7317907634016223 0.7699506470697653
1070 0.555345147505333 0.07578523202951382
1071 0.16173412157115918 0.6637259879636888
1072 0.3746087154309601 0.6482784731881681
1073 0.15705153909654457 0.2347103824182204
1074 0.9339685054367269 0.525315736856244
1075 0.30348784472415624 0.18467190178040105
1076 0.7569579096071263 0.7146984395607157
1077 0.21991127684007872 0.0433722957638476
1078 0.8178540508698932 0.945702571612317
1079 0.11430217168779389 0.9010356822653299
1080 0.6625464862086493 0.10368334397058354
1081 0.987144412615185 0.048868148684825696
1082 0.07979209660440512 0.21163387419652202
1083 0.5626725694696467 0.6549777358058498
1084 0.6979123179307329 0.6030207784062147
1085 0.9096653114040011 0.210480209587521
1086 0.7152545296260086 0.2730066262942753
1087 0.419185125989453 0.569344371213278
1088 0.48556476919260816 0.1516758385035487
1089 0.2508268457863576 0.14185580728539737
1090 0.7624593400325722 0.14517121096745234
1091 0.28045361321070605 0.7836440921390566
1092 0.8115111716926213 0.45812877235372984
1093 0.4262244221706516 0.5844904500173825
1094 0.6231062540335431 0.5808482355519172
1095 0.1686219166802515 0.3189765479379887
1096 0.6547240012927455 0.1450126181652014
1097 0.12413452897002286 0.7760971877060722
1098 0.4692654488677108 0.9299118257256301
1099 0.8338827018031202 0.8845753444331501
1100 0.058064100623262616 0.8565963773438728
1101 0.5506067669337883 0.19605528920258652
1102 0.5012215831991763 0.678764504508774
1103 0.8764962663800617 0.07389428040935986
1104 0.7464448193755929 0.30032620506877805
1105 0.8067472634844988 0.6746344841360398
1106 0.5724771750561259 0.2935654875408734
1107 0.6672225582819235 0.6174942173100223
1108 0.7287708067977178 0.47727071262271115
1109 0.0008933780769785349 0.9540324977649562
1110 0.6999351960827934 0.24379939125472327
1111 0.6801775386093178 0.8216771613127775
1112 0.3239775406014864 0.021794699306464382
1113 0.7256485844587501 0.8638588652072414
1114 0.08651197017778789 0.44160946148633207
1115 0.10398793200476841 0.20453601967172297
1116 0.34511130746039187 0.2916586664672395
1117 0.37249532986544 0.915101165890656
1118 0.43521373401597807 0.774576021910743
1119 0.6296385687443536 0.896186844369564
1120 0.13875194189861473 0.5839344017498017
1121 0.11684752524337616 0.7446537982682924
1122 0.3036367414172535 0.6077157477275562
1123 0.9447753972795698 0.8788481161540492
1124 0.6233703224333215 0.8900306449569857
1125 0.2600382237182798 0.5680922405749969
1126 0.8945543400461534 0.43620334776578185
1127 0.08606802641260658 0.07063185574198827
1128 0.1249215932961677 0.2899467232166585
1129 0.6141362843986693 0.6378197272997782
1130 0.2973927043570821 0.4334888271913
1131 0.5389064466994041 0.7087558619451108
1132 0.5792814024004506 0.34001938159120393
1133 0.9606077667900056 0.24144323615296615
1134 0.6199171133332068 0.8715693268702551
1135 0.44543820945391965 0.6187345365464602
1136 0.7458081602159704 0.0029146704251051814
1137 0.2548844783885237 0.9673667896984982
1138 0.8886456059035664 0.439045425445036
1139 0.47612046776102923 0.7928459354810581
1140 0.720346440011977 0.4409494438621354
1141 0.10265643333440666 0.8168027298304434
1142 0.6489053884483584 0.824426298531834
1143 0.20245638923133913 0.5592099359000334
1144 0.26545141172067177 0.5320164452704402
1145 0.6857990673363289 0.14479083883778598
1146 0.08906781453923251 0.09268426689383291
1147 0.9945375451970034 0.7309331089040892
1148 0.8229390519042474 0.17458426655004433
1149 0.42447634844691895 0.9481237182170584
1150 0.2699670123789405 0.1694380890274022
1151 0.30492214551779273 0.16885370090589524
1152 0.42638474471739063 0.4332321718910772
1153 0.648229740915312 0.24636549349334025
1154 0.3509277856074853 0.1917618765916025
1155 0.7704320971043631 0.647438728272784
1156 0.6523809070792959 0.44661977251479756
1157 0.9341448453281178 0.10193162104455578
1158 0.905952930963875 0.6777907091067494
1159 0.7709953792038489 0.4893189646000603
1160 0.3796346572570075 0.27152802038697044
1161 0.8902193910287411 0.9929641780819961
1162 0.4120485843044599 0.7992767949358871
1163 0.90068472356554 0.7396351326458629
1164 0.05026442146968446 0.6796021883706115
1165 0.8365596358511126 0.132362855601451
1166 0.8119446256995543 0.9951214128084458
1167 0.8902740839521573 0.20521010786413385
1168 0.695563405366677 0.6577804302617605
1169 0.985405548128571 0.036962538536444045
1170 0.7559966818539202 0.5231197851437221
1171 3.608516284459018e-05 0.5157017023227924
1172 0.23529744537235475 0.7418659084920748
1173 0.2941225392306688 0.14371378637562393
1174 0.5155716609527055 0.1622550749946603
1175 0.2218197784033391 0.8296209417174513
1176 0.7389360779117917 0.5841590397734014
1177 0.005096669011645738 0.050739196474340664
1178 0.9168508118209395 0.1272143187231105
1179 0.2015074851236126 0.6601329254083422
1180 0.08653395443080558 0.31470435667819774
1181 0.14368820445494845 0.8580161580530951
1182 0.6733767569853973 0.37499263285454554
1183 0.7691045971509602 0.9868195070893961
1184 0.14465748092258257 0.6069615518146582
1185 0.05486069806088234 0.4230707811201522
1186 0.042138555478225204 0.8010675415078625
1187 0.25315918977978435 0.830320156959193
1188 0.1649441738007983 0.9274730087335838
1189 0.5023995872165438 0.30540669510707075
1190 0.3420037741988867 0.9147978184105539
1191 0.37721766969148096 0.40516111108098085
1192 0.7079292688089988 0.10661559629496387
1193 0.5100042324515617 0.05491188503578193
1194 0.8070312749193954 0.04692152887562395
1195 0.9225376236176565 0.6712248496546079
1196 0.47988187692746254 0.1607432247184748
1197 0.6952615604840529 0.08920951362247298
1198 0.057480709083986725 0.6879705228726034
1199 0.11407300543401078 0.43235574074054595
1200 0.26799657800023025 0.0036176910016715302
1201 0.25369026177290555 0.670384643119794
1202 0.11028262402760836 0.8960990939461853
1203 0.3272614416925904 0.2554223246907261
1204 0.5330340057842013 0.2785366640583635
1205 0.4923938613356136 0.5624774331345301
1206 0.7328504843566581 0.34518212326982656
1207 0.49770634432089 0.8070963826574304
1208 0.9188685828214066 0.6863968133686382
1209 0.04714084666388296 0.8095617418713523
1210 0.42330368661277895 0.18386155872064347
1211 0.10760373080324959 0.15207852095630525
1212 0.3748517283906898 0.6076363535961309
1213 0.26824249006321543 0.553721463672962
1214 0.4567054707487621 0.3760710410468553
1215 0.25710601622591955 0.003365180577562743
1216 0.27332423266315753 0.8020406368446688
1217 0.7960683814712065 0.363421319011517
1218 0.80471752512294 0.5222359255332388
1219 0.36673237926496205 0.3108688002745359
1220 0.5025306054102492 0.2566323342784791
1221 0.43536363796966615 0.42255424311306866
1222 0.3177175100363504 0.5735480110917208
1223 0.39679633723340213 0.7853371944731702
1224 0.884791989730874 0.9716187805592632
1225 0.18199902472970153 0.307108348838388
1226 0.9649959730651562 0.29679682724165113
1227 0.4050153853551438 0.5206268102190897
1228 0.21435991832379464 0.26847220003346306
1229 0.06626519388076269 0.4400936013917369
1230 0.46379151669608776 0.2867326367770423
1231 0.7288797138476568 0.43679632693590886
1232 0.23145618048899963 0.8494633995334866
1233 0.681037849421299 0.36569377848702755
1234 0.49565986078207147 0.6559517177471723
1235 0.04165975937848765 0.4380384351211005
1236 0.3114590688881248 0.39174818805715317
1237 0.34099758748894815 0.5914105828553907
1238 0.1680852008363748 0.8051744807662575
1239 0.15200763146187413 0.9307402903883575
1240 0.372852302127588 0.5035569513488656
1241 0.40848991894805164 0.10917496044071462
1242 0.3340424948549876 0.9558407957754265
1243 0.5200546401696138 0.6414461166361564
1244 0.6209743963035703 0.5999911863407292
1245 0.8807737890931245 0.44684370125290396
1246 0.04293336456843577 0.24924517266224322
1247 0.6457132437344778 0.5807545634312644
1248 0.8719825070528278 0.9368549485481927
1249 0.0225489705500711 0.08988618161087836
1250 0.07711174241899765 0.778751484057399
1251 0.5768177733836952 0.687889325522759
1252 0.9524984781447414 0.12975086181355755
1253 0.3947249335535903 0.8774143852105688
1254 0.04907623128222505 0.24923165053566698
1255 0.9046290116054074 0.2661142160558867
1256 0.9080836057183916 0.24153907432210886
1257 0.16470679337309035 0.5158623234950984
1258 0.9155089457603598 0.8804354796026869
1259 0.33484158100543693 0.883399775839233
1260 0.09819043318947063 0.8250633700677162
1261 0.8138522916405558 0.6294864532879696
1262 0.49700368496807135 0.8068738426909542
1263 0.4189096232764623 0.6547068122297105
1264 0.07775394002001856 0.19467378408999736
1265 0.8293200820197012 0.6789469990396345
1266 0.06009245198237223 0.5457834749015491
1267 0.19787361021872774 0.271642457952886
1268 0.44224894806427784 0.8446871911347472
1269 0.5287398034163511 0.6138077892255608
1270 0.7637127564528421 0.762004611298033
1271 0.8712920681225724 0.31255510742003967
1272 0.4798473096544674 0.23381605323131516
1273 0.8847459719364226 0.43077414152684723
1274 0.4533821741435713 0.18995634008619589
1275 0.42645146259356104 0.3492257521307085
1276 0.9226198312811964 0.24606034830775125
1277 0.327254408826114 0.3704306357657151
1278 0.4404948160488924 0.7291906198237932
1279 0.7107205890490511 0.3440118300528092
1280 0.6053427549744665 0.13150072104827504
1281 0.7993361347921003 0.1692123747057973
1282 0.6216077670959127 0.9535511235842572
1283 0.1629183672640595 0.43117848834998906
1284 0.7328632620496084 0.8181498011234133
1285 0.6244114510622328 0.2962906698103023
1286 0.5348092379230275 0.24297593595356137
1287 0.8162000175352823 0.7448761081267962
1288 0.9077585196457906 0.584550650659433
1289 0.6159906061041854 0.7413159050244427
1290 0.5045137866980024 0.39882993424795965
1291 0.08384637962509967 0.9628333399310931
1292 0.19247508538869973 0.7866052276668618
1293 0.17303352999935484 0.1341351956293233
1294 0.5837043754501166 0.47142825202769545
1295 0.7454407764575148 0.047879441882764384
1296 0.5471030110183932 0.7685247217397261
1297 0.8610078181604911 0.519799741158721
1298 0.3533519756111123 0.2306730832781172
1299 0.9792987586388086 0.7798713565024115
1300 0.8342433717429071 0.15450859131012418
1301 0.2750686309190322 0.28479518115401825
1302 0.13238078979030077 0.7905743441481691
1303 0.4881726355819449 0.5140069522322057
1304 0.28750806283626007 0.6583992546560112
1305 0.4247564729075398 0.5218804367214905
1306 0.6483698840675833 0.43386870161658864
1307 0.9789718203582952 0.7594631011279307
1308 0.10909323415180316 0.13915487880929034
1309 0.6593174849088034 0.8675896559879548
1310 0.16736981941955464 0.16832498230812254
1311 0.713469931777072 0.3584235385072311
1312 0.6325379351262476 0.4106066611998498
1313 0.5270691655743914 0.8362890919811552
1314 0.7048294931120547 0.22084640996211802
1315 0.7741116525882679 0.8704090945191504
1316 0.33341965335058665 0.25975214312356454
1317 0.4239397769719273 0.08124919608483072
1318 0.2117124514138078 0.40944280527035715
1319 0.20721165945795528 0.6308640159488558
1320 0.8624015293714444 0.1552369798577935
1321 0.8281828330080511 0.9769317204253706
1322 0.20666617732842607 0.0890544006294044
1323 0.22953418115512614 0.5074064971414629
1324 0.7246002472932841 0.44492528451436053
1325 0.14587910832576856 0.49742449174600845
1326 0.016268765160647125 0.18423921911881924
1327 0.9929344688353686 0.9290275175968192
1328 0.68081230894393 0.7894739820434797
1329 0.251253067238872 0.5272077147819472
1330 0.5056356581183911 0.5300668426500019
1331 0.9088393583720589 0.5188319672445018
1332 0.7723380342232221 0.44081421462075965
1333 0.28673360610742027 0.3333160199239963
1334 0.5288980452476455 2.9405925355718843e-05
1335 0.37025012877625485 0.8703455689010796
1336 0.03132367138670322 0.4162557078478424
1337 0.8572297261804427 0.9904964436690293
1338 0.7717328912710056 0.7626511937739173
1339 0.47931081754613347 0.27668232322010844
1340 0.28935548681018053 0.47163516524969384
1341 0.7338371250526977 0.7680422362424534
1342 0.8714188925531382 0.8393679713625729
1343 0.22280703402360247 0.43958026784123994
1344 0.8146749127866952 0.8913166571187529
1345 0.09564322835020256 0.7498881144515931
1346 0.6054888235655991 0.10563276454547099
1347 0.4937584629517279 0.0413273534141857
1348 0.9906844092488949 0.42370307096457116
1349 0.1339801224176035 0.8661911308455686
1350 0.7755378280382953 0.47982374526340055
1351 0.07615872340227225 0.7877631109220443
1352 0.4393528633792514 0.455277934640268
1353 0.12817712213632504 0.6351553239058622
1354 0.4643688401543825 0.9872006127604525
1355 0.6140329864480221 0.04966201509727308
1356 0.24121547751509576 0.04660957649277153
1357 0.04229784161990324 0.34631229875460934
1358 0.9784071016960849 0.4874934624785191
1359 0.021636901509990092 0.7357021158119422
1360 0.9120266450136705 0.22151599987485038
1361 0.714746479841947 0.74078696043763
1362 0.5109410228770462 0.38609103036982684
1363 0.20102011947224585 0.2700619464962438
1364 0.8716255693290316 0.8260905936776411
1365 0.10948115559618588 0.457136994332759
1366 0.4079165999938096 0.6570556184010535
1367 0.7310581996476958 0.5928640377085909
1368 0.034035848856587725 0.5242868813838993
1369 0.720473067345596 0.822045474063801
1370 0.5540935899957836 0.3107822578206102
1371 0.7211829277556572 0.809251131940596
1372 0.5008238958314158 0.39100310436443486
1373 0.7632898389754095 0.3079610242991361
1374 0.38956753125005317 0.4137369513501349
1375 0.5106271498961585 0.4876254657832183
1376 0.1911273280864796 0.04286343040025309
1377 0.6842357661458129 0.8293336680633728
1378 0.00728335300606564 0.5980914775862611
1379 0.07983622474433605 0.692050574527724
1380 0.19179428557695188 0.6449286140000635
1381 0.7478290812728908 0.9573887287183654
1382 0.2373433021730338 0.822784053011397
1383 0.4487839790125884 0.5094294827742231
1384 0.07426565454769496 0.08331189486933821
1385 0.08888902129870402 0.6827306776547525
1386 0.09243545068025572 0.9525382658089259
1387 0.8145021911930098 0.9768781076160019
1388 0.27296650192384664 0.6476310687770728
1389 0.5084799787000519 0.21421776699718187
1390 0.7831502648633474 0.08675498404107462
1391 0.39333831944335373 0.11843053756366662
1392 0.5836844516151398 0.9774741589828767
1393 0.2924540621846943 0.23842695296796368
1394 0.2987944315013492 0.045434944263361254
1395 0.609244012404636 0.931185512117722
1396 0.3121100120751583 0.9266593581974203
1397 0.7055183375456071 0.2011570189496027
1398 0.984089047516667 0.9357673327646946
1399 0.3501510225877926 0.8830846581280879
1400 0.5937701013866085 0.3019213602251921
1401 0.7739459670000944 0.4283554451140601
1402 0.5505725856092353 0.9671835495238836
1403 0.3860075305423042 0.07571338276134676
1404 0.4068509302319563 0.6076596474024881
1405 0.07769810004208455 0.8708332430462432
1406 0.8806717261857524 0.29078964663197626
1407 0.24563610647349488 0.03424318833867024
1408 0.6865012441530295 0.2825718673880646
1409 0.5912344863327416 0.938727015942526
1410 0.9285363154196441 0.5631846058111428
1411 0.36589697789511333 0.05508911633704294
1412 0.47636984009005734 0.42494014841120376
1413 0.033465162365083234 0.7175540875610247
1414 0.7843272174803129 0.22458304474942914
1415 0.8339698457949368 0.940326226967592
1416 0.12057481221756416 0.86380439326186
1417 0.430017266718165 0.229822668177195
1418 0.408051699660259 0.5043982875239542
1419 0.03885020222415969 0.17924927601941
1420 0.9243413805265512 0.49382504485541723
1421 0.9015192120314252 0.28937420239304656
1422 0.5579414153266119 0.6805296999675758
1423 0.8438728237361419 0.2787824180084191
1424 0.7324839295228859 0.208406073077956
1425 0.45812563540024454 0.9702934074906118
1426 0.7765962414364876 0.027025930570927614
1427 0.8101712121936563 0.717289853512515
1428 0.8286086495346661 0.30661875054636867
1429 0.8404977802023293 0.5971884871044996
1430 0.509534478035691 0.47141765990230733
1431 0.10385250975526372 0.4677915934676927
1432 0.5553799339806655 0.5839510036506292
1433 0.8711167973717723 0.1875233725773804
1434 0.7040017644614265 0.28127863729439295
1435 0.6725450394296272 0.8529601443428295
1436 0.37106436167522705 0.3647677742321723
1437 0.731902005184391 0.48662284728071137
1438 0.37715901176495414 0.7509712528845387
1439 0.05802864442354527 0.6408321310041974
1440 0.8137064820225354 0.8376335256964017
1441 0.4977811440219998 0.5091041620392553
1442 0.04334503915186638 0.9885116084073065
1443 0.36739728664599836 0.8065111206848261
1444 0.8956422731311754 0.05096245223906937
1445 0.7181087647610183 0.6666499883560809
1446 0.5081797622467489 0.5071482126573006
1447 0.7647766517309852 0.3938855599189368
1448 0.8883792347568971 0.6001607242662668
1449 0.7062569332894476 0.9416186617198594
1450 0.4154650351982849 0.40567010001989834
1451 0.037965493008937146 0.1317088045496818
1452 0.6241018544307155 0.42981864226420285
1453 0.05955166181062066 0.3654971757883324
1454 0.8885056014478623 0.14871188988408135
1455 0.0312136926865072 0.6855711668296942
1456 0.237397282874536 0.2862250382076178
1457 0.8877634865298881 0.3890159983499193
1458 0.27847189603482303 0.7726018431864993
1459 0.9303698008086796 0.5754648117782895
1460 0.020623270907140223 0.6834420678064451
1461 0.11760341866747537 0.8303206456501037
1462 0.7429789429890361 0.06323921018344869
1463 0.8644498409096867 0.6918961096000875
1464 0.5736444321644826 0.7174390433224344
1465 0.6545500775826981 0.9017106755600218
1466 0.14445944562736557 0.015254836972200536
1467 0.019191252380216572 0.6088167278204628
1468 0.7006708802040995 0.0005433781329190479
1469 0.7969300704975236 0.4495419367525756
1470 0.7842727640125424 0.7400545263366094
1471 0.2318839751558468 0.17397247105858893
1472 0.21405628055216241 0.5801757520302953
1473 0.8038530882998159 0.18523734064280517
1474 0.11607317670492057 0.802470281808759
1475 0.06328129328523313 0.0012977509925580222
1476 0.6867656302310446 0.5900058874826948
1477 0.6346769035598216 0.5414008671096482
1478 0.5975569104046359 0.24831613542513398
1479 0.7952628281952564 0.310747168687019
1480 0.25181588103111274 0.3276830187311315
1481 0.6877559926088506 0.12300356107590349
1482 0.8490187198824649 0.14450985342604472
1483 0.3498687029603834 0.4426112055755196
1484 0.8030966967806005 0.5521771270147141
1485 0.7558392232591495 0.9119461496255448
1486 0.48389281307488674 0.5606918409573697
1487 0.48780416755829403 0.8626704862422895
1488 0.318161276808439 0.479001176257029
1489 0.692776914027551 0.022424812093031377
1490 0.9382832366100017 0.9772894353222519
1491 0.3970989719239518 0.6943006058742355
1492 0.6369527626776348 0.8162532192854072
1493 0.9504027129522257 0.19676062211479495
1494 0.16606175797674116 0.8029651173031842
1495 0.01834222394832863 0.7165419280124253
1496 0.3809081342984457 0.10437569201973262
1497 0.9999496959762846 0.9752378977473704
1498 0.4229260061097958 0.7230699444626252
1499 0.2173652270689479 0.5167290508443525
1500 0.043964485519182084 0.6641249394793269
1501 0.5070330343678923 0.825353871711117
1502 0.4532873050946272 0.3845718846419117
1503 0.4816711811730572 0.1407805076748534
1504 0.5261038786618125 0.8735139312899161
1505 0.8918733614930624 0.9291687796043722
1506 0.23349957055365567 0.9899968560400323
1507 0.9317833955700062 0.6399449982383348
1508 0.12288272749665075 0.4454349015547837
1509 0.5196379482483052 0.6375321180335713
1510 0.679575055789965 0.6530404504831316
1511 0.6500551625394091 0.1002685289355969
1512 0.38946693196519055 0.08237139880495192
1513 0.03406895661138887 0.4225448862981179
1514 0.2323229889842403 0.36279006202669073
1515 0.44260813707071944 0.7555106975010426
1516 0.09071301065372406 0.8092905718235441
1517 0.3649251420760873 0.43643052884015865
1518 0.30414989666850845 0.44077505552835683
1519 0.9111008952500805 0.5616159975166999
1520 0.12362324252993229 0.04707665246744164
1521 0.49171359296054096 0.6564579619248017
1522 0.6688454100076217 0.6047595569774169
1523 0.5454826547836363 0.4907599950600946
1524 0.8088333074520583 0.7154332510515119
1525 0.3426803383804301 0.8316130296910265
1526 0.6467227818416126 0.43080514519472457
1527 0.8315218174296761 0.5921187091968194
1528 0.4921168745094181 0.6480064011465906
1529 0.10931611002936337 0.9674575803425014
1530 0.6882386698940102 0.08873206942551792
1531 0.9410895182348766 0.47713773091729805
1532 0.885405946622959 0.6509690633206513
1533 0.7265925428981582 0.5007669817796063
1534 0.7441863353628966 0.8849925290775851
1535 0.8572776198787777 0.7217380396589129
1536 0.1749678213911 0.35266693235896684
1537 0.22186995833959944 0.9266096755776451
1538 0.08946064751092708 0.5530937241926095
1539 0.2764068267952181 0.7966752040452777
1540 0.2323872472760503 0.8117729719933701
1541 0.2067229049548318 0.4020102071823277
1542 0.7064872629316458 0.003916386787194415
1543 0.45138548163021186 0.9695993004526323
1544 0.19045987398816677 0.6197744257866686
1545 0.47281306068334183 0.8766523823273853
1546 0.7222960927801979 0.46643448447544844
1547 0.4167107319110145 0.3742967279689191
1548 0.10942771300751553 0.7743544445448531
1549 0.5274935467589248 0.006439225395439951
1550 0.3396366332710501 0.1528297451242615
1551 0.7523680117297206 0.22513618998171525
1552 0.04717595082708015 0.8813133227966401
1553 0.5759636912190322 0.6230950152949143
1554 0.05114233034833493 0.2789969170095481
1555 0.6158861577790437 0.4690977388566301
1556 0.9786981796379454 0.7737743672835918
1557 0.2957375709633667 0.4728267671080121
1558 0.6527414630277056 0.00015718440610601458
1559 0.24038055244342393 0.2798677374992866
1560 0.19866065336588534 0.5823441048955817
1561 0.14799471201879533 0.5800711341398106
1562 0.88310119607999 0.5058381090238306
1563 0.7986609149785808 0.31096755272638243
1564 0.9103770115469421 0.6387227559559882
1565 0.9321990738199287 0.017103566917197943
1566 0.4376478956440165 0.13228005043290092
1567 0.028528524153938584 0.03210361736166745
1568 0.4011757641109821 0.6642356892384828
1569 0.10856799551442176 0.008849093092096583
1570 0.5392609583845027 0.16967735545298623
1571 0.9664756685984042 0.6693071312193686
1572 0.5725857486363917 0.9529887600837269
1573 0.08899882637435463 0.5012509397837626
1574 0.10672427136111773 0.7560040331405075
1575 0.5557236953746905 0.19591537779180745
1576 0.40525720770534046 0.847179522452078
1577 0.6917274590631035 0.3064491596709148
1578 0.9078767261768645 0.741567179077095
1579 0.1648277476489307 0.6958401469687292
1580 0.38924223956265647 0.9897574279830791
1581 0.9437825501520546 0.18533040104738752
1582 0.8677467599432359 0.4861394752814282
1583 0.5401842077191167 0.6714232854815921
1584 0.8818496589701756 0.22486447437852708
1585 0.3984687420588935 0.33075051401831246
1586 0.5913310667428168 0.12714725149152473
1587 0.2949247653423376 0.25149525420320995
1588 0.7286931605098489 0.798510907776239
1589 0.9731035979603487 0.5049242471025421
1590 0.3362889408089974 0.9688102294787756
1591 0.8002287639300913 0.2564037296736219
1592 0.25588746470378265 0.9681989501961893
1593 0.6658059067664748 0.22698193155442814
1594 0.3497365362452335 0.0009304815009307799
1595 0.04529039903505949 0.7199910872857234
1596 0.40029738304280416 0.7892591997166228
1597 0.03583723200346933 0.7389549454919934
1598 0.504801106595813 0.8654397439211589
1599 0.3385995566680593 0.7603958764239895
1600 0.2780889151367033 0.12744350997687892
1601 0.5201665668440733 0.17974332513638536
1602 0.3949615339359822 0.9758010995598172
1603 0.5897595863796606 0.09351458608385788
1604 0.5701099663123019 0.42325667582535953
1605 0.24385865355162772 0.27735069497295883
1606 0.3622975169453567 0.256160918181517
1607 0.3364195724750073 0.5455519448469498
1608 0.8833708660805901 0.5958504643062381
1609 0.7507533800650031 0.9922393153051062
1610 0.7467720805849771 0.8185225829928522
1611 0.2967600954820222 0.97767977770291
1612 0.4326011278188169 0.9572818602552736
1613 0.15356648635128145 0.4935335765693658
1614 0.5049667667961267 0.11878181450296021
1615 0.26639153163774243 0.6576320027094026
1616 0.6015754354642475 0.06814582055162222
1617 0.8095683252233568 0.2315381233057935
1618 0.3479477064073644 0.5490846442231042
1619 0.162302869074056 0.24157518598476901
1620 0.6802110953486639 0.7549241568434211
1621 0.7721909784657058 0.5686914492331483
1622 0.2592013318982489 0.8965582558947484
1623 0.13285229018398603 0.69253441056091
1624 0.4555842202628607 0.4982290221093133
1625 0.5219513873843513 0.21422855363860938
1626 0.20736999982460758 0.7930993464574942
1627 0.5503215607912789 0.538669210325136
1628 0.27883865866116275 0.7390168795364574
1629 0.2411163366911243 0.39789937981780066
1630 0.9910361196236159 0.6151793646741625
1631 0.049094948323644694 0.7408148773570093
1632 0.48521274426321115 0.4387774385257318
1633 0.6051584182648857 0.6843944981626391
1634 0.39824304156669876 0.7013321029885664
1635 0.5125342808870367 0.17870450061962484
1636 0.19607947600029052 0.12905872139121055
1637 0.9583807840079391 0.4932870443188372
1638 0.856498637647023 0.868758550586425
1639 0.690886702420439 0.34191549955427136
1640 0.32662700075499407 0.833718141106925
1641 0.4017247016575618 0.36512902613631304
1642 0.3219314106067269 0.40301274575801105
1643 0.2507514684908764 0.22683836666647095
1644 0.9239767114946736 0.9754100706157257
1645 0.9099158060347715 0.6578188120680427
1646 0.7782904377375015 0.5811393238672176
1647 0.4816574818737588 0.6750873223029537
1648 0.5892710276573555 0.5317635748500884
1649 0.8607961206534368 0.46466489889723095
1650 0.8287823494427238 0.1431954438437082
1651 0.561908964296913 0.21360882727374297
1652 0.5765591554454498 0.7682480101565687
1653 0.6006007046288184 0.8305968429757064
1654 0.9425253474468526 0.2998729305679285
1655 0.06949895067734235 0.7080240776539358
1656 0.3027373652435885 0.9901536647422687
1657 0.6331343287143957 0.23360978474663452
1658 0.21403810417160674 0.5763951447687584
1659 0.8885521735699413 0.9614158505752063
1660 0.7031014273728833 0.08812722394337524
1661 0.47216993682980823 0.7814340101517333
1662 0.6887116123155599 0.9387785884705705
1663 0.3351796742339209 0.9003604757468123
1664 0.42574783072244515 0.14704233290736202
1665 0.1683474583857819 0.024711369413153883
1666 0.9235470355933085 0.619384389483696
1667 0.8229289820948462 0.7865330309220374
1668 0.6375386515364746 0.9685191588158557
1669 0.8778882445431847 0.18217668542049514
1670 0.8132838374109506 0.027583341754681023
1671 0.042677355397667704 0.10097102989450868
1672 0.7014576799219726 0.7446501585555828
1673 0.6157558143529082 0.47304137639463495
1674 0.7380791150954409 0.8648831556612583
1675 0.04238317121171509 0.7429478173003844
1676 0.8569298920515499 0.28719888351392986
1677 0.24785320767073604 0.054452958098489934
1678 0.20815962845622782 0.6681728662983618
1679 0.2270030569827326 0.4930737673525416
1680 0.9926645888387315 0.6472551829206756
1681 0.4816210272994118 0.31125117635858923
1682 0.18487637966299653 0.17448520386839428
1683 0.6058539444850952 0.3061902260632863
1684 0.7584954535681883 0.8140695833023807
1685 0.4983890984120888 0.18829198154000693
1686 0.3201800023789768 0.6766126867989511
1687 0.3129601943313737 0.2027024999603878
1688 0.06388556312416549 0.3509267552274139
1689 0.45763547451280395 0.61435827409566
1690 0.971384910687227 0.40904813657004335
1691 0.059729584864534946 0.6169876930535617
1692 0.4380352999537874 0.30624827003504274
1693 0.9222574039231166 0.04286522873786636
1694 0.7183935329714588 0.027808695562513308
1695 0.2463007070762797 0.16888458161734587
1696 0.02432173461959508 0.16055337233747347
1697 0.04830896793644601 0.31479011655523503
1698 0.16198606768199686 0.5010160985712822
1699 0.4635646051719833 0.5738871158397276
1700 0.280659907607697 0.9193077786209427
1701 0.9176097537900344 0.0829478751157019
1702 0.13403684546209238 0.8881981120847982
1703 0.3110029923353057 0.9206854466220294
1704 0.5094562371790102 0.6496566634471976
1705 0.7892483542592621 0.19654483438595394
1706 0.09448466349193096 0.2630529089604251
1707 0.7650695049819699 0.03578597065995459
1708 0.11895756694371584 0.21071229784608336
1709 0.982205424565542 0.6452152788999578
1710 0.6145605319647678 0.020562044605032304
1711 0.7403685408551596 0.7298957895297683
1712 0.23957743499453832 0.3476992862264885
1713 0.6179417133296234 0.2281518863350116
1714 0.05145069530043833 0.569368487087494
1715 0.9150806582685372 0.651864797473963
1716 0.14034696303852912 0.14180321537403062
1717 0.6957819118160582 0.20609779713863874
1718 0.28456960821925625 0.17721185432576814
1719 0.26360719418015877 0.6058395707580488
1720 0.08367338445639083 0.933146924960199
1721 0.21515735378291134 0.323953211282907
1722 0.8292680693844495 0.9794685818960019
1723 0.2616953683952786 0.7691687696552266
1724 0.40242748409335327 0.6342007976902134
1725 0.7035379327165959 0.8343940347923805
1726 0.6452666487140896 0.047754752700349234
1727 0.026731569673402067 0.9483858980792906
1728 0.4215247845733404 0.21118957997197274
1729 0.23534572299992673 0.593360355004394
1730 0.4411115470837641 0.2841351031837426
1731 0.3788467427866671 0.05023279662551139
1732 0.23766300781248872 0.30027608954190343
1733 0.3977230863525788 0.31487593857516505
1734 0.22025925195720109 0.6302798222966053
1735 0.9966012233683987 0.9963751784651855
1736 0.4343196388348275 0.15055128632977688
1737 0.6248646825955226 0.8996894059862531
1738 0.9982977661980201 0.33970953021932826
1739 0.4511329796799064 0.11604416829493569
1740 0.5930570772000102 0.27734035671535484
1741 0.30815342807315793 0.5841860884169835
1742 0.5264564118536836 0.8445563481786014
1743 0.6986606392060136 0.7114549025786235
1744 0.4338191970185554 0.8436910842862979
1745 0.9906152113047155 0.487926623648935
1746 0.11245694202505807 0.1606580171688009
1747 0.9245206490004128 0.6378458871308261
1748 0.10574236381446556 0.9024866155642295
1749 0.22252495312476295 0.6281479861170219
1750 0.7827265269775334 0.3330665644670271
1751 0.6965975118613397 0.26157680585627174
1752 0.9608640595187938 0.8988216993793313
1753 0.5697022850774786 0.8166982478738084
1754 0.9271687223307993 0.048439018471038375
1755 0.5617656656550464 0.4990615292843833
1756 0.351298379995016 0.35073777325973843
1757 0.5854589985321434 0.07950810265601627
1758 0.522062395555516 0.035880629542617726
1759 0.6746344901514367 0.5829358720730936
1760 0.2681728027577739 0.9349102541325879
1761 0.5738660168272454 0.033509882339603725
1762 0.3129456463839537 0.38421172247416224
1763 0.7782386464797124 0.6211740866868846
1764 0.5923964776973174 0.8938186497233623
1765 0.41385800612724544 0.14961303715108
1766 0.7088408875002579 0.029422228515171955
1767 0.5615127125095163 0.8863471463776502
1768 0.6981946800764443 0.08540582267544361
1769 0.1050158957895031 0.7067754197819477
1770 0.11564902404855248 0.8222775158432942
1771 0.9465370369445407 0.8516036520025652
1772 0.3539459892160345 0.4035524789446747
1773 0.2902153672232687 0.5824364972029806
1774 0.2674941596143121 0.12199925355636954
1775 0.07024699176157201 0.13939100689983053
1776 0.6971532837681182 0.843012192684587
1777 0.37720401700787665 0.10235851596817369
1778 0.23396779470586282 0.013756158542369112
1779 0.7785588761305796 0.9579935759337244
1780 0.476338287546769 0.42389544494699194
1781 0.32573425279478163 0.3954591744272712
1782 0.8291554365883326 0.04461300988646444
1783 0.7890301113826577 0.049496650210549054
1784 0.3489064761168431 0.24902640451323144
1785 0.6219284914945226 0.972040620195957
1786 0.058520740102993574 0.6001365788206316
1787 0.06719767070161531 0.24846694461747643
1788 0.03262277172490691 0.46460410520715334
1789 0.37694100055796753 0.4970054199381291
1790 0.5819144271222739 0.1480397027350745
1791 0.2583520917261599 0.4632006431023067
1792 0.87380155447652 0.7866899013864904
1793 0.9918751763882926 0.45720822877630096
1794 0.18302534979959972 0.9674092925115613
1795 0.5915118902050615 0.792912430871592
1796 0.7239238082263119 0.7631253638521686
1797 0.35165445725608435 0.4884705426694328
1798 0.9652854300065209 0.21167602688050668
1799 0.843824996389305 0.17423345850607197
1800 0.8087396888780342 0.7478905688736742
1801 0.6366884125433337 0.5694472890072129
1802 0.07744098166949742 0.5980765515276036
1803 0.393896426376777 0.27243978096259314
1804 0.5935320762967298 0.7595797000842426
1805 0.5529987438137677 0.21061710616410467
1806 0.22349383197259243 0.12411665825839924
1807 0.8831237502066143 0.20365969066500977
1808 0.04763785886412919 0.24373298670454546
1809 0.5901280640118036 0.2526080647798201
1810 0.7111545511526073 0.5137602165192233
1811 0.7741601800042713 0.9021570091313686
1812 0.8228682483674382 0.01728977172195223
1813 0.45727563919304115 0.686021424034169
1814 0.9948014551043943 0.0002982807224453099
1815 0.5978038641161121 0.0572900718490037
1816 0.7193633673012331 0.2067342142807791
1817 0.9731487093813366 0.23992125993252367
1818 0.46283412398421275 0.2186869354353348
1819 0.3729987488450419 0.9278116726923628
1820 0.8775094424045733 0.013945901254619253
1821 0.2460958607825272 0.8157486877302861
1822 0.5484338180661088 0.7481630126854967
1823 0.8626749749128658 0.6304040187768013
1824 0.23496589227561626 0.31997126584897784
1825 0.4907817464493093 0.8869007298386138
1826 0.42842899256878497 0.9474397885455504
1827 0.293244507091481 0.17015651110125019
1828 0.510775573288427 0.44569344147607004
1829 0.38114036908182836 0.24958507549584752
1830 0.26551039502544915 0.5444302955313169
1831 0.2898319466183378 0.15362324903187885
1832 0.7838746116289003 0.7108774841821838
1833 0.30869751129786804 0.6074667710168219
1834 0.7398858199251053 0.15240407856885618
1835 0.15480149247591568 0.9868412934787213
1836 0.9293982472203555 0.04683036243000571
1837 0.22544951089075627 0.41075610714223243
1838 0.31571286141445565 0.919951546117801
1839 0.6706747588360864 0.07887409003254942
1840 0.9333560172826758 0.6358572039500299
1841 0.296370019081318 0.8997396105917645
1842 0.3018597337664135 0.8276156626218155
1843 0.03668572650489643 0.18489276521417963
1844 0.14503221268888122 0.33142890701577177
1845 0.48386301660378284 0.7239014535482535
1846 0.5552145253949055 0.25874653521537927
1847 0.11514386528836063 0.5161572801330367
1848 0.6803901710182749 0.3681182205897816
1849 0.4164897329128091 0.546912481597104
1850 0.09682552042431869 0.6651797471624993
1851 0.27174194401641294 0.8552714464882026
1852 0.4765742274300815 0.2377468111332659
1853 0.939179147584139 0.36996144928641983
1854 0.925396995975576 0.7837402372107274
1855 0.7074689060623601 0.8029602449090391
1856 0.4637688479808768 0.45595408032278606
1857 0.7724969731772493 0.5727443196342606
1858 0.5834981162138508 0.9211799274707512
1859 0.795237584268995 0.24082793802208002
1860 0.1114756157200707 0.6728053690831083
1861 0.9705774870227682 0.18282671371354575
1862 0.44253498273638514 0.704237023419
1863 0.05797801299124694 0.671794196279054
1864 0.3643856468882186 0.9051285440792746
1865 0.35479174941882186 0.34189081177974245
1866 0.7610524961389726 0.5670936475433688
1867 0.11545236454975927 0.39139380520609324
1868 0.0070679361998811085 0.04503815033080649
1869 0.0976756730244801 0.07502789868227477
1870 0.05752584733176325 0.7162790042588159
1871 0.336389671535018 0.4793164280521245
1872 0.323692490661432 0.21282006860132396
1873 0.3044670976426981 0.8525116267609034
1874 0.5717454754294652 0.11374300508558344
1875 0.9390763697526636 0.996478115789907
1876 0.7919900265408564 0.7566346897770866
1877 0.27851033997521213 0.9085590511676417
1878 0.671035408845293 0.4503724408407568
1879 0.24598756992771198 0.339076827440547
1880 0.44986788841313297 0.485367942365471
1881 0.047148690477612165 0.11850029209098778
1882 0.7212687967850904 0.23553687045490468
1883 0.535353462830815 0.1912466999998178
1884 0.30230394892690426 0.9276475518093427
1885 0.43119960289505066 0.009223675410542587
1886 0.26095682909117746 0.25761235900227764
1887 0.8143820637825794 0.6276395217606177
1888 0.1789990126378418 0.17245931594223252
1889 0.4556178747582168 0.6592486462737904
1890 0.7712965207887921 0.4560245946111705
1891 0.9142247771177093 0.2640993844945625
1892 0.7754216463026671 0.4783385647306089
1893 0.32452051253783964 0.5218205201672468
1894 0.714725830046308 0.8420864938434698
1895 0.984068450489811 0.9296689481606812
1896 0.7297205593156474 0.6244973720600793
1897 0.9624448426808048 0.5582307169740778
1898 0.48423106153881745 0.5658312453489391
1899 0.11653587710663815 0.03267303971171098
1900 0.6419018231442266 0.28098389226394516
1901 0.8376577344165125 0.8612594570406681
1902 0.7364774791877361 0.5531464271478657
1903 0.10347699181105341 0.7076784759910707
1904 0.2169297923073279 0.060036468225835526
1905 0.3288032499958321 0.19349982264755006
1906 0.12979691537050264 0.9764482514303766
1907 0.7364777861613194 0.15163142471130098
1908 0.7693497828002798 0.2889753873434534
1909 0.6007279184284612 0.2896780362149538
1910 0.16559674176707417 0.7058319422172054
1911 0.827514482513328 0.5774438258312884
1912 0.775379387151274 0.05363837432200247
1913 0.5940272065942764 0.807655374320652
1914 0.0004911336013250223 0.5437609015797102
1915 0.30750237689306215 0.42932797210673324
1916 0.7103957869080356 0.26824199592607934
1917 0.9793994466721033 0.6959392550031609
1918 0.6183256289351459 0.3809904042458486
1919 0.34461557506180385 0.45461422270229623
1920 0.16860656121045503 0.5809954335713906
1921 0.14710187914587147 0.4590474633588141
1922 0.9904607996541821 0.324877618374372
1923 0.10097650039612382 0.4836051955243452
1924 0.8835237833656902 0.688028244138647
1925 0.3054685431339068 0.925791119054648
1926 0.2401651714271854 0.007134226976245328
1927 0.9054580731077729 0.21823568395041404
1928 0.40631465170780656 0.5751912057728502
1929 0.6606040596564093 0.38203141939277385
1930 0.7077470028428056 0.030447014943206008
1931 0.4485491664526037 0.7043135322701887
1932 0.9092994516284205 0.47959683564958866
1933 0.15921428691100692 0.0401292862542274
1934 0.7905025747495023 0.9380968488104697
1935 0.4144743449808742 0.10864931234075137
1936 0.016666090021211777 0.9067086102803338
1937 0.64964439979881 0.7707580209702015
1938 0.4328877150927729 0.5882930956239055
1939 0.4344881397286965 0.02082570128222405
1940 0.750150967449056 0.17850653506971892
1941 0.5871042836769437 0.46773916747348476
1942 0.2739196178901149 0.46298659012581833
1943 0.15182061284072934 0.15470232632420067
1944 0.6240561076605203 0.45571626199650994
1945 0.6739963647173433 0.15862314841936553
1946 0.7971057393323874 0.173914715428094
1947 0.801472760124815 0.27676204280896266
1948 0.17662707888515405 0.7456362717110928
1949 0.5578239367511542 0.1431011848670073
1950 0.8127684898145575 0.5928323272889047
1951 0.6985304003962354 0.9948596056568764
1952 0.1741585018807622 0.2137866500544653
1953 0.11452881863048125 0.9936503677412591
1954 0.876902336015781 0.7944275251111961
1955 0.008006758843788209 0.775284377991006
1956 0.586633056955438 0.8559620362834921
1957 0.618472322167209 0.8381540747699967
1958 0.5069329724437818 0.2924502489304549
1959 0.8337082703736034 0.3362992653541441
1960 0.7199494522603964 0.14252898295508287
1961 0.5037051641813935 0.051055916957827074
1962 0.4226220957032437 0.3638070831351021
1963 0.2596261068265191 0.8924166357461691
1964 0.3109909000651706 0.8339713467914673
1965 0.9198731598122009 0.06512135242422046
1966 0.2770415145651559 0.541822102263696
1967 0.8771673596763208 0.9775989366962968
1968 0.9322418789446688 0.18064775448817916
1969 0.7067228289806075 0.3990796691319026
1970 0.10539775645143568 0.9302272721245657
1971 0.11721370125668251 0.6205498979167481
1972 0.18299430530470906 0.7237258207311773
1973 0.7825111630430313 0.011988450658808492
1974 0.2113537008947588 0.42411007599620976
1975 0.08719931868198882 0.8945094145365226
1976 0.04706552084990967 0.41767791453867176
1977 0.4228832634361259 0.828566416934303
1978 0.8741381135922209 0.5835606488374525
1979 0.5372969597158986 0.17390931591149494
1980 0.9617043726720388 0.2806341329459574
1981 0.06418575812623584 0.196365170271256
1982 0.8071014452545715 0.29088323617560174
1983 0.7131804153081338 0.8942211904382972
1984 0.423134293431665 0.9365669156791666
1985 0.7486714920665273 0.9866092034205867
1986 0.11862886670137895 0.8018864366079259
1987 0.041757362339929105 0.7171524370615942
1988 0.5213513301026188 0.6882454176448519
1989 0.6636268988734136 0.4642904693447043
1990 0.24890413975928904 0.5094316039638571
1991 0.4707904724058487 0.06115797657382327
1992 0.9030416232782545 0.6458851143237577
1993 0.31128982793008797 0.9401779217390163
1994 0.03655738792452512 0.7585084496032833
1995 0.2280604660295361 0.8127660891758582
1996 0.5963030662076879 0.7624380805671075
1997 0.49493352971029747 0.052050673815992266
1998 0.11297604291689767 0.23313287756142587
1999 0.8167374437260191 0.7249281187195118
2000 0.6371050447848665 0.1744751620667473
2001 0.4534716415453557 0.5504486136957893
DEMAND_SECTION
1 0
2 9
3 5
4 6
5 7
6 2
7 1
8 7
9 5
10 2
11 5
12 1
13 2
14 1
15 9
16 2
17 3
18 1
19 6
20 9
21 5
22 6
23 7
24 6
25 5
26 7
27 3
28 6
29 9
30 6
31 2
32 7
33 3
34 8
35 4
36 5
37 8
38 5
39 8
40 1
41 4
42 6
43 3
44 7
45 9
46 2
47 5
48 2
49 9
50 2
51 3
52 2
53 1
54 6
55 7
56 9
57 6
58 8
59 6
60 8
61 2
62 8
63 8
64 5
65 9
66 1
67 9
68 5
69 4
70 3
71 6
72 7
73 7
74 7
75 5
76 3
77 5
78 7
79 8
80 6
81 9
82 5
83 8
84 8
85 8
86 8
87 4
88 2
89 7
90 6
91 8
92 5
93 7
94 2
95 4
96 4
97 7
98 6
99 4
100 1
101 6
102 9
103 7
104 8
105 8
106 2
107 8
108 2
109 8
110 9
111 4
112 2
113 3
114 6
115 3
116 7
117 8
118 3
119 5
120 3
121 6
122 2
123 2
124 6
125 5
126 3
127 2
128 6
129 1
130 9
131 8
132 3
133 1
134 7
135 5
136 9
137 9
138 9
139 6
140 3
141 8
142 1
143 7
144 3
145 3
146 1
147 4
148 7
149 6
150 2
151 7
152 4
153 3
154 2
155 6
156 3
157 2
158 2
159 6
160 1
161 7
162 9
163 6
164 1
165 6
166 8
167 4
168 5
169 6
170 9
171 4
172 6
173 8
174 7
175 6
176 6
177 4
178 7
179 4
180 7
181 8
182 6
183 2
184 7
185 2
186 3
187 3
188 2
189 5
190 5
191 1
192 3
193 7
194 2
195 2
196 1
197 5
198 2
199 7
200 2
201 7
202 2
203 9
204 9
205 6
206 3
207 6
208 3
209 5
210 8
211 2
212 6
213 7
214 4
215 4
216 3
217 1
218 1
219 6
220 3
221 4
222 9
223 3
224 4
225 9
226 1
227 7
228 7
229 5
230 8
231 1
232 1
233 2
234 9
235 7
236 7
237 6
238 5
239 4
240 6
241 2
242 8
243 2
244 4
245 8
246 1
247 4
248 8
249 7
250 3
251 2
252 4
253 1
254 7
255 9
256 8
257 2
258 7
259 3
260 6
261 5
262 2
263 5
264 3
265 2
266 3
267 4
268 9
269 8
270 8
271 8
272 5
273 8
274 9
275 5
276 6
277 7
278 1
279 8
280 3
281 6
282 5
283 6
284 6
285 8
286 4
287 2
288 5
289 7
290 7
291 9
292 9
293 3
294 3
295 4
296 3
297 5
298 2
299 8
300 2
301 5
302 3
303 3
304 6
305 7
306 1
307 7
308 6
309 6
310 2
311 6
312 3
313 4
314 1
315 2
316 6
317 3
318 8
319 8
320 3
321 3
322 4
323 3
324 7
325 4
326 3
327 7
328 8
329 8
330 1
331 6
332 3
333 6
334 7
335 7
336 8
337 1
338 5
339 8
340 6
341 8
342 4
343 1
344 1
345 7
346 1
347 1
348 5
349 3
350 8
351 5
352 8
353 1
354 6
355 5
356 3
357 1
358 6
359 1
360 7
361 5
362 7
363 2
364 9
365 1
366 9
367 5
368 3
369 4
370 3
371 1
372 3
373 6
374 3
375 4
376 1
377 5
378 2
379 1
380 9
381 9
382 8
383 7
384 2
385 7
386 7
387 4
388 5
389 6
390 7
391 7
392 8
393 1
394 8
395 5
396 4
397 8
398 3
399 2
400 7
401 5
402 2
403 2
404 6
405 3
406 4
407 5
408 7
409 1
410 9
411 8
412 8
413 4
414 3
415 1
416 4
417 4
418 8
419 5
420 4
421 6
422 8
423 8
424 4
425 1
426 9
427 8
428 4
429 2
430 4
431 7
432 3
433 7
434 8
435 4
436 8
437 7
438 6
439 4
440 8
441 9
442 2
443 8
444 5
445 1
446 5
447 7
448 1
449 9
450 5
451 7
452 8
453 6
454 8
455 4
456 5
457 1
458 5
459 1
460 5
461 6
462 4
463 1
464 9
465 6
466 2
467 3
468 4
469 4
470 7
471 1
472 1
473 2
474 5
475 9
476 1
477 6
478 2
479 9
480 1
481 4
482 3
483 2
484 2
485 9
486 4
487 3
488 2
489 8
490 9
491 8
492 7
493 3
494 6
495 8
496 7
497 6
498 2
499 1
500 9
501 3
502 8
503 9
504 1
505 4
506 9
507 1
508 5
509 7
510 3
511 4
512 1
513 9
514 9
515 3
516 9
517 6
518 8
519 6
520 3
521 3
522 7
523 8
524 6
525 6
526 6
527 9
528 2
529 7
530 8
531 7
532 9
533 7
534 1
535 8
536 1
537 3
538 2
539 2
540 4
541 2
542 7
543 6
544 3
545 3
546 9
547 4
548 8
549 8
550 8
551 4
552 4
553 8
554 8
555 1
556 9
557 7
558 4
559 8
560 7
561 6
562 3
563 2
564 5
565 9
566 7
567 4
568 8
569 6
570 4
571 8
572 3
573 3
574 8
575 3
576 2
577 4
578 2
579 7
580 6
581 2
582 9
583 6
584 4
585 7
586 9
587 1
588 1
589 2
590 9
591 3
592 2
593 4
594 4
595 3
596 3
597 1
598 5
599 4
600 4
601 7
602 4
603 1
604 1
605 9
606 5
607 8
608 2
609 1
610 5
611 4
612 9
613 9
614 6
615 6
616 7
617 4
618 3
619 9
620 6
621 7
622 6
623 1
624 3
625 1
626 8
627 9
628 2
629 4
630 7
631 5
632 5
633 8
634 2
635 9
636 1
637 3
638 4
639 9
640 1
641 5
642 8
643 5
644 5
645 9
646 3
647 4
648 9
649 1
650 9
651 4
652 6
653 9
654 2
655 3
656 3
657 3
658 7
659 8
660 2
661 4
662 4
663 8
664 8
665 5
666 5
667 8
668 3
669 4
670 1
671 9
672 2
673 8
674 5
675 9
676 7
677 8
678 2
679 2
680 4
681 3
682 1
683 2
684 8
685 6
686 1
687 3
688 5
689 9
690 8
691 5
692 7
693 3
694 2
695 4
696 7
697 7
698 9
699 4
700 2
701 3
702 9
703 6
704 2
705 1
706 6
707 5
708 1
709 4
710 3
711 8
712 3
713 9
714 9
715 4
716 5
717 6
718 1
719 8
720 2
721 2
722 7
723 5
724 4
725 9
726 9
727 1
728 8
729 5
730 6
731 7
732 7
733 1
734 8
735 4
736 8
737 8
738 3
739 2
740 4
741 8
742 1
743 5
744 7
745 4
746 5
747 7
748 8
749 1
750 2
751 4
752 7
753 4
754 3
755 5
756 1
757 5
758 6
759 3
760 3
761 7
762 1
763 8
764 7
765 4
766 2
767 6
768 3
769 5
770 3
771 8
772 4
773 7
774 6
775 4
776 4
777 1
778 2
779 9
780 7
781 8
782 9
783 6
784 3
785 4
786 4
787 5
788 6
789 3
790 3
791 1
792 6
793 8
794 8
795 4
796 1
797 3
798 8
799 2
800 4
801 8
802 4
803 5
804 5
805 8
806 1
807 5
808 9
809 6
810 8
811 2
812 1
813 2
814 9
815 6
816 1
817 9
818 5
819 3
820 7
821 3
822 6
823 7
824 1
825 9
826 4
827 2
828 6
829 8
830 3
831 6
832 1
833 3
834 2
835 7
836 7
837 5
838 8
839 9
840 5
841 2
842 4
843 5
844 4
845 2
846 1
847 3
848 4
849 7
850 6
851 4
852 6
853 6
854 4
855 2
856 4
857 2
858 2
859 5
860 4
861 3
862 9
863 9
864 7
865 8
866 6
867 3
868 1
869 1
870 6
871 3
872 5
873 8
874 5
875 2
876 2
877 4
878 7
879 9
880 8
881 4
882 8
883 1
884 8
885 2
886 6
887 7
888 4
889 5
890 8
891 6
892 5
893 6
894 3
895 4
896 1
897 6
898 6
899 3
900 4
901 7
902 4
903 3
904 3
905 2
906 1
907 2
908 2
909 2
910 8
911 2
912 7
913 1
914 3
915 1
916 2
917 1
918 2
919 1
920 7
921 6
922 2
923 3
924 3
925 2
926 2
927 6
928 2
929 5
930 8
931 5
932 1
933 7
934 9
935 1
936 9
937 7
938 3
939 5
940 7
941 1
942 2
943 4
944 1
945 4
946 5
947 1
948 6
949 6
950 4
951 6
952 8
953 4
954 9
955 1
956 4
957 5
958 7
959 3
960 1
961 8
962 7
963 7
964 3
965 6
966 9
967 7
968 9
969 1
970 8
971 4
972 1
973 1
974 5
975 5
976 5
977 4
978 8
979 5
980 6
981 1
982 3
983 1
984 5
985 2
986 3
987 3
988 5
989 6
990 7
991 5
992 5
993 8
994 3
995 5
996 5
997 5
998 3
999 3
1000 9
1001 5
1002 4
1003 6
1004 3
1005 4
1006 2
1007 1
1008 6
1009 9
1010 6
1011 2
1012 8
1013 5
1014 2
1015 9
1016 5
1017 7
1018 7
1019 2
1020 5
1021 5
1022 5
1023 7
1024 3
1025 8
1026 3
1027 8
1028 9
1029 6
1030 4
1031 3
1032 5
1033 7
1034 6
1035 8
1036 9
1037 9
1038 2
1039 9
1040 7
1041 2
1042 1
1043 3
1044 1
1045 1
1046 7
1047 5
1048 8
1049 1
1050 4
1051 7
1052 4
1053 9
1054 4
1055 6
1056 3
1057 8
1058 1
1059 3
1060 5
1061 7
1062 3
1063 9
1064 8
1065 7
1066 4
1067 1
1068 6
1069 4
1070 1
1071 8
1072 3
1073 3
1074 6
1075 4
1076 6
1077 7
1078 5
1079 5
1080 7
1081 7
1082 8
1083 6
1084 5
1085 3
1086 2
1087 8
1088 8
1089 3
1090 6
1091 8
1092 8
1093 6
1094 1
1095 8
1096 7
1097 4
1098 1
1099 7
1100 9
1101 2
1102 4
1103 3
1104 4
1105 1
1106 9
1107 5
1108 9
1109 1
1110 1
1111 1
1112 8
1113 7
1114 5
1115 3
1116 4
1117 3
1118 6
1119 1
1120 2
1121 3
1122 6
1123 5
1124 1
1125 3
1126 8
1127 8
1128 4
1129 7
1130 6
1131 9
1132 7
1133 4
1134 7
1135 5
1136 3
1137 1
1138 7
1139 6
1140 3
1141 4
1142 8
1143 6
1144 2
1145 5
1146 7
1147 6
1148 8
1149 9
1150 8
1151 6
1152 2
1153 6
1154 4
1155 9
1156 8
1157 7
1158 6
1159 8
1160 4
1161 6
1162 2
1163 3
1164 8
1165 4
1166 3
1167 2
1168 8
1169 7
1170 5
1171 5
1172 2
1173 7
1174 5
1175 1
1176 6
1177 2
1178 1
1179 1
1180 3
1181 4
1182 9
1183 8
1184 9
1185 9
1186 9
1187 2
1188 4
1189 5
1190 3
1191 1
1192 7
1193 4
1194 3
1195 4
1196 5
1197 1
1198 8
1199 3
1200 1
1201 7
1202 1
1203 2
1204 6
1205 6
1206 1
1207 5
1208 7
1209 5
1210 6
1211 8
1212 7
1213 7
1214 2
1215 3
1216 1
1217 8
1218 1
1219 8
1220 9
1221 2
1222 5
1223 6
1224 7
1225 3
1226 3
1227 1
1228 7
1229 7
1230 8
1231 3
1232 4
1233 4
1234 7
1235 3
1236 1
1237 9
1238 7
1239 1
1240 3
1241 6
1242 6
1243 7
1244 1
1245 7
1246 3
1247 7
1248 3
1249 9
1250 3
1251 4
1252 9
1253 5
1254 7
1255 1
1256 2
1257 2
1258 6
1259 2
1260 8
1261 9
1262 2
1263 4
1264 6
1265 2
1266 8
1267 2
1268 7
1269 6
1270 6
1271 5
1272 3
1273 2
1274 4
1275 8
1276 7
1277 6
1278 7
1279 1
1280 5
1281 1
1282 1
1283 8
1284 5
1285 3
1286 3
1287 6
1288 6
1289 7
1290 8
1291 7
1292 8
1293 1
1294 8
1295 1
1296 2
1297 1
1298 7
1299 6
1300 3
1301 7
1302 6
1303 4
1304 4
1305 8
1306 9
1307 5
1308 8
1309 6
1310 4
1311 5
1312 6
1313 2
1314 3
1315 6
1316 1
1317 7
1318 9
1319 5
1320 4
1321 1
1322 5
1323 7
1324 3
1325 7
1326 5
1327 4
1328 7
1329 6
1330 8
1331 9
1332 4
1333 3
1334 2
1335 8
1336 5
1337 1
1338 3
1339 4
1340 2
1341 5
1342 9
1343 7
1344 8
1345 5
1346 7
1347 9
1348 7
1349 5
1350 7
1351 4
1352 9
1353 3
1354 2
1355 6
1356 1
1357 1
1358 7
1359 5
1360 1
1361 3
1362 2
1363 3
1364 1
1365 7
1366 1
1367 4
1368 8
1369 6
1370 1
1371 5
1372 8
1373 2
1374 8
1375 9
1376 8
1377 6
1378 1
1379 8
1380 8
1381 9
1382 1
1383 7
1384 1
1385 3
1386 3
1387 2
1388 4
1389 3
1390 3
1391 3
1392 8
1393 5
1394 2
1395 1
1396 8
1397 3
1398 3
1399 3
1400 2
1401 6
1402 2
1403 9
1404 1
1405 8
1406 1
1407 6
1408 6
1409 1
1410 3
1411 7
1412 7
1413 6
1414 2
1415 3
1416 7
1417 2
1418 1
1419 1
1420 8
1421 8
1422 9
1423 6
1424 1
1425 8
1426 8
1427 6
1428 4
1429 2
1430 7
1431 8
1432 4
1433 3
1434 9
1435 4
1436 1
1437 4
1438 9
1439 5
1440 3
1441 9
1442 3
1443 9
1444 5
1445 6
1446 7
1447 7
1448 3
1449 8
1450 4
1451 7
1452 8
1453 8
1454 3
1455 6
1456 3
1457 9
1458 2
1459 8
1460 6
1461 7
1462 8
1463 4
1464 1
1465 5
1466 5
1467 3
1468 6
1469 8
1470 2
1471 8
1472 1
1473 2
1474 5
1475 1
1476 6
1477 1
1478 3
1479 4
1480 9
1481 1
1482 3
1483 8
1484 6
1485 8
1486 9
1487 7
1488 1
1489 2
1490 4
1491 5
1492 1
1493 1
1494 9
1495 6
1496 4
1497 1
1498 2
1499 5
1500 9
1501 7
1502 4
1503 3
1504 5
1505 8
1506 5
1507 2
1508 5
1509 7
1510 5
1511 5
1512 5
1513 8
1514 6
1515 6
1516 7
1517 7
1518 8
1519 1
1520 9
1521 1
1522 8
1523 2
1524 8
1525 6
1526 9
1527 9
1528 9
1529 7
1530 6
1531 1
1532 8
1533 2
1534 5
1535 6
1536 9
1537 5
1538 4
1539 9
1540 6
1541 5
1542 7
1543 7
1544 1
1545 4
1546 6
1547 6
1548 4
1549 6
1550 1
1551 5
1552 4
1553 5
1554 7
1555 4
1556 1
1557 9
1558 2
1559 4
1560 6
1561 2
1562 4
1563 2
1564 2
1565 6
1566 4
1567 6
1568 7
1569 3
1570 3
1571 3
1572 8
1573 3
1574 5
1575 9
1576 7
1577 6
1578 1
1579 6
1580 8
1581 2
1582 1
1583 9
1584 8
1585 9
1586 4
1587 1
1588 5
1589 6
1590 9
1591 9
1592 8
1593 1
1594 4
1595 4
1596 3
1597 8
1598 5
1599 8
1600 2
1601 8
1602 5
1603 8
1604 3
1605 8
1606 6
1607 6
1608 2
1609 6
1610 6
1611 1
1612 1
1613 2
1614 9
1615 9
1616 1
1617 6
1618 9
1619 6
1620 7
1621 3
1622 1
1623 6
1624 6
1625 4
1626 9
1627 4
1628 8
1629 8
1630 5
1631 7
1632 6
1633 6
1634 2
1635 5
1636 2
1637 2
1638 8
1639 5
1640 6
1641 2
1642 7
1643 2
1644 2
1645 9
1646 7
1647 4
1648 2
1649 6
1650 6
1651 6
1652 7
1653 1
1654 7
1655 7
1656 2
1657 5
1658 8
1659 2
1660 3
1661 1
1662 1
1663 7
1664 1
1665 7
1666 5
1667 8
1668 8
1669 1
1670 4
1671 6
1672 1
1673 1
1674 8
1675 1
1676 2
1677 4
1678 3
1679 1
1680 8
1681 9
1682 1
1683 7
1684 7
1685 8
1686 4
1687 7
1688 8
1689 6
1690 3
1691 3
1692 6
1693 3
1694 5
1695 4
1696 1
1697 2
1698 6
1699 6
1700 1
1701 4
1702 2
1703 8
1704 7
1705 3
1706 5
1707 2
1708 8
1709 2
1710 4
1711 4
1712 7
1713 3
1714 2
1715 7
1716 7
1717 4
1718 5
1719 1
1720 8
1721 9
1722 4
1723 2
1724 5
1725 9
1726 4
1727 7
1728 1
1729 5
1730 1
1731 7
1732 8
1733 4
1734 8
1735 1
1736 8
1737 5
1738 3
1739 6
1740 8
1741 2
1742 9
1743 6
1744 2
1745 1
1746 8
1747 2
1748 6
1749 7
1750 4
1751 4
1752 2
1753 8
1754 1
1755 5
1756 5
1757 2
1758 3
1759 1
1760 7
1761 8
1762 9
1763 6
1764 6
1765 2
1766 2
1767 6
1768 8
1769 6
1770 2
1771 6
1772 5
1773 4
1774 3
1775 4
1776 7
1777 1
1778 7
1779 8
1780 3
1781 8
1782 1
1783 9
1784 8
1785 1
1786 7
1787 8
1788 3
1789 6
1790 1
1791 5
1792 5
1793 8
1794 2
1795 6
1796 7
1797 7
1798 4
1799 8
1800 3
1801 4
1802 6
1803 2
1804 3
1805 9
1806 7
1807 3
1808 1
1809 5
1810 8
1811 9
1812 1
1813 4
1814 1
1815 2
1816 4
1817 9
1818 8
1819 5
1820 2
1821 2
1822 1
1823 6
1824 1
1825 5
1826 6
1827 3
1828 6
1829 7
1830 8
1831 7
1832 6
1833 6
1834 1
1835 6
1836 1
1837 4
1838 4
1839 9
1840 4
1841 3
1842 7
1843 5
1844 8
1845 2
1846 9
1847 7
1848 7
1849 7
1850 2
1851 2
1852 3
1853 3
1854 3
1855 5
1856 6
1857 1
1858 8
1859 7
1860 2
1861 4
1862 7
1863 6
1864 6
1865 2
1866 5
1867 6
1868 1
1869 1
1870 6
1871 2
1872 4
1873 2
1874 6
1875 8
1876 8
1877 4
1878 8
1879 7
1880 9
1881 9
1882 1
1883 4
1884 2
1885 6
1886 6
1887 9
1888 4
1889 1
1890 6
1891 2
1892 2
1893 1
1894 5
1895 9
1896 4
1897 8
1898 8
1899 3
1900 6
1901 3
1902 2
1903 5
1904 5
1905 6
1906 3
1907 6
1908 9
1909 6
1910 9
1911 3
1912 8
1913 3
1914 1
1915 2
1916 3
1917 7
1918 2
1919 9
1920 6
1921 4
1922 5
1923 6
1924 2
1925 9
1926 9
1927 3
1928 6
1929 4
1930 2
1931 8
1932 4
1933 5
1934 5
1935 2
1936 2
1937 7
1938 2
1939 3
1940 1
1941 6
1942 4
1943 8
1944 1
1945 5
1946 2
1947 9
1948 8
1949 8
1950 9
1951 1
1952 1
1953 6
1954 1
1955 4
1956 5
1957 2
1958 4
1959 6
1960 3
1961 4
1962 2
1963 4
1964 2
1965 6
1966 5
1967 8
1968 4
1969 4
1970 5
1971 5
1972 5
1973 4
1974 9
1975 7
1976 1
1977 8
1978 9
1979 9
1980 6
1981 5
1982 9
1983 1
1984 6
1985 2
1986 2
1987 7
1988 9
1989 1
1990 2
1991 1
1992 3
1993 9
1994 6
1995 2
1996 9
1997 7
1998 9
1999 9
2000 4
2001 9
DEPOT_SECTION
1
-1
EOF
