NAME : gen2000_002
COMMENT : uniform customers, demands 1..9, generated by bench/make_tuning_set.py
TYPE : CVRP
DIMENSION : 2001
EDGE_WEIGHT_TYPE : EUC_2D
CAPACITY : 300
NODE_COORD_SECTION
1 0.010494621406810789 0.37060630543944395
2 0.3797811812350149 0.9647926527267684
3 0.16170340089138813 0.36037994226869197
4 0.14958815294385652 0.6782444630554093
5 0.8537445760938184 0.916616884758543
6 0.5837481355476243 0.0610888481888292
7 0.501100705764253 0.9125059723402825
8 0.061376670751905005 0.40157736455985393
9 0.4717030346856874 0.4904749239359235
10 0.8497153152786495 0.032528489477006706
11 0.8237697648263255 0.9993668210033778
12 0.3008443874973945 0.738614046972816
13 0.49698103397146 0.7768703716549212
14 0.4675730580056936 0.7745096093153175
15 0.06826563165193711 0.3007296072503721
16 0.8324398000906874 0.019436261753892903
17 0.3741361250390497 0.26052658387418937
18 0.26644198189541657 0.565799482722695
19 0.32512290020169843 0.12800124657010126
20 0.9008126677874688 0.08899095783248723
21 0.49139485604050315 0.9982815984981587
22 0.4310349137688285 0.6110666207117328
23 0.9980795467361214 0.26375183362778
24 0.7089959098678339 0.3804973867524598
25 0.9355186554162066 0.9327445013147543
26 0.28364381232455227 0.8813590694619683
27 0.1458438828141595 0.5456023923976117
28 0.6786550165984511 0.18699243344603034
29 0.6364850475061182 0.19135997206025224
30 0.4260371191387433 0.8608101220483625
31 0.6055356401162371 0.7327094719612162
32 0.8139578797422476 0.6741712034501329
33 0.8169434495348745 0.6843828577491369
34 0.7565724566852616 0.05709098092095488
35 0.5868644153857872 0.3442448528316687
36 0.682625336685932 0.6766274677022052
37 0.6890013959018046 0.6506327389864819
38 0.6170122529949865 0.10973648680877268
39 0.8176141107523003 0.12244487080319921
40 0.7535273886802029 0.059103456161984425
41 0.20262393064244943 0.3685904994182859
42 0.5786186850123075 0.06813435719270977
43 0.2982364642343803 0.8908937183379678
44 0.9061688616837652 0.2052727905595031
45 0.9396631060559789 0.9771428604492434
46 0.21590030717428754 0.8633511259496505
47 0.718568919197862 0.6418996125554225
48 0.6192484923485073 0.10584144294667797
49 0.7396174526312229 0.10333947454027304
50 0.1058966244548718 0.2458495967037122
51 0.5234451612207013 0.14116147594958361
52 0.17535808054676016 0.12069826003064021
53 0.41666890302460546 0.8915662562735692
54 0.9540811043942418 0.3138225696449385
55 0.1514540310192969 0.4787991262051525
56 0.8605820154227498 0.6595845650979132
57 0.5367876573000746 0.30080005901089946
58 0.14507870691554825 0.30857940643900683
59 0.15881050819298836 0.9403278424814288
60 0.12549630222501595 0.8523517972069784
61 0.6183455570976435 0.7386613919166708
62 0.6974095789549283 0.9867021694500399
63 0.38711929056683714 0.34868160182831076
64 0.16904290487267915 0.9385598470637759
65 0.7319203439612308 0.11604946510989567
66 0.03758955076458692 0.5751303414258954
67 0.16810914476688432 0.06412281873569647
68 0.1616812140790781 0.09098160713985137
69 0.3556488447580507 0.33558238354156866
70 0.26735961758707527 0.6037759339383155
71 0.16619816897899875 0.133700799465309
72 0.4125299197137765 0.5796000160024287
73 0.10709182609811485 0.10439434254256674
74 0.20460259801514913 0.9162099098769789
75 0.5824905698401857 0.48057926470577017
76 0.22486430730223317 0.35555204188725265
77 0.5636328911325572 0.4668939774719525
78 0.973541188395844 0.7885508582327824
79 0.4694499105788419 0.22735911328973712
80 0.2896574095536273 0.7061594902195487
81 0.10581522689179623 0.1416326595677474
82 0.2737452477816653 0.5971934664068086
83 0.25219420580261087 0.4344939642179888
84 0.8112271029558515 0.6598078634340934
85 0.3235244799652853 0.6232121578740862
86 0.48722568146145073 0.8379204100896935
87 0.13411639816436471 0.46746450094780434
88 0.8783183454595004 0.10554144518599418
89 0.027103812692590767 0.4089758268403402
90 0.18384588367893007 0.9319481597916975
91 0.39154082677877944 0.8062741711304312
92 0.8466182826808201 0.8574170691765217
93 0.22345640396345745 0.6536773196794627
94 0.1810980030527014 0.8430259640451047
95 0.051275465125561026 0.8420824614119232
96 0.10851991339369949 0.6333430536249833
97 0.9852093009973129 0.4557958946028279
98 0.8445623399731989 0.1604368343779663
99 0.19038881004939756 0.2789011123128695
100 0.03822563002541113 0.04935236931450415
101 0.46407048442397436 0.09344139793146988
102 0.7582722685764635 0.9350165367567709
103 0.5236773278977013 0.2441900726820413
104 0.6620191655159041 0.706873395472046
105 0.913479928957472 0.1206213946538971
106 0.5090212244361371 0.5421164653996822
107 0.08124987396406347 0.5602803784932455
108 0.16939800346266887 0.4038077243773128
109 0.958603535060582 0.2083497612768469
110 0.658026010443222 0.34343221588366923
111 0.4875267820866297 0.9597830118647652
112 0.792231927451221 0.6376730339023253
113 0.649235228754515 0.12940518184991712
114 0.07927111917464069 0.3156492573737738
115 0.5820626261114065 0.5819208230550611
116 0.15584214808763996 0.39850645881522073
117 0.513846969428937 0.1735151552971309
118 0.1399182787781732 0.3092327710111332
119 0.05646721769865448 0.9976979681263618
120 0.4111538843723561 0.1979357024463494
121 0.8231657269169164 0.5300641637043214
122 0.19204879517046436 0.3830725896093392
123 0.6827933663630802 0.659027146572721
124 0.20551673771546053 0.7952465932058943
125 0.15887139684870455 0.058259805508357854
126 0.4319564173200361 0.34806649747182306
127 0.08772053288407888 0.07376020042836351
128 0.2639732489126069 0.06774599814057114
129 0.2756044334007075 0.2467128038964519
130 0.025924697999992752 0.39490804645831445
131 0.8334484993157629 0.6777748323937742
132 0.1771899004305355 0.0030607300404843496
133 0.6418038101668343 0.18881315325658143
134 0.11431453794169488 0.48260816675732443
135 0.6520659902163991 0.9466589541726829
136 0.845764819863059 0.9612585538662305
137 0.7675354423989353 0.5224031146469008
138 0.42419998871002906 0.7871810850815711
139 0.12047803667506962 0.8243218237569262
140 0.00022289296047017793 0.8897714112781021
141 0.15117424180785122 0.22681990667905494
142 0.09662687018333938 0.010999512019953639
143 0.20947161318740193 0.5360306239628707
144 0.5173059711979814 0.8504803699048171
145 0.009203541965858153 0.6075484584846821
146 0.3628887019219056 0.3238567705334875
147 0.404234724851362 0.7933365257515944
148 0.8157809972781699 0.5441576456403256
149 0.2471233407400315 0.32296709715148053
150 0.007102616249299087 0.6849379718777373
151 0.7789742097662968 0.9716131244450938
152 0.7619731082333562 0.4774294710406378
153 0.2766708573218972 0.5762148417961284
154 0.28125434156976137 0.8092729114172331
155 0.9836367954962977 0.12519176488905093
156 0.8571408036597079 0.740653898985333
157 0.7008011216637322 0.9787786153611853
158 0.056767414126851934 0.7976605431679895
159 0.5323975997954247 0.16635929717621745
160 0.44304781039038577 0.9477999247114809
161 0.6936991666883258 0.3959691149454666
162 0.4325149072819824 0.25815324565285136
163 0.6331829347889016 0.23081638397066262
164 0.4893197681913387 0.4098051214354008
165 0.578120960631793 0.8356338659080169
166 0.2023721205302954 0.7011706531384893
167 0.105138127534122 0.9929511283749046
168 0.32095266999908323 0.8723408677308399
169 0.4382992404380086 0.7676411727616745
170 0.7324116049486253 0.151139649715877
171 0.7826423396389472 0.5886589145302199
172 0.06086999335860099 0.14146628012626672
173 0.7674395301319168 0.45053985091487336
174 0.8703647969982159 0.9120600766670164
175 0.2483624388228286 0.9770617870918812
176 0.9508689423194265 0.9414512706855295
177 0.09029983698294997 0.21829917679753785
178 0.5659834002242513 0.6168819545404273
179 0.17783814967260902 0.38474840548359923
180 0.1565532141670778 0.45882552100295027
181 0.8921861326870117 0.4660635723384198
182 0.85835611869849 0.27891460019009773
183 0.7981854438335428 0.1541243097618431
184 0.055388945132819334 0.1817941651434265
185 0.9766064023407153 0.061066955005195545
186 0.7816214393877494 0.357110584601504
187 0.46534768483082656 0.029247356666318947
188 0.1639103494989016 0.5713414929616459
189 0.6567121455242598 0.606347683383941
190 0.09175317377852144 0.17206625047828528
191 0.5084585422447255 0.4042109885290607
192 0.49638677599074343 0.7970767602053253
193 0.044212204050538606 0.5116372883542165
194 0.46402014113450973 0.24868929873178947
195 0.9065976161004364 0.08391924118448013
196 0.23529504200021978 0.26879962068050145
197 0.1542424670926834 0.9914453140122331
198 0.8758437510181999 0.040649759622661596
199 0.08667858570819476 0.5927807834936318
200 0.3493110323098396 0.9245225835448979
201 0.2579605023920253 0.9523257859774693
202 0.06726839711187782 0.8083914604569388
203 0.11232631687693284 0.8331069951803269
204 0.12101722610407073 0.41231460824774313
205 0.4248384180277557 0.22719116590766464
206 0.9135099429947975 0.9194615663927532
207 0.4509963710509961 0.38262939702237875
208 0.14566072304679822 0.9807137365070392
209 0.2250599140901649 0.5741215639879963
210 0.377305081559265 0.003681347409490665
211 0.14296977859096616 0.46147756368094994
212 0.5185158622482736 0.5031418068095285
213 0.8371870354954827 0.3289504131396175
214 0.20718426345533536 0.28312493046442777
215 0.9808174173066532 0.21496882872899004
216 0.053525396726123775 0.40896972882138194
217 0.2369576899423368 0.9035954246829704
218 0.2503908074597656 0.7101019304435967
219 0.7168631078162246 0.8357671439742459
220 0.3165738106237377 0.5694861698112335
221 0.9558060001924245 0.8926962432662902
222 0.9732744069423123 0.5990135691850422
223 0.9357387799667197 0.006766603217714384
224 0.793133739290101 0.36170193554513297
225 0.5994411360512093 0.8841592968255507
226 0.9948710755611706 0.28461854588235413
227 0.17959262600971548 0.22506580988415414
228 0.8796159208333982 0.6782092683500932
229 0.22278723679306478 0.8039201786626945
230 0.4075830382948187 0.7605532875228547
231 0.3599411933460932 0.9003641726253435
232 0.23945336573856657 0.27591266060913733
233 0.637902777473312 0.5694687381356821
234 0.14712329315429706 0.3550422388021033
235 0.8570612879679356 0.4332963285021709
236 0.105188316727722 0.19164116810178367
237 0.09386033248890113 0.9495390215007838
238 0.209885309099618 0.7482310773051594
239 0.44503380508932067 0.8794289414183981
240 0.13311570081184754 0.6723759511985137
241 0.9298542112826333 0.1425046923843165
242 0.6698903416826645 0.11448449657434945
243 0.1204867217701715 0.13542512983196553
244 0.27133962207872375 0.228419627271645
245 0.9742830093568073 0.6614225082705163
246 0.48187557212264276 0.18872242572286102
247 0.7237596709990366 0.9529956522662062
248 0.6136533544272433 0.6869296877217785
249 0.9546655409166296 0.33006534682903477
250 0.07771319289901213 0.40539238927832444
251 0.7937598386976352 0.6045504332439693
252 0.1535173608633349 0.008030554761592867
253 0.6995016146829587 0.9720787736101204
254 0.8845756911318452 0.19702904938967347
255 0.77846150749841 0.6557059629501278
256 0.8551640652830864 0.9904968905444739
257 0.3799521751285643 0.6941184415986035
258 0.35891964175852675 0.6311332054934252
259 0.9315147019568037 0.19766621920967098
260 0.4378278389019332 0.2321515572058751
261 0.4781258069718147 0.6319398081079687
262 0.035964246718448334 0.8523735339946431
263 0.10587201460548923 0.9668798421633608
264 0.007581125383302356 0.06719648708380843
265 0.8662174208405108 0.47549088892011604
266 0.1720378287164892 0.07353119757209725
267 0.08998026330606057 0.32738313503656236
268 0.9431883909553977 0.7939987309306226
269 0.7537039418498065 0.2903527179610629
270 0.3126038400867016 0.9954278456651238
271 0.31855455280984657 0.37335416136460864
272 0.4289341497022612 0.5899675893003957
273 0.5632137819215018 0.9453635241359072
274 0.6238276587144432 0.8953179833269923
275 0.1651572044512264 0.16077146204327353
276 0.6337949777564557 0.5864565490014827
277 0.22985901944765663 0.7947522931621464
278 0.839430973279085 0.7014560157084084
279 0.4856404889907969 0.8421316132518035
280 0.8975688115678192 0.6980939753432318
281 0.5743464027672499 0.800149408192946
282 0.6100870511578073 0.6997397443851703
283 0.33199735458007795 0.4346911688171593
284 0.17150128196385195 0.6848556496457224
285 0.05917511111926088 0.3908017903534051
286 0.8899827668265093 0.7651404450179548
287 0.9856887607049155 0.1566300031435861
288 0.7908875785351255 0.6361824992608214
289 0.33833392834906295 0.5470840339291145
290 0.8564067147979615 0.3456343982415925
291 0.33998250223321713 0.7734744978419582
292 0.9205834224024756 0.8672235484607854
293 0.4155519216202376 0.3203898201141525
294 0.40692938981913807 0.3893536817092558
295 0.4729588475041643 0.5323165233139127
296 0.7021499976066191 0.7577577458688051
297 0.5497094078398227 0.4040281727013265
298 0.22527290546346546 0.7852072550673787
299 0.2735060454307907 0.14566958051460877
300 0.18984601006880675 0.3330698924156936
301 0.9209693567907902 0.07682672256253087
302 0.7125138574114697 0.46545372540680174
303 0.9444510365699326 0.8634902141227317
304 0.5434873400969631 0.985622664069755
305 0.19555022989587112 0.3988299340451169
306 0.135372376695447 0.7357905334480669
307 0.7046598923272119 0.11702344338535386
308 0.9067508361369182 0.3772637924784257
309 0.13978661441726503 0.7768713486924064
310 0.9783670953767717 0.5350010204123588
311 0.7833143226363123 0.9194921698579783
312 0.6230054196597145 0.4586402159887758
313 0.2822872355410848 0.33456004146981333
314 0.19641044601661506 0.36612595596708986
315 0.6542762200345735 0.604051335767296
316 0.07080522111265153 0.7430039351147883
317 0.9775968207739809 0.6849119757940111
318 0.03686622930006589 0.5873147262867914
319 0.6634867722321135 0.9831480991239081
320 0.12969836292267667 0.9283264510472325
321 0.875592714157734 0.5837022003463196
322 0.008155263915533784 0.4307676036024426
323 0.14724809527474236 0.5147589163982383
324 0.07508535421575901 0.3982413729745614
325 0.6636786087882341 0.3769832265718339
326 0.3723540033386742 0.16721229589390196
327 0.8185766333774543 0.7883046919031115
328 0.01780378559468465 0.7163271748104358
329 0.23799804144006131 0.8390191498698052
330 0.025912159882111152 0.3970776648057579
331 0.21993542959905965 0.6415130917007092
332 0.22175564269661774 0.7021525314829979
333 0.3580795864173347 0.6629986022656714
334 0.16669847289056472 0.20027694202617408
335 0.016864561701471104 0.594504691191593
336 0.6593630988232861 0.27462166711430835
337 0.7483984093552919 0.27836691070355146
338 0.46721618732049697 0.9597815794267766
339 0.845240419493064 0.523573294534061
340 0.18433955851179673 0.401515196409879
341 0.8098918244962163 0.01743569555809832
342 0.6761598236239887 0.2798413585726631
343 0.7189546183729304 0.14242317067948784
344 0.7686460330270267 0.3994748487525479
345 0.3971391166003384 0.24146416311844343
346 0.9530538913970144 0.27699582785361854
347 0.7838446490958777 0.39461043600334966
348 0.054574433592402216 0.3524091826454494
349 0.2888528679434509 0.744333155043126
350 0.22304870933550291 0.05360239884478302
351 0.741912060246884 0.91931145175833
352 0.8833293306019755 0.2907561658808945
353 0.32147095657930747 0.5029653332637943
354 0.9500264542147074 0.09349720664889238
355 0.22653496900529713 0.8353606471901174
356 0.12130482431906275 0.784091468024229
357 0.32216202631665936 0.39430087539886405
358 0.49551485446124066 0.8268448102132777
359 0.9106649611038646 0.25828726110235345
360 0.49344730607806486 0.5224418493021574
361 0.27294791637802984 0.203438223203376
362 0.028959226662363502 0.2027524625590067
363 0.507333617687909 0.3637339706935153
364 0.26958818545276375 0.7065489337753175
365 0.5374055359346698 0.1416866071741314
366 0.022482957205772425 0.5127200426049915
367 0.10917346216266155 0.23195967570903053
368 0.7664004581869542 0.9320377348060829
369 0.5309625265637037 0.9907440902882024
370 0.6376823218028252 0.1492909178852465
371 0.7395620299083219 0.07602460154834201
372 0.5008164267925805 0.014619233232158413
373 0.23994956730161598 0.5191996698739777
374 0.7219415278936102 0.36425759102880895
375 0.26734771330271956 0.1498143080021077
376 0.6204420356700173 0.7460405903227901
377 0.9701822797853485 0.2959139621111089
378 0.6601830455809009 0.42176190538778746
379 0.8257485263155784 0.7514085019902553
380 0.9137668736553596 0.1921085860660221
381 0.4846930308436037 0.6407947891490839
382 0.8435679377048119 0.48163371862469984
383 0.9390878834689572 0.2696546847343603
384 0.010991790865238271 0.1155889100372709
385 0.8112547758188156 0.6834072468068906
386 0.8767665801419231 0.39742470495037363
387 0.8578329784733854 0.9367775746720374
388 0.10275853536576729 0.7251700069629428
389 0.7042555999546752 0.5945871563951017
390 0.9726441941099218 0.5513300902965632
391 0.7530630786762372 0.37994072075319474
392 0.31592376413305523 0.15860826624978797
393 0.6457526621994912 0.378005502545659
394 0.15021294565765486 0.4272212070422854
395 0.19615788452201144 0.9008146706480993
396 0.40155322475092015 0.7532748770008129
397 0.5867896865548378 0.13416566126657525
398 0.04885175408258924 0.4029226565883327
399 0.9271860369889948 0.9196168320176302
400 0.556903739292563 0.5900998581006565
401 0.17343139690996745 0.46013797637199105
402 0.23426031706183226 0.76241012329221
403 0.10772465546264487 0.7477418816355126
404 0.8773371199211188 0.6028463481854601
405 0.9195050863330206 0.643451913019124
406 0.13001665255506956 0.22906122666557338
407 0.9723667065635098 0.30605862439462084
408 0.2527967780856387 0.49808314077007254
409 0.5269027766715016 0.4307754653495671
410 0.8102117770644803 0.699796733437112
411 0.9466277707575338 0.8822002682666226
412 0.16750218416798712 0.8726844177287005
413 0.09854952898939151 0.6985907055534161
414 0.9208471757695622 0.008844179431402477
415 0.02389254211394487 0.278418655365159
416 0.12134241531470369 0.2089627924062335
417 0.4218906535106065 0.8349921897948386
418 0.7488440597772119 0.41945235201683573
419 0.5925903833179732 0.016550207957111485
420 0.23851744640256756 0.11261042445751235
421 0.9587617518305199 0.7929514563843606
422 0.5831345172251289 0.4961142134244402
423 0.5116766089216142 0.023910066759225135
424 0.39029558698705236 0.41161263645928303
425 0.06795079581537 0.24096122085189198
426 0.4526896906751716 0.6672181615807161
427 0.12739786093876038 0.8080326251795795
428 0.8472402858654755 0.8142680544978975
429 0.5055674046307664 0.8596176680112486
430 0.466967323514084 0.7742265008046665
431 0.19646691421406703 0.9480686455198881
432 0.08346357833160534 0.8615544013475386
433 0.2842885889639406 0.4446154168842227
434 0.8056943713651555 0.7282581774622902
435 0.04992664538315672 0.27210117452013305
436 0.850341686179328 0.7509675981328281
437 0.7902676785765185 0.6508559263758191
438 0.31975781764543676 0.5533016110644147
439 0.6698551087105329 0.06862415377872266
440 0.2645912220469875 0.3184944553258584
441 0.7783355739658719 0.5248087053758579
442 0.8232126638339514 0.5165722993359005
443 0.6997289106058934 0.6281797518740413
444 0.7778379859048672 0.34078036859760263
445 0.7213742242508963 0.8156757119659948
446 0.9021949321858969 0.04023502577069571
447 0.3742891364284465 0.37819722781081044
448 0.0862306549302212 0.0921980859832755
449 0.3625044392924369 0.5415403917548606
450 0.061196669392549086 0.20111554402949405
451 0.06363543236569158 0.06461197300880828
452 0.1995406532227224 0.7700269636433889
453 0.5249588911151316 0.05721606206841712
454 0.40640000194189796 0.12306405227386485
455 0.02899756651028995 0.9276304405531591
456 0.32837649805132896 0.3434678709919313
457 0.6369391554830909 0.33231261216340924
458 0.7239915601414647 0.2851596297246024
459 0.35167191114314156 0.7146351709685171
460 0.16240912914707184 0.4997102828981601
461 0.023367956153572456 0.9671615750810152
462 0.08164367356393976 0.8408033346507693
463 0.8158052397057706 0.7617899040713241
464 0.934770618434704 0.5231818530851882
465 0.3670932866810116 0.17992526757077443
466 0.6799426407558741 0.6297840736569739
467 0.7902064720133762 0.6770185113249881
468 0.6442589205625803 0.5074662988640272
469 0.6836218545838837 0.5410963018081658
470 0.9913849862530173 0.9946587283664134
471 0.8727111989687566 0.1200075894064877
472 0.3827957787733304 0.5511315463414472
473 0.8666793386181497 0.7545766896903113
474 0.9025750050686557 0.08584121462816774
475 0.6420254008510896 0.6724779933991422
476 0.6847528373605589 0.09834272001016175
477 0.993418681281823 0.7621354685674384
478 0.7900997819209026 0.3435542223541066
479 0.46581054856549964 0.13298464203794624
480 0.39496706233267886 0.2739267040213773
481 0.4735846978598225 0.18182634548470433
482 0.3639726344070625 0.5920204513117931
483 0.10454554540688665 0.13902265859804175
484 0.7816360111235283 0.3526608216979409
485 0.28071517299303994 0.43480012364477316
486 0.04729138340371053 0.6109507849464871
487 0.019582044821705558 0.2003549954016266
488 0.6699940055293822 0.38486027921787647
489 0.3334146206487273 0.36787856261696394
490 0.2116188705595463 0.7451380780549308
491 0.9006170373482832 0.8928065316144363
492 0.6346621275100734 0.21630999402479822
493 0.1838343447055335 0.9415723339431435
494 0.7602589241656007 0.3642436381569696
495 0.8574199105247513 0.04179836797011982
496 0.7803246980187993 0.6489099676913694
497 0.9880481785557418 0.9751840782314427
498 0.38986284098791935 0.9132850184472094
499 0.6147749308732812 0.9863462297333048
500 0.3770714681791373 0.7481456352169122
501 0.5786919755322442 0.21237737636178367
502 0.5822858143045425 0.2743332138607544
503 0.0031614797192831556 0.13864120961351378
504 0.7466801219011576 0.11950749105938041
505 0.3661510731603236 0.8681750928128075
506 0.6847568698982751 0.20681674644895087
507 0.3773482484750792 0.1502629812853966
508 0.3920719560483311 0.9393599801660047
509 0.8778411553983612 0.8027175392835263
510 0.07566695052618078 0.2519188069069983
511 0.6870947616275948 0.23294561410769055
512 0.8211014857898781 0.8508937000536468
513 0.10461672042079462 0.3720628769557076
514 0.5448533472415344 0.2758575979919491
515 0.014557144854133619 0.1498754998550884
516 0.8100606853299613 0.06918898663992612
517 0.6467576827346022 0.20314112837168996
518 0.6653745121744723 0.5126294337376847
519 0.7206228941423806 0.8349989044690762
520 0.34331118958399975 0.4614213033778184
521 0.16061247614475493 0.6244234089301585
522 0.45641605922269024 0.11178615957737792
523 0.2655900100242985 0.6382736954912408
524 0.11386455314992183 0.29904367421103206
525 0.8299078547485098 0.5143232960902882
526 0.3130398733039248 0.8695271340158556
527 0.9143883792289558 0.2605661196538136
528 0.5422680229590251 0.5803178203258988
529 0.6243897287962188 0.12759895937721644
530 0.23174396821142007 0.06788671727334838
531 0.9808551191844135 0.8749045610653223
532 0.512643027588794 0.577681115874473
533 0.8102134653946511 0.7473457944053552
534 0.14176429959556347 0.26419605463986806
535 0.32460704468294044 0.5891181752698436
536 0.7778892981361311 0.10587834801932805
537 0.04107041538069034 0.9202213414467705
538 0.6337176304580701 0.9440979808218027
539 0.884680157822098 0.49752043763581955
540 0.2985356982422024 0.445127447279544
541 0.8926256013297865 0.5384117085922595
542 0.9494179140521037 0.4661717467542186
543 0.1615349467280507 0.1775203835712229
544 0.24966962924341218 0.526866422217401
545 0.5580870461323258 0.9420845627093878
546 0.1058724556201196 0.21169933092922744
547 0.3756132701733864 0.8380782707442435
548 0.6114790358491939 0.054820540086104264
549 0.6296786804182126 0.2626611997333509
550 0.0560265668295018 0.30285485385797695
551 0.3965263079483008 0.01811599478509973
552 0.23276638550855688 0.3872520441791719
553 0.6574424728274909 0.569650579306923
554 0.5555200573587534 0.4633056711390363
555 0.772799016253543 0.7864544264888086
556 0.5278000756445785 0.04208611540234242
557 0.17934917488358193 0.8055278135405926
558 0.8989629991928356 0.1218718487971634
559 0.4758122009926158 0.634080495739197
560 0.883200636741038 0.866488784465497
561 0.5737721738546853 0.3113986124916658
562 0.6797802988836571 0.19886143695441538
563 0.455607436181272 0.8538354320546973
564 0.27241623911678003 0.09455097090908071
565 0.8706070469809665 0.47407281260727974
566 0.04550148201170168 0.03581698068037531
567 0.539887938980046 0.6338410467600439
568 0.5884894224453621 0.6801648587966096
569 0.2886750175866609 0.029061439165122604
570 0.7934805950708173 0.747195916788776
571 0.1522385771981013 0.048102604751606326
572 0.6437367830509325 0.7674097963758815
573 0.3113645692802146 0.7332282938085041
574 0.8359664102230884 0.025311356278594044
575 0.022943118533116924 0.2706288634286511
576 0.6694755736777761 0.6192966066320235
577 0.9266512602480945 0.5301966653945319
578 0.10187828662029308 0.8305624017764773
579 0.863059066712936 0.6204679304500691
580 0.7524675318010876 0.6900733117618503
581 0.2046849854884859 0.46106725092440093
582 0.12427616762937921 0.18711450701765975
583 0.21621937109274292 0.42552370373381376
584 0.4310138017043763 0.03422275868277813
585 0.6116191591005969 0.08019628337140805
586 0.22833181353542076 0.3983943910439338
587 0.8653015166390453 0.644440510192606
588 0.580778822917878 0.25501384728789533
589 0.2618750662162691 0.3792482186246694
590 0.062037248136921685 0.8685228392544105
591 0.3136088298761487 0.052791750151353734
592 0.28596003205072673 0.4355530693241296
593 0.9402978549641015 0.8261137415830311
594 0.8194560081366313 0.5131729869503379
595 0.10934722904879046 0.8475998974057092
596 0.4175907807139658 0.6420725241243083
597 0.8098388193483896 0.37938912434666294
598 0.651642462067801 0.9253999407762343
599 0.6822482906904855 0.242763632884471
600 0.6780433348008666 0.42616049983433657
601 0.2597503504070132 0.9177174401347303
602 0.8784317820190042 0.4460716968959192
603 0.0051198336806905775 0.08996233577707091
604 0.04132024494961606 0.3633682564391102
605 0.10522008415103379 0.6434745235883491
606 0.4060692574564352 0.6355167738619332
607 0.5265981320469081 0.678945645859944
608 0.3458740376759294 0.6003705815315726
609 0.910091817538993 0.8117607118419563
610 0.8763312035860507 0.5933147112293401
611 0.8050393496709777 0.07539225152131612
612 0.3279300334757038 0.4806120052778544
613 0.7535273627225815 0.12460977531662121
614 0.9358849200735234 0.38730120248847966
615 0.6847200907088372 0.023368707097570107
616 0.23106295195725834 0.6474118465708706
617 0.3661092507717736 0.26919799573756764
618 0.9443281982771279 0.4794730834584766
619 0.5441640922359169 0.8964241182346215
620 0.08279821205924798 0.8643681098684853
621 0.47765007038425755 0.0559149612132791
622 0.4578495336512185 0.9849049552097566
623 0.29846551103805297 0.845761669494746
624 0.15191910102150064 0.4846371261441037
625 0.5684911466482595 0.23838938072449956
626 0.5765485072493177 0.330495544431451
627 0.4173219394571912 0.10953644349525127
628 0.9123242237095488 0.9522244971643238
629 0.583632114010099 0.0398856151151451
630 0.4357725474861017 0.5166956073051172
631 0.9922206316785274 0.49899896297434054
632 0.02605177344958698 0.7230587680692562
633 0.7393357056948905 0.03121340493753566
634 0.2183810289758794 0.8490760562840846
635 0.6628625219920717 0.36859854123286695
636 0.45536190824117107 0.9037280072679709
637 0.1722666267182359 0.20969234240493329
638 0.22500834039035833 0.3821203514690228
639 0.3633618781657636 0.3610096082058186
640 0.7888971005279267 0.08777233823616692
641 0.0557875490973776 0.24762654615693125
642 0.04089329069441161 0.12532915530245414
643 0.06916443930909988 0.4206409408830215
644 0.20820332364584804 0.9894448909389237
645 0.7911555277722363 0.8237857671297141
646 0.5479754817795447 0.2676558198174871
647 0.46781188153706443 0.49710381037917006
648 0.7043604457168848 0.6144857147770109
649 0.9882536107811085 0.1289757199633681
650 0.5484287828460263 0.7039883617341002
651 0.01996026705568732 0.40955822224867333
652 0.3921496324126432 0.940884720325182
653 0.5294144681309357 0.7815012606908719
654 0.05524940989674709 0.609933369830564
655 0.413679429938991 0.9121834262351658
656 0.07484585406446109 0.023385023595128174
657 0.2132971960870399 0.8490748972828869
658 0.826331560236994 0.6020128090355413
659 0.7206169518351297 0.17708105657349638
660 0.08176994996020581 0.7306449108303674
661 0.9374578097792711 0.8593211101822215
662 0.22561138602712916 0.4663974328370033
663 0.31186359701807476 0.7070475359769065
664 0.8209442939337699 0.09264320530498593
665 0.9896991666797273 0.0818046015307814
666 0.19785361706026916 0.38188887653497505
667 0.9582967502624906 0.5429152161372064
668 0.5153468195412664 0.3658069055390638
669 0.7344922576985337 0.6070626896579214
670 0.525041670776899 0.5387456900818419
671 0.733657032426697 0.6753603147010174
672 0.7987300821468473 0.8038436418095958
673 0.3101521324053047 0.13049220097165293
674 0.880411743052049 0.5171763982948846
675 0.1273224575977029 0.09237973110217435
676 0.6144223253216722 0.5745961269299309
677 0.8779265216365768 0.0785992884286345
678 0.5094261273536672 0.33506402430276694
679 0.7032878473866961 0.3489673912832494
680 0.332104118534274 0.9147862944440017
681 0.8844689058968324 0.17161129892962734
682 0.2019355980223776 0.07417433405671192
683 0.2321085425407493 0.6749170481918446
684 0.7299058615096147 0.29634837767561817
685 0.7533385630220996 0.9398911535665732
686 0.7998943011728112 0.5243744912113187
687 0.7639904461746337 0.6024917722380406
688 0.8257122760749507 0.11297693413070176
689 0.850820966975506 0.8790460281461228
690 0.5445225662617322 0.5702737250115572
691 0.5491122469279266 0.8279365336269486
692 0.3513989641101338 0.7458566588671539
693 0.9224952006961874 0.6843747765912123
694 0.060085559394380206 0.6340882016725358
695 0.6491576824999762 0.10762946165976028
696 0.38536397249518617 0.16584605947620412
697 0.9928827098213981 0.49856232829156544
698 0.5402545593432452 0.4808905505254666
699 0.01767652988827184 0.07458101492652647
700 0.28785401046666037 0.9506274272705341
701 0.15471612538117385 0.5685424523701402
702 0.02153636173201634 0.6695810618138698
703 0.6329569902589215 0.5434695151546286
704 0.43940940474792833 0.5525210927665883
705 0.8227967891980104 0.9699853561272698
706 0.5800994672818305 0.8454087165404017
707 0.7192045940113995 0.23622640631928404
708 0.2671298386849671 0.6484926216766671
709 0.07547795508079358 0.7341869039078611
710 0.030249723308582 0.11861398675173218
711 0.2881750315570696 0.4553566643273107
712 0.9704032315471846 0.9419784301929254
713 0.20117223037949095 0.05741499725911714
714 0.4783601194027979 0.7025078300092399
715 0.6273092642569901 0.29734430843831383
716 0.8960186515919158 0.8168985018250707
717 0.6439839965346962 0.26855270076916526
718 0.9948077835700718 0.7283868358124457
719 0.2599986605067067 0.8046049519737432
720 0.4721595717664565 0.6514651052218711
721 0.6279214598220453 0.6051198506319915
722 0.7147184110901682 0.9725415541357063
723 0.30090538346669926 0.07678140437004943
724 0.3743626827832579 0.1727793908361983
725 0.10770330280167917 0.17194817378850602
726 0.3415489070417673 0.005487665569317457
727 0.6856771910214734 0.31595155185056856
728 0.7190302937208101 0.26907765970175423
729 0.6262207524265608 0.08075453587290815
730 0.1386384044950495 0.8198156820149585
731 0.9859357773310228 0.7808804028627335
732 0.23333741130751828 0.0702636133817719
733 0.7576818951680503 0.5173883701534976
734 0.8224713714817034 0.7833304211824303
735 0.452669081424419 0.12510871819094627
736 0.9971630515826422 0.44501837099208486
737 0.8283576259917476 0.6062032213044971
738 0.5290413917075817 0.09276749541283791
739 0.8903998114695758 0.46771033559502806
740 0.3778283123544094 0.6812476647091584
741 0.799112547755797 0.7873420645217167
742 0.4853744664341212 0.3993958205789999
743 0.23518835688767104 0.2518697098006847
744 0.2679791020062897 0.4659110341588436
745 0.519624411030313 0.4601700766089607
746 0.0845033012140124 0.1681782209700725
747 0.027296707491622385 0.9601541380231867
748 0.576162677116595 0.5221239866996848
749 0.5631497507440624 0.46643418761206856
750 0.08484466404016777 0.3501841918337728
751 0.9052288381883262 0.8637081519471539
752 0.25220774235976506 0.33132137860188904
753 0.0231442291294367 0.8196601910792053
754 0.8420639191533473 0.010663902927883884
755 0.3864347570558101 0.8217723513185979
756 0.35645762903460676 0.5394091515352764
757 0.30030333836485945 0.10104128456424288
758 0.14999386723380215 0.10432974789884863
759 0.4500515110899751 0.6557730235858014
760 0.535615993428708 0.5084342227307994
761 0.8375341870980472 0.8716275817572222
762 0.6743357103609091 0.12096068556622963
763 0.9585120145517858 0.30011926576467307
764 0.2260751230164092 0.9208905785655506
765 0.9379058348234116 0.7924525262508884
766 0.31800704395999235 0.6268234346739987
767 0.38528935096979466 0.5590157648910341
768 0.659890845805852 0.21970304146304975
769 0.7996794363862443 0.6117295759465892
770 0.1679770917110469 0.5898916540752946
771 0.8183494851162896 0.8856749467977563
772 0.001227354603056896 0.518122039392206
773 0.5055923663364815 0.15971906854727358
774 0.8535083075688027 0.5955017824050323
775 0.3521781558640912 0.6344766403345554
776 0.22985300167746503 0.7722799634126764
777 0.8868351580371082 0.14124489322117273
778 0.5695388558389473 0.0176848141328102
779 0.4602765263822397 0.20877395552173406
780 0.04517485120427822 0.41003066945313005
781 0.8524109218163464 0.7978225732393138
782 0.5528803313313523 0.6155070679993181
783 0.2540417465498638 0.33014376199349516
784 0.9622040646849899 0.9286538040372302
785 0.8232562079076673 0.20377099652763586
786 0.042219504961801047 0.22009761675160266
787 0.7701232512299495 0.6070534616740384
788 0.823252227902844 0.656748418552318
789 0.6960534603552793 0.9091318735762428
790 0.07035023819671771 0.24784460490036608
791 0.6718896851148208 0.1628365138419693
792 0.9654864305678771 0.7274963621679089
793 0.5386498180727682 0.33051919558547993
794 0.36792884240214463 0.7422367297527609
795 0.3728828893536549 0.3904802277775268
796 0.5253797621255044 0.5561363745735804
797 0.12661530104524965 0.8269699880362633
798 0.8060674278862773 0.5160379834480894
799 0.4779032055206268 0.6492418871109141
800 0.27268788899808705 0.7078366815113122
801 0.7802856448064597 0.5367850897570664
802 0.3035120516330245 0.36609212604643315
803 0.3625654060150151 0.2531980356340182
804 0.8367338530194567 0.6638522988567318
805 0.5524025747013132 0.4110969416954374
806 0.7862467406001836 0.4560956347922498
807 0.3762832391862253 0.5052140747191585
808 0.25605667018653633 0.8883156270528132
809 0.6932803735669182 0.05804272664931209
810 0.9902723894266142 0.02477592129099604
811 0.4326028584061752 0.2345990964467044
812 0.5624774422091032 0.7557696092942557
813 0.7349981029813991 0.3608677786061183
814 0.1651277269306094 0.5454062188623199
815 0.044872245514634757 0.9006947214215012
816 0.6133309557425236 0.7524080578988634
817 0.4249747417410943 0.7984585985206396
818 0.883199970978783 0.22249203124965555
819 0.5604109287445539 0.5911285654122722
820 0.6566205553137189 0.13481174070844304
821 0.7507931470467045 0.27869594250817153
822 0.6370599280128265 0.20008811124203008
823 0.8499138352454613 0.040107191247789165
824 0.7975207566136445 0.8690922302106704
825 0.9663988534201143 0.9252824278404189
826 0.40986857520222 0.5390462654947228
827 0.82347505099463 0.18578380805525896
828 0.7985420205423814 0.9013506445866591
829 0.8535664435746586 0.4113927710424814
830 0.3907233843862502 0.1868169268130816
831 0.5649516678091749 0.4839590779051941
832 0.2152792902132431 0.9213545950898167
833 0.045426286485861 0.5471081867027553
834 0.16923463564765517 0.5095556715433485
835 0.7890692311996247 0.6363228347469927
836 0.36704675935165676 0.6779060983445973
837 0.8967994943494704 0.13526463655265109
838 0.31761656459464227 0.06626418380615462
839 0.3775085109623466 0.8836525174617369
840 0.8606709783543579 0.4909730802937923
841 0.6632351610677443 0.2870558377931215
842 0.26636951558673627 0.8951028579010154
843 0.4239629206575154 0.09120029885102643
844 0.49445968004242713 0.5539622611975755
845 0.7899238335492553 0.20538032560939057
846 0.4273731151744087 0.4946730786533122
847 0.3348304563758324 0.09883986464204031
848 0.7744086187102049 0.6318435265150054
849 0.13978582995388344 0.2105309846579757
850 0.8362164385573084 0.38359295129384274
851 0.4527604384718922 0.9256406768052517
852 0.799923776390433 0.5162066073758967
853 0.8180494256736744 0.7049536225266015
854 0.9950367263261651 0.5192878632896769
855 0.9828545855726449 0.7555040063145808
856 0.873366910216115 0.9306960433177905
857 0.17746831767016058 0.7523317140243135
858 0.05559431640257384 0.07446603431136789
859 0.8493904700772397 0.40459102884712206
860 0.4898468704042851 0.8837789052300206
861 0.9909291810891949 0.7876252392556069
862 0.44503347743019706 0.7024155368468483
863 0.005221676381842455 0.8094969956465902
864 0.44850946373068534 0.2038264293368115
865 0.5662194583697567 0.21060634741477635
866 0.627844752716642 0.07008446590024908
867 0.7234934422496521 0.7817166149050505
868 0.2875364625425125 0.7118987560210951
869 0.2637056427878466 0.9427524953296216
870 0.7011972774935857 0.09112780626504857
871 0.3644448687563677 0.06580291858320397
872 0.526108535754706 0.20155481696261546
873 0.34564909829516144 0.9318943190664952
874 0.03233656928917661 0.10340386737244278
875 0.09843351739522332 0.7084128962883217
876 0.7841839190689122 0.7943361344753425
877 0.9728259864023744 0.7803136189549785
878 0.6165572185604655 0.4818942848173774
879 0.5248302491373262 0.10936612163934234
880 0.2585733388504411 0.30633895304779746
881 0.6869085218419754 0.7119970071067095
882 0.9353995664671828 0.9615775327744275
883 0.46436097038494417 0.10978520734618957
884 0.7406577423143498 0.39502422724692265
885 0.6096808784598455 0.7994803862179213
886 0.9604758626089135 0.48401061967484704
887 0.09794447150211327 0.5966955919160095
888 0.04281849955600736 0.7316483690412008
889 0.7685369644505381 0.010591876697631397
890 0.5408980827042964 0.9451431057380204
891 0.24716468028824334 0.24876760722066982
892 0.788063782798899 0.8056073269308389
893 0.7786179620292923 0.29749971123645436
894 0.001635081088152357 0.39237368131676376
895 0.2492143342428793 0.4518305682402094
896 0.3911779776252722 0.5370096494585261
897 0.07281979856176779 0.6149551284836584
898 0.0710430928811393 0.6550186073674356
899 0.1637093697769617 0.43775985539423634
900 0.791915373180754 0.06752600404470244
901 0.7517813140824092 0.1402050002101527
902 0.513555169998382 0.9717405108793181
903 0.3868512098250936 0.8069152652255775
904 0.7120637088743799 0.7924038770341871
905 0.07243247220548188 0.27142233217297984
906 0.14411875131099128 0.4583745268624393
907 0.1891255505942776 0.019939642480871322
908 0.3163116752921932 0.30421992522243013
909 0.6254246747890824 0.3752434695996284
910 0.7658212876230591 0.1865005374400186
911 0.9448917911124342 0.6093189260054062
912 0.5587923757750138 0.49176296485626014
913 0.8533897527697568 0.9655198570105599
914 0.39069577472012873 0.716915445460556
915 0.6691000376625269 0.7266603530338225
916 0.07770276253439823 0.13611069511016505
917 0.06009603985949796 0.48978943519553675
918 0.628408473121324 0.10069575466271496
919 0.7627063241038953 0.20442031082200118
920 0.9882480134310503 0.818936286064428
921 0.7181684519254051 0.11342903973407281
922 0.4425721010663922 0.9419832529351259
923 0.9683802647714439 0.4365269927227835
924 0.15472136230150502 0.6799472206459343
925 0.6794486397062776 0.6550983315947438
926 0.7557032326502899 0.8996336370481548
927 0.7153099990539354 0.5641618983824358
928 0.906620358613423 0.4880601781020818
929 0.5870807223409836 0.6680372154828723
930 0.18093531054086864 0.7178422138676379
931 0.7263740175328813 0.4778151186733153
932 0.10530818838558276 0.6105719332327425
933 0.7903554830017488 0.5141991059498646
934 0.7725916463197805 0.8480264102939006
935 0.3352089911793552 0.1151983805715685
936 0.13402181717094352 0.5353443829068675
937 0.6441427475330698 0.013941974953944447
938 0.6715441072913387 0.8481484197111588
939 0.6419438983104029 0.48239303924765553
940 0.23259147278347114 0.06042606484945279
941 0.7964275871595957 0.881790186366883
942 0.9223559646912355 0.125706072605536
943 0.38357661258249653 0.6556161271269384
944 0.6290995020300858 0.05196889764280277
945 0.27866840371453105 0.48765960834677424
946 0.06763215791445454 0.4859891418713591
947 0.6053149498402377 0.7091630985645746
948 0.8118679463075182 0.3750592029952753
949 0.8238833195499705 0.285782577285856
950 0.9825192080417423 0.060109231821874
951 0.1627286633698103 0.6689699212781971
952 0.30271019317303305 0.2832093943487374
953 0.10852210215060787 0.4637976824624178
954 0.40557591011004257 0.5615194534982377
955 0.8086439895238057 0.8592037501431378
956 0.18878289309059626 0.6068333613202505
957 0.9190260079227668 0.8622779349989229
958 0.03986996387449204 0.20033838146322358
959 0.2554917569567735 0.410687883215481
960 0.8097054055984287 0.8734360826798901
961 0.6722453826035432 0.08811409881226107
962 0.414866265828044 0.5013066131231598
963 0.06940159253764389 0.17683619502363623
964 0.2757731180812004 0.016759229967623468
965 0.9652009728472271 0.11374400050241484
966 0.5963577667227629 0.7054302448901897
967 0.2516427969039142 0.5525478560434239
968 0.4623037199407727 0.4156040936588913
969 0.9856470154665394 0.739065598305466
970 0.9206279892619027 0.6575747021875415
971 0.8927413457298644 0.2697758606840588
972 0.5257047861327215 0.559658647815723
973 0.8408672369592091 0.15574376611486562
974 0.8760704490862384 0.6836217322664638
975 0.7427370392159125 0.47052194550413873
976 0.08113944373356519 0.874895600072529
977 0.28441915384693983 0.7156591764678035
978 0.22497868984229108 0.5124574847909235
979 0.40930050309473076 0.9236368816976072
980 0.8536806468284757 0.25248679951615516
981 0.18893012297145917 0.9688942731997104
982 0.5559576309992438 0.7285604853265673
983 0.11676669809633067 0.5067800632922447
984 0.5780509090719912 0.19772789721991357
985 0.3555737370768086 0.40698910625389906
986 0.8480177453978351 0.9830367803457586
987 0.12164392512462585 0.5776469117432385
988 0.8580016036100981 0.07614310295531301
989 0.33381964662614727 0.8455940535984445
990 0.8434380927024453 0.8480542070457512
991 0.044960902071629616 0.1726853848049602
992 0.4580120992165242 0.9737735046304212
993 0.7178344953652728 0.619162981849048
994 0.4484582194692083 0.5966993035808655
995 0.8477805613279016 0.4373925562195258
996 0.3914389582998725 0.7724134886895253
997 0.6875290286038712 0.5135530529274155
998 0.94693067484367 0.6179168253623217
999 0.36734859427559663 0.6872859612094893
1000 0.7305579223140146 0.7876451337909384
1001 0.5994361288150916 0.3425381092494061
1002 0.8456897421522959 0.5708974460531273
1003 0.6628901457261682 0.772595715640628
1004 0.5799044199607261 0.7418058221739228
1005 0.86265857280868 0.47283992582766077
1006 0.2950870265758808 0.5435409431628565
1007 0.39283562378090886 0.9288981787104251
1008 0.06428137461337546 0.20452267854447126
1009 0.3617330447493241 0.5180272941482973
1010 0.6975946582756771 0.9517639642064937
1011 0.035464143548147975 0.14010948799437106
1012 0.18980371041587474 0.6676067251500584
1013 0.39799566975471623 0.2844295551376771
1014 0.6582565452829459 0.5165044039676401
1015 0.6953658584421504 0.8529703938684001
1016 0.20691028295740133 0.29947683422091
1017 0.7492337027086102 0.5200968956206077
1018 0.46777280735203886 0.05761273938757905
1019 0.49613155014232246 0.2860819401777296
1020 0.46023139232978194 0.5901354985118937
1021 0.4209280479054911 0.3086183677033376
1022 0.167642943435255 0.9842662257272897
1023 0.6810464111768683 0.5408504262785486
1024 0.13630290060790973 0.39336880491185067
1025 0.33331910281467225 0.8100079970078229
1026 0.0639056770241383 0.4764981663268141
1027 0.8643338296766626 0.1620572923602942
1028 0.49012060042728645 0.20809616321262692
1029 0.9641211536572968 0.02225573354142074
1030 0.2935712189031926 0.3097536787008054
1031 0.003712037005180413 0.1272919777382756
1032 0.6525134194515556 0.09993150989881949
1033 0.938057801638335 0.2125043094064779
1034 0.7568957386624496 0.6244825183519286
1035 0.1765863619359085 0.6365586339147173
1036 0.3183954742238878 0.5313288198547057
1037 0.6356200442523268 0.44174684494319205
1038 0.3802070389662604 0.6774612912476315
1039 0.07385922764182495 0.7413352341486553
1040 0.698546799034627 0.7849640643874138
1041 0.4666426570342115 0.9878744837792423
1042 0.6989527848218237 0.2243925770399
1043 0.7929802860436715 0.8332158647369312
1044 0.0296703040514098 0.03611459558782426
1045 0.5098639087821164 0.5472878937111666
1046 0.3484786501489543 0.38375135384942216
1047 0.14309359495197171 0.9206162013842403
1048 0.12614262053790237 0.6414474068308156
1049 0.7164919116522454 0.26589638600631604
1050 0.10789616964669635 0.06658598267831861
1051 0.44032218205061946 0.5130087619908222
1052 0.04905857908352962 0.6762800600408724
1053 0.9713364999985753 0.6391444359688596
1054 0.21176764015161154 0.18471997142967833
1055 0.1861090706074272 0.1965334777038139
1056 0.3942819994143685 0.07595219040386947
1057 0.7680497852476398 0.00016021395222076684
1058 0.04518027051097662 0.24185565209452276
1059 0.4486692604778544 0.2187533628807935
1060 0.5601519038138488 0.6111151133377085
1061 0.2591685090248059 0.7075459198190678
1062 0.10887914131307208 0.4563160336187382
1063 0.8558407110401774 0.4421659256114049
1064 0.7668930342392624 0.19870385569813587
1065 0.43993857249564283 0.7048794975612844
1066 0.3534637639856968 0.5132368126658687
1067 0.665565434581517 0.38505414204129573
1068 0.3364674920387183 0.28714270534096376
1069 0.6957789262656937 0.09972825247872896
1070 0.2836950848643529 0.6150883631777442
1071 0.7805918989081887 0.44261609546777125
1072 0.345875652020347 0.7310718072765913
1073 0.44627266600408333 0.562863194556251
1074 0.022295082444880876 0.6534197776933852
1075 0.587079207089058 0.6359236978039375
1076 0.4265194469615974 0.6674777788074897
1077 0.3716248067496012 0.2406066092235427
1078 0.16795823600505877 0.3888849590754524
1079 0.7559687437381294 0.3567106088232097
1080 0.7950521943733119 0.3324658441218229
1081 0.10981155499055106 0.5054364813491613
1082 0.8745880657015208 0.7470126300772937
1083 0.1916491063674748 0.46041602008865123
1084 0.7246207534883646 0.8117883669364845
1085 0.05032102707778496 0.11743108338317665
1086 0.817288460498088 0.3504749100441267
1087 0.38951257214494306 0.6426984213676656
1088 0.09691517680976047 0.7455885238207273
1089 0.003394391235311711 0.21935455428485562
1090 0.7839496138266162 0.6166158255114927
1091 0.9091898424179197 0.5552201136534576
1092 0.24845518807843414 0.9190960805321312
1093 0.9454228011017923 0.15556086098452782
1094 0.18490928875128287 0.18409361644078126
1095 0.11430100172655033 0.322532251585981
1096 0.245373232476517 0.6795945530052505
1097 0.32481768459711535 0.8478083316067941
1098 0.5414657580918434 0.3934252816108368
1099 0.6741884659013458 0.05641793762431757
1100 0.38441326155961053 0.6844850587801563
1101 0.3333207434558322 0.5475993472173267
1102 0.4165761210214598 0.7954708471585441
1103 0.10744159206947723 0.34705117316993295
1104 0.23098669423672202 0.9280973606161856
1105 0.5636052026954291 0.9295956386020323
1106 0.6791753027940215 0.46497374868831165
1107 0.6506543584963774 0.44807329729923073
1108 0.5104914897274077 0.8307875901416225
1109 0.741589199449449 0.11704216853111749
1110 0.1597617564012621 0.40532487843054
1111 0.1192313146125028 0.2518181632734696
1112 0.3470795117832215 0.5236815669149134
1113 0.9142910620237578 0.3868045435201276
1114 0.33357238682540735 0.40422135268618953
1115 0.7280707846789239 0.17374117552691326
1116 0.6575631480384833 0.4638591936538561
1117 0.8198025644137111 0.5504094380688933
1118 0.8062740977972818 0.10573844069398719
1119 0.825128237560302 0.44827694089347525
1120 0.19722979016164133 0.17868534403256953
1121 0.8737568938499962 0.6535070523713382
1122 0.45368526460820924 0.1345687096196443
1123 0.6739382811144372 0.5385129598156456
1124 0.39031014236688044 0.8608309961476461
1125 0.6779793207789634 0.8968356891679488
1126 0.506213969891885 0.14346240183145564
1127 0.5599395023463714 0.2713577718386184
1128 0.6465028093981029 0.4851319883126467
1129 0.8229061637917175 0.9411842532760422
1130 0.5495656945731239 0.5207590540692447
1131 0.5987101753943812 0.34645318463996133
1132 0.3619825224821761 0.09225064022013096
1133 0.801707963228755 0.32978746753370647
1134 0.39366928571737947 0.7994113960408739
1135 0.5788640490387951 0.6671910065585984
1136 0.5149631181650767 0.40908615237160917
1137 0.9350403425900126 0.40673716082459366
1138 0.8334916475185127 0.948787193202916
1139 0.7823658111363753 0.6400113054081997
1140 0.8650048853684572 0.6069233580337882
1141 0.3182138691978246 0.32324487897930754
1142 0.5720069449284402 0.4903008414868093
1143 0.3831692046948212 0.8367077444037611
1144 0.12716932592731245 0.9502375856274734
1145 0.2658795452809869 0.6447096126296672
1146 0.8298835094194967 0.5265441617644069
1147 0.5255658943023337 0.6475957886775036
1148 0.38434287985961635 0.35468454397251903
1149 0.3236052637858856 0.8961959939486666
1150 0.98729361580412 0.498787678320884
1151 0.8965742369745566 0.22160463072164038
1152 0.5543633351568518 0.8364402881786334
1153 0.7738828044311632 0.08925679987741175
1154 0.17971102877819667 0.2424357690257788
1155 0.7723611954437849 0.1006022004358228
1156 0.910616547045067 0.3362043341979878
1157 0.6919781749648595 0.7268287684390539
1158 0.303962400674777 0.4053022812003436
1159 0.07847011732935705 0.8964044636707379
1160 0.27689404343314505 0.7139799167069388
1161 0.8849122974790001 0.015095248696639585
1162 0.09639508442789557 0.23775405497245317
1163 0.4607451616329734 0.5206547492044167
1164 0.4599045558633251 0.8063537930358362
1165 0.7507523458120341 0.6116293805311016
1166 0.45225085253541053 0.21403266630178208
1167 0.23987961577331152 0.8264722871336461
1168 0.1372741354472018 0.36405042714594193
1169 0.7837216724958156 0.9742796034849023
1170 0.9255608244518089 0.9685992065111906
1171 0.6748849137554427 0.8954651800932631
1172 0.12532494889871282 0.6600513987867438
1173 0.7068053752878278 0.5384678634220303
1174 0.1632927983356024 0.7806913861884234
1175 0.7351706284652012 0.27425928277863887
1176 0.17312890886356636 0.8362407386843939
1177 0.6243792097031012 0.635689641107234
1178 0.05543424116080842 0.2366110704844876
1179 0.09037701555300082 0.19138881033844934
1180 0.31602212389086326 0.7260361380603981
1181 0.5909402988392273 0.8667513095764072
1182 0.4498353815837858 0.9420654214415263
1183 0.7826100537330818 0.43420289444267635
1184 0.5085340312725707 0.10038372968323828
1185 0.7541306179549093 0.9775669303649263
1186 0.38517447792674864 0.7916405341681011
1187 0.6906849153454282 0.8921652604824485
1188 0.16266896623324167 0.5103578188070277
1189 0.02917073950874549 0.5302878988595161
1190 0.4269158275598338 0.022324015925387908
1191 0.7505778901585989 0.699114169314912
1192 0.7140605156501716 0.2722092816384889
1193 0.4295525324120021 0.750106241331785
1194 0.5015417642731507 0.6993791534717612
1195 0.4374160328940472 0.8241018978804406
1196 0.5024164740222686 0.3942175419404498
1197 0.6293788484131362 0.5160538130158242
1198 0.6491174782703604 0.6617583651337583
1199 0.9889578402119773 0.5906464028893316
1200 0.3023012014286861 0.433497313552782
1201 0.8840537677265757 0.9990544810919528
1202 0.6810152816944771 0.9678740816402559
1203 0.3641557815949318 0.8943829552620468
1204 0.33394342351134265 0.1464979501470106
1205 0.9024091935857408 0.9061865790402892
1206 0.9044429002695029 0.9261219776242926
1207 0.8747712968835126 0.07876996945663384
1208 0.9932887622771259 0.5784301210124979
1209 0.7364476339769863 0.6139311484776189
1210 0.13444604647157143 0.8000535380881124
1211 0.5985974505611975 0.07279280434730606
1212 0.1765612578407395 0.7815969739601749
1213 0.6860821092071367 0.36492958035941403
1214 0.0884282423582442 0.3983872253877221
1215 0.931243260337221 0.9797474586592779
1216 0.6450578720274861 0.15066041891333215
1217 0.5962299936934817 0.5139652531864355
1218 0.8460206536582603 0.3887002190542379
1219 0.04446848439817952 0.7948399003622906
1220 0.2861513719034794 0.332242821440044
1221 0.8167505398080219 0.01303632071315175
1222 0.42326174788195736 0.4077918602300461
1223 0.9694580288303996 0.6470356940089447
1224 0.9427273053200222 0.3634622198835752
1225 0.8497835160056139 0.3963068318719728
1226 0.9898120246963099 0.7644789520054287
1227 0.47546931472216936 0.24045710157481837
1228 0.8772391901356874 0.56460576535155
1229 0.6181692104710677 0.5546532994954531
1230 0.5405164220981012 0.7300842918123366
1231 0.18827270885963665 0.9691544785364344
1232 0.9577252531973247 0.7519046562400906
1233 0.14871362970280977 0.9735145153738317
1234 0.8643847447805388 0.7958812186660837
1235 0.5154374782031222 0.24786508298267274
1236 0.41734588089460356 0.2133038637480783
1237 0.7710616968615988 0.06684853267049073
1238 0.6555332769218056 0.6242865650346215
1239 0.14718869826125813 0.23454257856689675
1240 0.2384599229220018 0.8470841640747175
1241 0.4469193463741855 0.5167051297567893
1242 0.9759016917480805 0.6130157852629857
1243 0.04604781741740205 0.7256594493734754
1244 0.15788757303239287 0.312659736019429
1245 0.4902992697375883 0.26543098118010666
1246 0.406999169631156 0.6068038496117959
1247 0.141852210600234 0.6712147320878289
1248 0.49722475225295215 0.4381355410391147
1249 0.1591443256928573 0.9793625686168597
1250 0.48258408832160626 0.13365852782100496
1251 0.7041486187139674 0.21162949898683348
1252 0.5213980146432988 0.4432613046204543
1253 0.911099201950682 0.8557245395143334
1254 0.19036656799211604 0.9412027401832838
1255 0.2482120232902818 0.739577875395428
1256 0.5322592836992585 0.33948525650199424
1257 0.561892180401971 0.21021214630984464
1258 0.39849161038738756 0.4203940234320186
1259 0.8608305334725793 0.11116381649715845
1260 0.8066531053086486 0.9046943585892739
1261 0.2965555124147198 0.43270244628607235
1262 0.6852046024823181 0.9238626330427114
1263 0.5691761225135944 0.3443767625062709
1264 0.84900781689816 0.26840135447470703
1265 0.33293305368522097 0.1439872768022551
1266 0.8788724663826253 0.8552098081833387
1267 0.8547207445621892 0.24142043241988487
1268 0.1500748612681615 0.2535932273758398
1269 0.7276917241855404 0.30600214379332336
1270 0.3942024669428612 0.9056793451480681
1271 0.0934287814826893 0.7808903054424406
1272 0.8247760256136072 0.1839108413573326
1273 0.3543930605384358 0.7855914430015951
1274 0.6844457076341186 0.5552539251886138
1275 0.49406695659813216 0.21591649777867294
1276 0.6076063490098886 0.4775586390945503
1277 0.5480408896297376 0.6466480035552846
1278 0.8159262371489204 0.38234265792677036
1279 0.43881858534121987 0.6244731661213676
1280 0.37424596135983956 0.5793257160147222
1281 0.5486156703606879 0.00045265449281228776
1282 0.8172024448356897 0.42441849383457697
1283 0.2957717293982506 0.4446949993034708
1284 0.12399622668263044 0.7417587357553356
1285 0.5410002504687057 0.6833829824090872
1286 0.3562001823945272 0.7732015031706749
1287 0.22357258420238812 0.7638622318021534
1288 0.40241631206620176 0.6099829201377166
1289 0.6669428130002807 0.22630126876782952
1290 0.5041858475688891 0.2792688997170728
1291 0.32037000361217927 0.33529492707270325
1292 0.1772206303366849 0.13341446663255496
1293 0.8370854412863686 0.29952604753384426
1294 0.6670921804054029 0.6370216907739579
1295 0.01190343901458979 0.8228146131832289
1296 0.631671234377781 0.14812573860187472
1297 0.21586054326378623 0.2168761460278028
1298 0.6724559814481046 0.8034424607651547
1299 0.7864117689051234 0.8009099396175723
1300 0.20282229505657468 0.538345748152914
1301 0.40139865972482236 0.8413222776285189
1302 0.7740802633170077 0.4029404335861313
1303 0.8294560369129345 0.7876329508030991
1304 0.05819239529818987 0.5845864608688713
1305 0.4668639253051593 0.5828986339708262
1306 0.111249574791222 0.23782956390583543
1307 0.25848918247607655 0.05175188823882626
1308 0.959926111197688 0.2146279063787786
1309 0.04233208564061708 0.2990328196475093
1310 0.6810440489245837 0.8466384961252027
1311 0.41982929206523745 0.4122250872640578
1312 0.5705759813860437 0.17264486129478152
1313 0.74450959608257 0.5412717772866464
1314 0.9581989991013791 0.5975754315713159
1315 0.8961715479715213 0.12437535678779055
1316 0.978191012820825 0.9906887342631023
1317 0.13204936687328506 0.9677461411076986
1318 0.5452176495737916 0.8446193036291714
1319 0.611284352260199 0.5258852245697554
1320 0.27004840334545843 0.6401687297191782
1321 0.26381575421328474 0.16862590782656883
1322 0.3536899353460514 0.2848972016630561
1323 0.04254083446205548 0.14953417301472938
1324 0.4597640363258654 0.611450357013836
1325 0.8906190980741455 0.3754798940489421
1326 0.7936287509923505 0.20049152947097748
1327 0.17666118570229683 0.7502547890950687
1328 0.575912116004817 0.6995147724117108
1329 0.7339640843522321 0.766736604156374
1330 0.2515558270230541 0.5938466393309598
1331 0.763097835376944 0.7818938289445659
1332 0.5497096476773812 0.46837758842587096
1333 0.36679685681739005 0.44307603378687954
1334 0.49721931902195693 0.8627206107127543
1335 0.01743204974038637 0.4121377913059694
1336 0.08056863754590693 0.4227631994528924
1337 0.6800747254396493 0.10653016703586338
1338 0.0958826580215476 0.2791181499617509
1339 0.1324671668285825 0.07570373144935583
1340 0.9289893076643145 0.7505071555147214
1341 0.08141217994814975 0.07278658931161686
1342 0.17396674963236813 0.4205296291775059
1343 0.11778554550822518 0.4513107416227765
1344 0.4843441448570438 0.4021200498727836
1345 0.35526862630723743 0.09485181664510667
1346 0.9314800976518839 0.3580961270016324
1347 0.08537823501464703 0.7629370808158066
1348 0.5217182184864756 0.45725794792354235
1349 0.339833411350123 0.6795674779163966
1350 0.2654256753204415 0.2396853411335691
1351 0.4082444303134768 0.38624872992234616
1352 0.6606262008597505 0.61495498515399
1353 0.26952910414171194 0.6344991100373502
1354 0.4741420322260729 0.8336411220941963
1355 0.8644646128066131 0.6712378646649358
1356 0.819021336205812 0.12975927098583628
1357 0.3910275042498559 0.37372780502883773
1358 0.8819550118318896 0.7000676280232262
1359 0.9169338053167609 0.045445302586202274
1360 0.8443343672364404 0.369336114453079
1361 0.8481513974430208 0.48899343070586054
1362 0.22628365903149494 0.2827676723556738
1363 0.6541545773460518 0.5634874668756705
1364 0.8925129215853185 0.40871558232284044
1365 0.7285236877998333 0.8793371039942574
1366 0.2931619972734434 0.45805231111339206
1367 0.09059594109288094 0.1270639338861903
1368 0.5343740975872214 0.3579354276154487
1369 0.8449021464046108 0.16103107954031426
1370 0.3331484861266857 0.6595434081993273
1371 0.19015611009179156 0.4852043649478899
1372 0.9561819334005986 0.6198834872584664
1373 0.7057851977470494 0.42181139461981954
1374 0.5262414529574324 0.8808581608441681
1375 0.8058489328281367 0.03666606905022962
1376 0.15007786336193574 0.1808293902038417
1377 0.49949001784728475 0.45658979727858706
1378 0.16115493979804218 0.49276498891387677
1379 0.5222773715117998 0.9198526417934999
1380 0.06899009858830407 0.13967822493808368
1381 0.07414102168346548 0.4636437989346308
1382 0.6740721446242401 0.9481724896276946
1383 0.07061910245451086 0.1040171888617013
1384 0.7186060647157851 0.7056638502094416
1385 0.6490831581486466 0.3198301652328496
1386 0.5866598947654726 0.28439991538906273
1387 0.5986694919540477 0.20432643372337378
1388 0.5467233408568295 0.5587271819760639
1389 0.3814740334607273 0.42713644869609624
1390 0.741007282939397 0.43864453527229275
1391 0.8732632895637487 0.9173384551421595
1392 0.6864044996867353 0.5245951231172481
1393 0.08273444211087133 0.5141595447892797
1394 0.03914646161635005 0.32775356866515604
1395 0.7724278122795764 0.9838210262905772
1396 0.9413123048076717 0.3783391811560818
1397 0.3883102293793753 0.9945694045090161
1398 0.288086290466785 0.8426782107671424
1399 0.7356024300382419 0.2830433218406917
1400 0.9307373525482876 0.041058336688576724
1401 0.7640571694956885 0.6877056232929495
1402 0.9411520358649661 0.7960699403886622
1403 0.11859105617730581 0.5930306133088201
1404 0.31068595918538866 0.2403204122023559
1405 0.38278840227848854 0.49144891923394796
1406 0.6033934584849714 0.8961743017284788
1407 0.47250120797546824 0.824742482614312
1408 0.8377622254999652 0.5177988433749893
1409 0.9779794770035822 0.05315706221954131
1410 0.6517079538220951 0.4331490387738818
1411 0.17332566710543873 0.07337925685696256
1412 0.6982718676705094 0.14588245345248918
1413 0.14495759927654417 0.8362011848173062
1414 0.2524934370821639 0.42068757728390294
1415 0.5466327883033599 0.9854090425588797
1416 0.2793312781782975 0.9160067745765441
1417 0.353322165092975 0.27294097463357525
1418 0.12785373702921699 0.49496446992615806
1419 0.6709813411825986 0.8504455125211694
1420 0.1723588938130316 0.032154190879864375
1421 0.280235080851688 0.5161134582471447
1422 0.2644214175518689 0.3869810797093065
1423 0.6892319926742579 0.5061501619096118
1424 0.30419685167944177 0.7439330925544689
1425 0.3744033918572496 0.43853955562874825
1426 0.05750206823347226 0.23605482115571597
1427 0.6382328810111104 0.8079885198783997
1428 0.6587067891388523 0.981095886210907
1429 0.9713472298777805 0.23147144913571405
1430 0.9716466195848213 0.8060636874285191
1431 0.5098227280076647 0.6630739405645515
1432 0.7336000484599943 0.4907809718388392
1433 0.06877181600327831 0.5171808662213646
1434 0.014111473562348764 0.08961015466084665
1435 0.7440065264741069 0.9452228892948212
1436 0.8460439768761593 0.6985090171702144
1437 0.1348099922790722 0.2084999097283624
1438 0.5357242418329495 0.7941403380419222
1439 0.6063138464035599 0.9215519682297099
1440 0.12320421125724956 0.816707316266376
1441 0.06346163930343474 0.4376656266313521
1442 0.29488123623422446 0.25038807460200696
1443 0.847452826901078 0.6099356976355899
1444 0.7917012292002602 0.7951845279733701
1445 0.5366139492356901 0.5429350721132202
1446 0.14957651296188157 0.5833413659239826
1447 0.21840189948576127 0.21565035799600574
1448 0.11599128903953959 0.4702859747185256
1449 0.5681910235172279 0.13357643023844157
1450 0.26782842237598137 0.36575464518284284
1451 0.2565606595336273 0.3817629265112754
1452 0.4541687039508989 0.5755496947755846
1453 0.4375488751030412 0.7030404309710105
1454 0.9437801156099828 0.5488103709711398
1455 0.7711367634569719 0.3089941983485991
1456 0.15624698786994218 0.3382334752037963
1457 0.445526245718335 0.12035394335189609
1458 0.760614085697912 0.2843108902658611
1459 0.4156962887466822 0.20675468061472912
1460 0.7880854719064733 0.34566779821922244
1461 0.7326479988185302 0.6861874920569155
1462 0.505725831723972 0.21610602551623292
1463 0.6001122985715827 0.12768875785222522
1464 0.3629616944750774 0.16205191139473873
1465 0.964805062934928 0.347531255311461
1466 0.8455799968525339 0.06331344394039096
1467 0.24242876253681245 0.776359442279659
1468 0.8549829690945003 0.07069960820801435
1469 0.16940640170796462 0.7262007706404031
1470 0.8657021749164199 0.5360614254520278
1471 0.057779715005312426 0.6361444172985938
1472 0.5632030779293461 0.24973764732192272
1473 0.615639405926365 0.38350884379829164
1474 0.9447528483546025 0.656219306223793
1475 0.3512492840411163 0.2123276546130357
1476 0.39783105076503056 0.002707118253847396
1477 0.9560320693439582 0.31817301118957886
1478 0.034221416260303616 0.7168578588806905
1479 0.6503886977109707 0.9379820880321829
1480 0.20070299129652958 0.37165754434494724
1481 0.5475433958889817 0.8043039070856297
1482 0.24701148356611669 0.4043459707254251
1483 0.483509422803999 0.8953089664821793
1484 0.36557392854220094 0.1197138626589036
1485 0.5083128091600385 0.5728763847172285
1486 0.17535129390656912 0.5368604961391302
1487 0.787746469718579 0.7672878200075811
1488 0.2407824720146402 0.47560511476874756
1489 0.4948336154158238 0.336467463884242
1490 0.3636546451206435 0.9858417393082984
1491 0.04769033676111856 0.19015488151023252
1492 0.2005646819200464 0.027862353100876258
1493 0.11682986161688669 0.9679363001018286
1494 0.8138311169133153 0.09943056378624315
1495 0.5577568428611566 0.4287997832661672
1496 0.04416316307318635 0.997917648595693
1497 0.05853232942758391 0.8966440848155101
1498 0.8262765224328632 0.4797907118565071
1499 0.40473913369434256 0.1780053519001018
1500 0.30437564692848285 0.22295308901008482
1501 0.21703445298763246 0.7048029174000173
1502 0.5949402703618332 0.052228729891308556
1503 0.9137785222041941 0.5504000165924454
1504 0.8176459670110908 0.07725588247025184
1505 0.830873395066825 0.8464318705526142
1506 0.5749746883031337 0.04146805371844842
1507 0.11959813539514885 0.3597056942975677
1508 0.09926546019809901 0.04124060712255817
1509 0.28512047884525693 0.7188526679974233
1510 0.07057157176206552 0.17369586771484324
1511 0.4096117039799566 0.6612728927699527
1512 0.15827021650352546 0.8426441061943801
1513 0.1772640049361689 0.29898435856063776
1514 0.36597923839509683 0.17678238060302998
1515 0.825779475539068 0.38074926278492394
1516 0.4010000015473967 0.9745550125860927
1517 0.570386889216295 0.8890607569192849
1518 0.6453194531487669 0.45676035233300694
1519 0.36991861879694565 0.390402756397796
1520 0.8120067325835104 0.16766335521781905
1521 0.12894895389686745 0.414007560183287
1522 0.12450039720239225 0.9084204526129168
1523 0.21732260227517552 0.8250542887882903
1524 0.4408664585238642 0.46805683111521246
1525 0.06864666145606335 0.49678660715764666
1526 0.5368420056126764 0.22809483084102455
1527 0.626406484117124 0.3286297255851315
1528 0.16908384233694418 0.14409831610503643
1529 0.07303356355006019 0.44333898301292507
1530 0.4408904917681806 0.6386319942850595
1531 0.06197543869852451 0.06958335526064896
1532 0.9118578235949713 0.0679270221805287
1533 0.6950159459041312 0.9879410067960727
1534 0.411293250601821 0.3759224404867647
1535 0.5562632456373379 0.4361490699112861
1536 0.6468687966352968 0.08153990574093506
1537 0.22884345422828978 0.3730930004874914
1538 0.14482851953401832 0.7965283602930062
1539 0.6391031972328733 0.015680090439276873
1540 0.4161132764266561 0.5660145460031842
1541 0.9794960845609255 0.7269511641804388
1542 0.6857846418032676 0.02605098124020877
1543 0.6676832514348912 0.842345850350707
1544 0.748509089395655 0.3812243701477315
1545 0.4605414709804675 0.9385815741387974
1546 0.2348898278137399 0.04127134256119258
1547 0.5486468168021463 0.3938944103654496
1548 0.46240584720791067 0.6942497940151852
1549 0.5411576296482483 0.6881763487857686
1550 0.4696645092924361 0.747770727865124
1551 0.4400918695065499 0.5690294221711297
1552 0.5940899973181011 0.25019858501842873
1553 0.8095021334274154 0.9406711048558367
1554 0.24350964191766522 0.6987345763176317
1555 0.8621138148967571 0.09542665351639046
1556 0.7304090990637562 0.5031046635236922
1557 0.7267258695398164 0.02508603862116532
1558 0.4510209224564762 0.36093639819339807
1559 0.7805043349794888 0.02183231162209809
1560 0.7509456646572436 0.5022360323458948
1561 0.18263495651665307 0.9142624790016298
1562 0.8967157794938204 0.38496058813585976
1563 0.5481515544389033 0.4626727166100636
1564 0.8560379915840232 0.6297779027681975
1565 0.27936156165657366 0.10289811383066982
1566 0.030504499936328422 0.46575047286064786
1567 0.43982772453852204 0.10817156773444181
1568 0.061331325312745544 0.03993555312709218
1569 0.018697739136792735 0.01690040193424447
1570 0.2604852417704938 0.7348500859508541
1571 0.9566860757668462 0.29376455770051557
1572 0.589068546826878 0.04010592762696996
1573 0.8393467436862679 0.5691439297392635
1574 0.7386509455809943 0.5995171001470184
1575 0.15177200536999613 0.23636965090674245
1576 0.5345625461321787 0.5005984499991754
1577 0.5966793874264571 0.7256915952907217
1578 0.8712639156985993 0.565274326428184
1579 0.3927129653895214 0.8878446410034034
1580 0.16326299372047426 0.17308877761025676
1581 0.6414170024493715 0.7122333730216416
1582 0.2574689703972082 0.4561814665755912
1583 0.5811505645319616 0.848625444609701
1584 0.9441392269618104 0.1466814271985707
1585 0.7048383988888404 0.870262475924365
1586 0.5037871719650339 0.7821526507664778
1587 0.29471402746163855 0.42104446212611446
1588 0.878326869290971 0.015380521365449207
1589 0.36069965092622736 0.985244725653958
1590 0.14792751521481562 0.10634116789290571
1591 0.33624000621491534 0.689491717397282
1592 0.9150645683338412 0.7453465727646684
1593 0.6386776920764994 0.7258314917419921
1594 0.025038970789462378 0.03232674752745057
1595 0.49058551844363585 0.4934452761871203
1596 0.5226537196517994 0.4161152776664373
1597 0.30510950544121607 0.9871598676008032
1598 0.4014111208651642 0.5479950852679012
1599 0.5101496311973278 0.9066690924448259
1600 0.6928581538445912 0.7471221679975586
1601 0.11495531646339119 0.8700200337696729
1602 0.17983782785920044 0.583980521149791
1603 0.791635884209647 0.5883977286929192
1604 0.3727615916970418 0.27186284748543244
1605 0.03030535066762252 0.1373966801652945
1606 0.12771619188990335 0.8821040246485176
1607 0.24886578256881542 0.483772372221685
1608 0.773960095675257 0.39095530347046403
1609 0.8181972450062885 0.9941260677627951
1610 0.10426010745589309 0.4881918403669161
1611 0.5887401708669099 0.11349428351318558
1612 0.313502177802934 0.5293880011918136
1613 0.5919899139160701 0.773088890860818
1614 0.09815250946104381 0.07395033445132138
1615 0.5675573227457457 0.13445864452167255
1616 0.038911824639996984 0.11562227395566116
1617 0.8772401840425316 0.5057992278580856
1618 0.5709818981615034 0.03622408840988811
1619 0.1688621128893153 0.8961444064795558
1620 0.7000716690403349 0.2913202214297782
1621 0.042631959785155105 0.11031178938317698
1622 0.6866885831371831 0.10201026714664041
1623 0.5561649509721468 0.7199004270682449
1624 0.4712905399578048 0.9728385076432201
1625 0.2810367337320959 0.4766938181532452
1626 0.5547465012623607 0.829251067423945
1627 0.29216918342901554 0.4173454581291669
1628 0.1672281493864366 0.4699377986694643
1629 0.7962030076415166 0.8625494573050609
1630 0.17253292879225446 0.8645594448478349
1631 0.7101788236049976 0.3002569757265372
1632 0.4298986568835427 0.4585884640262048
1633 0.020682141641592544 0.9253493680062675
1634 0.6377956351164648 0.5192781634709485
1635 0.3109307965270649 0.8024841828024193
1636 0.0337180913385835 0.11956447977614526
1637 0.92361438648196 0.02383566188357189
1638 0.17536288328499283 0.24333972254269587
1639 0.20398240541260493 0.11039832456290066
1640 0.21525105485013496 0.507650604755691
1641 0.014565752825819622 0.03277229593804831
1642 0.4500474357088806 0.6263351917278711
1643 0.3057030579528268 0.06699617883263886
1644 0.4998132957511361 0.7968365770034146
1645 0.008700201547556463 0.9764783427746391
1646 0.17228541558744082 0.0655867208261357
1647 0.5498171620143856 0.416981525552247
1648 0.603369325424858 0.9064430144737843
1649 0.6301129374458273 0.6235953797909113
1650 0.07873405875909945 0.5945958397413991
1651 0.787854040578045 0.01882914749706488
1652 0.7418423333661346 0.4044306628139931
1653 0.964040397096612 0.8285059586528412
1654 0.1828472129210853 0.9975237900298157
1655 0.38379638668804983 0.18178623782306713
1656 0.2163554570986359 0.579949962225274
1657 0.04735175203858588 0.38675692705190257
1658 0.005774659319492614 0.5544383377776017
1659 0.6945298266738374 0.24081940183712747
1660 0.0034145336498973 0.5815115991120902
1661 0.8540811451088471 0.07989803556154706
1662 0.25152826210073653 0.7966894849301351
1663 0.9211659698324447 0.38788728993539157
1664 0.3559234756893832 0.9596659238561102
1665 0.6497446643104834 0.29996198900006477
1666 0.7096096349964274 0.677902934928411
1667 0.5827861569209056 0.47751181199679404
1668 0.3680803214374775 0.4688149498739217
1669 0.8641345277331512 0.5663457822841651
1670 0.7929366391963949 0.5216370269327063
1671 0.8399025844766667 0.4164338574543991
1672 0.7129345720451069 0.3684202236329017
1673 0.710270851116212 0.6318615544865597
1674 0.7930508615580555 0.532620634416854
1675 0.4539649970797631 0.7298434313647559
1676 0.44176942522001506 0.4256233844771298
1677 0.6603750722298249 0.9791505468993964
1678 0.3400811753020081 0.3791314428580589
1679 0.8999689794383103 0.4836328856399572
1680 0.7953652357974902 0.16471011677332892
1681 0.8962898056849908 0.06208203482605068
1682 0.30291493512379486 0.823144369081625
1683 0.5476978334369773 0.9195447686842727
1684 0.3461788799279417 0.11794444294651196
1685 0.894733905479123 0.21199609600434444
1686 0.8686176270993363 0.027952188802222833
1687 0.7639378992416782 0.8337402021894472
1688 0.024857130927086413 0.9862410133234369
1689 0.5469797429141285 0.31387940575141393
1690 0.4423247826146566 0.30282144079027573
1691 0.21348334431090255 0.9256464427104771
1692 0.2245110981732552 0.00824450921975095
1693 0.43961045179693237 0.31251027882222804
1694 0.47155753047574667 0.355118755696438
1695 0.5536330586743767 0.45316351187516335
1696 0.4786895847561491 0.09957492075348151
1697 0.6860966282107742 0.5143502698525744
1698 0.928487426924409 0.26185889460281
1699 0.37634013685885637 0.15436545302621685
1700 0.010944358110446806 0.5289714524897611
1701 0.02334051781626656 0.4468356073296107
1702 0.5765278406296845 0.9644474167272278
1703 0.680574555609564 0.9700393208668012
1704 0.874399198934217 0.41498436542036665
1705 0.797296261125973 0.712297647179687
1706 0.35316253738589687 0.7791492992306023
1707 0.3879379015743757 0.9123402544071322
1708 0.6768584222871686 0.00833492680370762
1709 0.981516204475033 0.6091822642878654
1710 0.9484706072288955 0.6234363359354079
1711 0.7009751040080374 0.9678105507669286
1712 0.27469952889467697 0.4485875611025544
1713 0.5774020879046536 0.4882084668338301
1714 0.9748008647978871 0.9982476578321214
1715 0.5500522336921433 0.6416805248618861
1716 0.5720969576219032 0.11452595809143606
1717 0.13496400788359209 0.7066402844052105
1718 0.4200966458108515 0.5075969497719107
1719 0.8135032221573341 0.2140065448132641
1720 0.7807913779845839 0.12208008601671538
1721 0.7684768744821187 0.32751462423954025
1722 0.926402955137334 0.002424090305294224
1723 0.9223359269015396 0.17255910373869998
1724 0.9852171626595961 0.06724749406264274
1725 0.9383531550615318 0.8422951605292229
1726 0.5321300856725403 0.599407868065353
1727 0.39649972043309667 0.6629686076177081
1728 0.9750791789173525 0.8754562193189078
1729 0.9569490876756298 0.8361291333991704
1730 0.18590710129379662 0.71702680809312
1731 0.093422096442072 0.6786887300313131
1732 0.9700950315528291 0.6711491929767394
1733 0.18593003373264194 0.8509031606087998
1734 0.4973924316470699 0.1639328905466617
1735 0.5865194477048586 0.13192255964510036
1736 0.8069406725193906 0.7772928335720404
1737 0.6192014485660879 0.5453109873235799
1738 0.2901990349443566 0.9149683137811809
1739 0.8182347114725024 0.7805937468575311
1740 0.8170686211059157 0.7393632927672844
1741 0.9728383741888328 0.2486922884485978
1742 0.7295989419212912 0.16689232003730126
1743 0.03185496412603861 0.742512206228953
1744 0.9902831457197324 0.19868047043492787
1745 0.6913277084124754 0.8122887394546738
1746 0.573969198630613 0.06082027439073512
1747 0.5571221064573169 0.8254419126654594
1748 0.7725550778886879 0.7567764383373634
1749 0.8939188045531261 0.24424051421016246
1750 0.5943362352593904 0.8055333922305974
1751 0.8491024377219104 0.10938331385043565
1752 0.95527183387986 0.9766332810707459
1753 0.7094929547061947 0.6390974458870389
1754 0.38538493684410036 0.587630911234692
1755 0.04064497543322032 0.8181335173503737
1756 0.9889816376615281 0.5686650725360675
1757 0.9523619789449276 0.07310528145443884
1758 0.7555381729081007 0.9804485993565084
1759 0.5735013368773536 0.9372637734312321
1760 0.4244549473004472 0.6825912189064557
1761 0.6478430208703748 0.36785735105277895
1762 0.8807603533316567 0.5703220710120708
1763 0.9960369365526272 0.6737792274059595
1764 0.8251079603959914 0.03591487199828458
1765 0.7137099649967347 0.331040216148232
1766 0.3950035695708076 0.6491351021731143
1767 0.7205447536953387 0.9547440421669561
1768 0.23018507062636018 0.8505331649539085
1769 0.1326727258135213 0.08563904346225326
1770 0.29002247769679435 0.2748358014432567
1771 0.8812766912891387 0.6353262658631036
1772 0.4645888605955991 0.41362867968231953
1773 0.2660791718612625 0.32283316767635706
1774 0.9219505922686583 0.056544434757911266
1775 0.04281878037077813 0.6513678928155808
1776 0.5715424008007743 0.43740152959939693
1777 0.8454899762934498 0.84860098127602
1778 0.6066969279615593 0.004844258517058941
1779 0.6614954092847906 0.3456367075382437
1780 0.7741188196060378 0.06242874807495746
1781 0.45408726698051793 0.7961593687377286
1782 0.14938107626654318 0.3804315381356076
1783 0.15248141382474367 0.9022550516274868
1784 0.09257112867777306 0.8230878197997802
1785 0.31153405607326734 0.3570773256184667
1786 0.08579911921888472 0.6310023752587737
1787 0.5397363072717567 0.07704792067062771
1788 0.9894008764549236 0.20932153484522376
1789 0.5189891301084193 0.6112556583599532
1790 0.3016116739268422 0.34116198775313245
1791 0.9054601838290349 0.6330108199985139
1792 0.49561587024074416 0.0944268926687577
1793 0.7716425097447612 0.3553343371815926
1794 0.3318426543985803 0.19705834676696654
1795 0.9271771139982167 0.8564413964730072
1796 0.32329082430294576 0.6615470922601182
1797 0.06794174522106466 0.30799136848464503
1798 0.2354872699020596 9.72410160194892e-05
1799 0.945457283791494 0.6485119673831939
1800 0.06754729402330673 0.08690459570898146
1801 0.961349105590087 0.05906804812274846
1802 0.6770551433966886 0.08640257007700702
1803 0.12319481038507485 0.5917343316577905
1804 0.3098238766647583 0.7938463224812826
1805 0.8648218040852927 0.9571550988781033
1806 0.4163281225608543 0.17846487453498283
1807 0.010046387981461069 0.7294888253460441
1808 0.3370325554951755 0.30493763488272707
1809 0.8191529713448948 0.8064695491865534
1810 0.2356957800556828 0.17749059770901598
1811 0.06990574190961751 0.1398425387697103
1812 0.1138237785940821 0.6685376355651326
1813 0.4080197099423374 0.3777492883609701
1814 0.8126011677881001 0.34652474837972147
1815 0.9045407935382277 0.34235528480626887
1816 0.8913857581418916 0.400267360523508
1817 0.09764680283293903 0.6637477673140271
1818 0.5035797067713157 0.19176472144117263
1819 0.9603749910558493 0.43719472990960095
1820 0.2186554389978187 0.21964079713724638
1821 0.8684790278655733 0.6686463226599048
1822 0.7721674564376277 0.619636002574129
1823 0.04127068625036823 0.11970975498361736
1824 0.8739250587392268 0.7780530971375402
1825 0.8068509211559001 0.9152436584761465
1826 0.7913281685486193 0.5284293682602608
1827 0.05425764916710141 0.003969368916762583
1828 0.03462717991458342 0.7975894929982382
1829 0.7682606457627927 0.29519485602348194
1830 0.2403290430235272 0.4721388534837949
1831 0.33498994463224085 0.590818094606326
1832 0.33301470863747507 0.8002417810634217
1833 0.860633916638828 0.882972422093024
1834 0.9622773773510834 0.7310169034040951
1835 0.030274463760858072 0.7606704587253538
1836 0.48665466145532876 0.6641451187608817
1837 0.4402352621751927 0.20424297735354824
1838 0.5449215396411156 0.12994969967578496
1839 0.8171362323836379 0.09241442257535315
1840 0.39805983321296057 0.0522587720068356
1841 0.23025962278034173 0.2977639394848023
1842 0.565970908876744 0.9536220197871347
1843 0.3961732949062028 0.0383124669653222
1844 0.026915505612161272 0.5287525511088886
1845 0.8723319647053513 0.16229017954002345
1846 0.7077050165121416 0.21524417662948991
1847 0.2887382673168922 0.2737987574011451
1848 0.7430860239878866 0.8161881721346036
1849 0.1964156042660553 0.48842691154141527
1850 0.7956854473212519 0.6715676242034229
1851 0.6364555671932147 0.03837225494080887
1852 0.16210706805739872 0.21249657456316307
1853 0.38203074856467534 0.2013567860914265
1854 0.11841529074490809 0.4394538088059602
1855 0.9316022432722432 0.26789882502689766
1856 0.3954195113051989 0.8805682888833019
1857 0.8849221842674936 0.22414055410577716
1858 0.34619575060534724 0.8406534068070183
1859 0.4194149017610841 0.1688493642779576
1860 0.8482509544084237 0.10690068813112497
1861 0.11069975862554216 0.8682322289421304
1862 0.6535977748567968 0.48018584013223975
1863 0.6854051328083108 0.33369026776422506
1864 0.17199846408660158 0.966151331939571
1865 0.6231762950792936 0.6039442185052367
1866 0.3753000060117391 0.7792755750138755
1867 0.4343434257480374 0.47328916041336044
1868 0.6343297250885295 0.997380822018829
1869 0.7967673450001616 0.7792400680151044
1870 0.40443930242608495 0.21073583894478976
1871 0.8033018103079914 0.07126224358480004
1872 0.26957005803767975 0.7980747058647237
1873 0.18902926891201643 0.07978844946147012
1874 0.64319259497324 0.09890030138436023
1875 0.15467192455159906 0.027832006980713753
1876 0.319569256936477 0.3309233405976536
1877 0.9492070073097902 0.9702223045949906
1878 0.342890494227583 0.15908829474562092
1879 0.6580965996906506 0.9704144297458657
1880 0.3163334064063288 0.22735126058148936
1881 0.2696165313496033 0.06685154060987297
1882 0.6942789679239875 0.6454981245584341
1883 0.29755955563368064 0.3581503479064405
1884 0.060721529543396824 0.2840363174066054
1885 0.9349860947381518 0.7528786036641657
1886 0.21547214762658984 0.44448068211840075
1887 0.7265736002769448 0.2899952051125393
1888 0.8241859751097312 0.18520311712541593
1889 0.1788933878817215 0.0638732487179402
1890 0.577866661822661 0.1617925059006825
1891 0.9224168018695583 0.19616313696777588
1892 0.32394339319832044 0.7378865998449657
1893 0.5182126743909492 0.31493227387553535
1894 0.382014388725365 0.8670959309161292
1895 0.8001744021204955 0.6595033684565945
1896 0.3417797231154549 0.4123073910123062
1897 0.43703627748491225 0.502517264526579
1898 0.5003619822194739 0.5010270413629898
1899 0.3604170646336652 0.20502253884869048
1900 0.13120962864221486 0.021685793689351862
1901 0.4143732469931578 0.22512760734772264
1902 0.545579757740724 0.1178011458472421
1903 0.7387003375210717 0.004753529422301783
1904 0.6077020745948084 0.16168270909739346
1905 0.44706746551290477 0.9737836310148774
1906 0.5405539190710444 0.6028526929379275
1907 0.2414366087428319 0.8187078785692863
1908 0.23921732987031175 0.05041286101360898
1909 0.7839677843919417 0.06705517961413421
1910 0.3666011909922672 0.1556310923423584
1911 0.6278959935269169 0.6995961975718401
1912 0.456997007527973 0.6854347427703841
1913 0.9630745022948157 0.45688771792944005
1914 0.787270126632837 0.1601572291804778
1915 0.7873986111474875 0.8600789492637265
1916 0.02735638894160508 0.20106739054678402
1917 0.09232603395105166 0.022262350195106917
1918 0.02776677419568585 0.31733217182059703
1919 0.21873054197914332 0.8902683572003075
1920 0.7485916752459877 0.40298909363840574
1921 0.7742227876997962 0.3117823098464454
1922 0.11671786086447433 0.577632118521833
1923 0.8208020466361062 0.24794350278895183
1924 0.011648749406975023 0.3449210732731317
1925 0.20591051135056493 0.9867268068969351
1926 0.05502142681516142 0.9435666110386468
1927 0.24801736603686608 0.4895565271275021
1928 0.7007329235736176 0.5853641653161508
1929 0.11361505072457534 0.3764447433600038
1930 0.11139743377156364 0.14131295054934245
1931 0.3516190123542072 0.27714685603444444
1932 0.9970119275299211 0.5241850290088289
1933 0.45775672650656307 0.05443313690162299
1934 0.467530940548581 0.7002603110507412
1935 0.12177775695652038 0.7098164990303428
1936 0.5451982460177804 0.4047503972511677
1937 0.04308094467913548 0.6655434765723595
1938 0.4874224259106965 0.6896914231131438
1939 0.9781665927670424 0.8023969310303865
1940 0.7031869121322076 0.8056681244749526
1941 0.8504576496016275 0.5481694964886609
1942 0.6661151839696611 0.6763707916973805
1943 0.031037500460049605 0.1941660237690387
1944 0.65538849975058 0.5769567228748551
1945 0.052567418928672005 0.2090390554541749
1946 0.7629758560678066 0.6133213532389616
1947 0.5925988387945437 0.5384737345174802
1948 0.7795497229519033 0.8501597296394594
1949 0.34956663636121366 0.9713802076792091
1950 0.10619010534133244 0.1997030596706627
1951 0.8063683680829639 0.40923218333413525
1952 0.2196034827322918 0.1061607240560678
1953 0.291455117380814 0.9427923132366338
1954 0.7513648563122209 0.8318542941287292
1955 0.5067544708560392 0.2478494516424803
1956 0.28724212017537587 0.3122348321671473
1957 0.12321382365929678 0.7794182540698052
1958 0.7704495149585809 0.6873834096019217
1959 0.27871244282437324 0.6698480829555232
1960 0.06494059030743182 0.9646749909951808
1961 0.12106536496308373 0.3801362581389359
1962 0.2086207261334293 0.33471945256825997
1963 0.35530623200918776 0.5957122914697403
1964 0.10525344864128583 0.830910346936769
1965 0.2056712235803524 0.5912008366490467
1966 0.7700352358590796 0.9161162235823108
1967 0.37637871519726707 0.827631694644781
1968 0.28217130302430404 0.554640932424187
1969 0.6047022815072388 0.013021901318723161
1970 0.9846617011356145 0.3638993327013993
1971 0.3800346784820374 0.8229264063808047
1972 0.41619164355012417 0.2032168221929147
1973 0.09312520037243355 0.17643439883075418
1974 0.48068617436444505 0.06750208610798625
1975 0.9818471702001789 0.326086433421762
1976 0.599036838178112 0.9207793468428614
1977 0.8577308140745684 0.22160594535845213
1978 0.0158165791577195 0.8314769169502467
1979 0.7986455689273947 0.1654837555648212
1980 0.7029376135208528 0.9551485908640702
1981 0.2152583434973968 0.06766596416514004
1982 0.9493647579170961 0.7815974478216067
1983 0.11367419827714087 0.46980412231250857
1984 0.9099023849572725 0.8944071254630209
1985 0.33319068917410644 0.5554726164624715
1986 0.29950632115798936 0.645381293797341
1987 0.993497504862867 0.3299845635620817
1988 0.7836569795765261 0.9050757890141501
1989 0.2377502833065377 0.7346614597473528
1990 0.4385806802711869 0.6440874639519075
1991 0.6292819269331138 0.19359009995991006
1992 0.7054411538509585 0.394482486724809
1993 0.880246331546851 0.7545492860729844
1994 0.8996651846702978 0.1502110467077925
1995 0.49306976599112085 0.9220993399898099
1996 0.3340882659175013 0.8856579141849151
1997 0.3217845327062523 0.6777358997456862
1998 0.9237265813446748 0.9686497815441282
1999 0.9603977840559323 0.7641308379797397
2000 0.5893257214543604 0.19585033551122977
2001 0.932617388761195 0.10967489439055433
DEMAND_SECTION
1 0
2 8
3 6
4 2
5 7
6 8
7 2
8 4
9 8
10 9
11 3
12 7
13 6
14 2
15 2
16 2
17 1
18 7
19 5
20 6
21 4
22 4
23 4
24 3
25 7
26 6
27 2
28 5
29 5
30 9
31 8
32 7
33 1
34 4
35 9
36 8
37 5
38 3
39 9
40 3
41 5
42 1
43 3
44 8
45 3
46 9
47 6
48 5
49 4
50 7
51 2
52 1
53 3
54 5
55 8
56 1
57 7
58 5
59 1
60 5
61 4
62 5
63 4
64 6
65 6
66 5
67 9
68 8
69 6
70 8
71 7
72 7
73 4
74 2
75 4
76 3
77 2
78 1
79 8
80 2
81 1
82 1
83 2
84 8
85 5
86 4
87 1
88 6
89 3
90 2
91 2
92 8
93 6
94 7
95 5
96 8
97 5
98 6
99 2
100 6
101 4
102 1
103 5
104 6
105 3
106 5
107 1
108 3
109 1
110 3
111 4
112 4
113 2
114 4
115 4
116 7
117 8
118 5
119 8
120 1
121 2
122 6
123 3
124 9
125 8
126 2
127 3
128 1
129 3
130 9
131 1
132 1
133 8
134 6
135 4
136 8
137 8
138 2
139 9
140 2
141 4
142 7
143 8
144 8
145 3
146 7
147 8
148 6
149 5
150 1
151 5
152 2
153 3
154 9
155 5
156 3
157 7
158 5
159 3
160 9
161 1
162 7
163 1
164 2
165 1
166 3
167 5
168 5
169 4
170 9
171 3
172 4
173 1
174 5
175 5
176 7
177 4
178 2
179 3
180 6
181 1
182 7
183 8
184 7
185 5
186 8
187 7
188 7
189 5
190 8
191 2
192 7
193 6
194 5
195 2
196 4
197 8
198 4
199 4
200 7
201 5
202 6
203 8
204 4
205 9
206 1
207 2
208 3
209 1
210 9
211 4
212 6
213 9
214 9
215 4
216 3
217 8
218 4
219 9
220 6
221 9
222 6
223 2
224 4
225 9
226 1
227 4
228 3
229 7
230 8
231 9
232 8
233 5
234 9
235 8
236 2
237 5
238 2
239 5
240 2
241 4
242 6
243 1
244 2
245 6
246 8
247 5
248 4
249 7
250 3
251 1
252 3
253 2
254 1
255 8
256 1
257 5
258 8
259 7
260 9
261 2
262 9
263 4
264 3
265 7
266 6
267 2
268 1
269 5
270 4
271 2
272 6
273 7
274 8
275 2
276 6
277 9
278 2
279 1
280 5
281 2
282 2
283 5
284 1
285 7
286 6
287 5
288 6
289 3
290 2
291 4
292 2
293 1
294 8
295 8
296 4
297 2
298 9
299 6
300 1
301 2
302 8
303 7
304 1
305 6
306 5
307 2
308 3
309 8
310 4
311 9
312 9
313 1
314 4
315 1
316 8
317 3
318 4
319 9
320 1
321 9
322 3
323 7
324 5
325 5
326 7
327 4
328 5
329 7
330 5
331 4
332 8
333 9
334 7
335 3
336 6
337 8
338 3
339 3
340 8
341 4
342 5
343 3
344 4
345 9
346 4
347 6
348 2
349 9
350 8
351 2
352 5
353 5
354 6
355 6
356 9
357 7
358 1
359 8
360 6
361 8
362 7
363 8
364 4
365 1
366 4
367 3
368 7
369 9
370 2
371 9
372 9
373 8
374 5
375 5
376 8
377 7
378 7
379 3
380 7
381 4
382 7
383 3
384 1
385 3
386 8
387 6
388 4
389 6
390 3
391 2
392 7
393 3
394 4
395 9
396 3
397 1
398 9
399 7
400 7
401 7
402 2
403 2
404 9
405 5
406 1
407 2
408 3
409 1
410 2
411 5
412 4
413 9
414 8
415 6
416 9
417 2
418 8
419 8
420 7
421 5
422 2
423 2
424 7
425 7
426 2
427 1
428 6
429 5
430 7
431 1
432 7
433 7
434 6
435 2
436 2
437 2
438 8
439 7
440 9
441 9
442 2
443 2
444 7
445 7
446 3
447 1
448 9
449 7
450 6
451 7
452 2
453 5
454 2
455 4
456 1
457 9
458 7
459 9
460 6
461 3
462 3
463 3
464 3
465 8
466 9
467 2
468 4
469 2
470 1
471 4
472 3
473 1
474 9
475 9
476 6
477 2
478 8
479 5
480 8
481 4
482 5
483 9
484 2
485 1
486 9
487 2
488 8
489 5
490 8
491 5
492 8
493 3
494 1
495 8
496 6
497 1
498 4
499 3
500 5
501 2
502 1
503 2
504 8
505 8
506 5
507 3
508 5
509 5
510 5
511 5
512 7
513 7
514 7
515 1
516 9
517 9
518 5
519 7
520 5
521 7
522 1
523 1
524 2
525 4
526 7
527 8
528 9
529 6
530 2
531 8
532 2
533 4
534 5
535 9
536 2
537 1
538 3
539 2
540 7
541 5
542 4
543 3
544 7
545 2
546 3
547 8
548 2
549 5
550 3
551 4
552 4
553 9
554 3
555 8
556 4
557 1
558 8
559 3
560 6
561 3
562 6
563 6
564 7
565 5
566 7
567 2
568 2
569 2
570 8
571 9
572 6
573 3
574 6
575 8
576 8
577 9
578 4
579 6
580 6
581 9
582 8
583 6
584 9
585 1
586 9
587 7
588 4
589 1
590 6
591 4
592 2
593 6
594 9
595 3
596 6
597 4
598 3
599 9
600 2
601 8
602 1
603 1
604 5
605 1
606 2
607 7
608 4
609 6
610 4
611 2
612 4
613 1
614 4
615 6
616 3
617 7
618 9
619 4
620 1
621 4
622 6
623 1
624 8
625 9
626 2
627 7
628 9
629 3
630 6
631 5
632 3
633 4
634 8
635 9
636 4
637 8
638 2
639 2
640 2
641 2
642 8
643 3
644 6
645 1
646 3
647 5
648 5
649 4
650 3
651 6
652 9
653 2
654 9
655 1
656 4
657 2
658 1
659 2
660 7
661 6
662 1
663 3
664 8
665 4
666 7
667 6
668 3
669 2
670 3
671 8
672 8
673 3
674 7
675 4
676 7
677 2
678 1
679 9
680 9
681 8
682 2
683 7
684 7
685 6
686 5
687 5
688 5
689 5
690 2
691 4
692 7
693 1
694 4
695 6
696 2
697 6
698 7
699 4
700 2
701 1
702 2
703 6
704 6
705 4
706 3
707 7
708 8
709 3
710 9
711 1
712 5
713 7
714 2
715 3
716 9
717 2
718 2
719 3
720 3
721 8
722 1
723 4
724 3
725 5
726 6
727 8
728 3
729 5
730 6
731 3
732 6
733 1
734 4
735 6
736 7
737 9
738 3
739 8
740 1
741 9
742 1
743 4
744 4
745 2
746 1
747 5
748 7
749 8
750 3
751 2
752 2
753 9
754 5
755 7
756 8
757 1
758 2
759 2
760 3
761 4
762 4
763 6
764 3
765 8
766 4
767 1
768 1
769 3
770 4
771 8
772 8
773 6
774 8
775 9
776 7
777 9
778 8
779 7
780 5
781 4
782 7
783 7
784 3
785 1
786 2
787 6
788 6
789 7
790 3
791 9
792 4
793 4
794 1
795 1
796 5
797 4
798 8
799 3
800 2
801 4
802 9
803 6
804 3
805 6
806 1
807 7
808 7
809 8
810 4
811 5
812 2
813 3
814 7
815 7
816 7
817 7
818 6
819 7
820 9
821 6
822 5
823 8
824 8
825 6
826 7
827 4
828 7
829 3
830 3
831 5
832 5
833 5
834 2
835 9
836 2
837 7
838 5
839 5
840 8
841 7
842 3
843 7
844 5
845 4
846 5
847 2
848 9
849 9
850 8
851 9
852 8
853 1
854 2
855 9
856 9
857 5
858 1
859 2
860 4
861 9
862 1
863 7
864 6
865 5
866 8
867 2
868 4
869 4
870 1
871 4
872 8
873 5
874 5
875 7
876 6
877 2
878 6
879 5
880 6
881 9
882 2
883 6
884 1
885 5
886 8
887 3
888 4
889 6
890 1
891 7
892 7
893 4
894 9
895 6
896 8
897 5
898 5
899 3
900 7
901 4
902 4
903 9
904 3
905 6
906 1
907 8
908 6
909 9
910 6
911 9
912 7
913 3
914 4
915 3
916 4
917 8
918 1
919 3
920 7
921 5
922 8
923 6
924 2
925 8
926 9
927 3
928 4
929 4
930 4
931 6
932 8
933 6
934 1
935 9
936 2
937 7
938 8
939 5
940 2
941 4
942 8
943 6
944 1
945 9
946 9
947 5
948 9
949 4
950 8
951 4
952 7
953 2
954 3
955 9
956 7
957 6
958 7
959 8
960 4
961 6
962 3
963 3
964 4
965 7
966 7
967 1
968 6
969 8
970 8
971 6
972 5
973 1
974 6
975 7
976 3
977 5
978 1
979 7
980 7
981 4
982 6
983 9
984 2
985 8
986 6
987 2
988 1
989 5
990 7
991 1
992 1
993 8
994 4
995 8
996 5
997 1
998 8
999 2
1000 1
1001 8
1002 5
1003 7
1004 4
1005 1
1006 4
1007 8
1008 3
1009 2
1010 4
1011 1
1012 1
1013 7
1014 6
1015 1
1016 4
1017 8
1018 8
1019 3
1020 1
1021 8
1022 9
1023 7
1024 1
1025 6
1026 3
1027 6
1028 5
1029 5
1030 1
1031 7
1032 1
1033 1
1034 3
1035 5
1036 6
1037 3
1038 6
1039 5
1040 8
1041 1
1042 7
1043 7
1044 7
1045 8
1046 3
1047 1
1048 7
1049 4
1050 2
1051 6
1052 7
1053 6
1054 5
1055 3
1056 5
1057 9
1058 5
1059 2
1060 7
1061 5
1062 7
1063 6
1064 1
1065 9
1066 8
1067 3
1068 6
1069 4
1070 3
1071 3
1072 7
1073 4
1074 2
1075 3
1076 4
1077 3
1078 8
1079 5
1080 5
1081 1
1082 9
1083 7
1084 3
1085 9
1086 3
1087 9
1088 7
1089 4
1090 3
1091 2
1092 1
1093 9
1094 6
1095 4
1096 4
1097 4
1098 7
1099 5
1100 6
1101 2
1102 3
1103 5
1104 6
1105 6
1106 7
1107 9
1108 1
1109 1
1110 2
1111 4
1112 2
1113 7
1114 4
1115 6
1116 8
1117 3
1118 1
1119 3
1120 3
1121 9
1122 9
1123 3
1124 2
1125 9
1126 2
1127 4
1128 3
1129 9
1130 4
1131 5
1132 5
1133 8
1134 7
1135 5
1136 6
1137 3
1138 5
1139 7
1140 7
1141 7
1142 8
1143 9
1144 3
1145 1
1146 8
1147 2
1148 8
1149 9
1150 3
1151 3
1152 3
1153 1
1154 7
1155 4
1156 4
1157 5
1158 1
1159 3
1160 2
1161 2
1162 4
1163 4
1164 5
1165 8
1166 3
1167 9
1168 2
1169 1
1170 1
1171 5
1172 5
1173 3
1174 6
1175 2
1176 3
1177 5
1178 1
1179 7
1180 4
1181 6
1182 1
1183 7
1184 7
1185 5
1186 1
1187 2
1188 7
1189 8
1190 9
1191 9
1192 2
1193 4
1194 9
1195 8
1196 3
1197 6
1198 2
1199 7
1200 7
1201 4
1202 8
1203 6
1204 2
1205 7
1206 1
1207 7
1208 8
1209 6
1210 5
1211 8
1212 7
1213 9
1214 3
1215 3
1216 6
1217 9
1218 8
1219 8
1220 1
1221 3
1222 5
1223 6
1224 2
1225 7
1226 9
1227 7
1228 7
1229 4
1230 7
1231 4
1232 4
1233 5
1234 6
1235 2
1236 9
1237 8
1238 6
1239 2
1240 2
1241 8
1242 4
1243 8
1244 1
1245 2
1246 3
1247 2
1248 1
1249 1
1250 2
1251 9
1252 1
1253 2
1254 3
1255 9
1256 7
1257 6
1258 4
1259 7
1260 2
1261 7
1262 4
1263 9
1264 3
1265 2
1266 5
1267 3
1268 7
1269 5
1270 7
1271 5
1272 1
1273 6
1274 3
1275 7
1276 7
1277 2
1278 6
1279 3
1280 5
1281 4
1282 5
1283 4
1284 7
1285 8
1286 9
1287 5
1288 9
1289 8
1290 1
1291 6
1292 2
1293 5
1294 2
1295 8
1296 1
1297 9
1298 7
1299 7
1300 5
1301 4
1302 8
1303 3
1304 9
1305 3
1306 8
1307 6
1308 7
1309 6
1310 6
1311 3
1312 3
1313 9
1314 4
1315 6
1316 8
1317 9
1318 5
1319 7
1320 2
1321 2
1322 9
1323 1
1324 6
1325 9
1326 7
1327 6
1328 5
1329 8
1330 5
1331 1
1332 6
1333 9
1334 9
1335 3
1336 1
1337 6
1338 6
1339 4
1340 2
1341 9
1342 9
1343 1
1344 6
1345 8
1346 3
1347 4
1348 2
1349 4
1350 6
1351 1
1352 6
1353 8
1354 9
1355 1
1356 8
1357 4
1358 4
1359 5
1360 4
1361 6
1362 1
1363 1
1364 7
1365 5
1366 7
1367 3
1368 3
1369 4
1370 1
1371 3
1372 5
1373 1
1374 1
1375 3
1376 4
1377 7
1378 8
1379 1
1380 4
1381 1
1382 9
1383 3
1384 9
1385 8
1386 1
1387 1
1388 8
1389 6
1390 7
1391 9
1392 3
1393 5
1394 2
1395 9
1396 4
1397 7
1398 4
1399 1
1400 8
1401 4
1402 1
1403 9
1404 1
1405 2
1406 2
1407 2
1408 6
1409 5
1410 1
1411 7
1412 6
1413 2
1414 6
1415 6
1416 6
1417 4
1418 8
1419 4
1420 5
1421 7
1422 3
1423 5
1424 3
1425 6
1426 7
1427 8
1428 4
1429 8
1430 6
1431 8
1432 6
1433 3
1434 2
1435 4
1436 3
1437 1
1438 3
1439 7
1440 9
1441 9
1442 3
1443 8
1444 7
1445 7
1446 4
1447 9
1448 5
1449 2
1450 1
1451 1
1452 4
1453 7
1454 7
1455 2
1456 3
1457 2
1458 1
1459 3
1460 1
1461 2
1462 7
1463 6
1464 7
1465 9
1466 5
1467 3
1468 4
1469 3
1470 9
1471 9
1472 1
1473 5
1474 3
1475 8
1476 9
1477 9
1478 3
1479 7
1480 4
1481 7
1482 3
1483 7
1484 9
1485 4
1486 1
1487 9
1488 7
1489 7
1490 7
1491 4
1492 4
1493 3
1494 8
1495 8
1496 1
1497 4
1498 8
1499 1
1500 8
1501 7
1502 2
1503 8
1504 3
1505 8
1506 9
1507 9
1508 2
1509 8
1510 8
1511 2
1512 8
1513 3
1514 1
1515 4
1516 7
1517 3
1518 2
1519 4
1520 5
1521 3
1522 1
1523 4
1524 4
1525 3
1526 7
1527 9
1528 8
1529 3
1530 9
1531 8
1532 2
1533 3
1534 9
1535 3
1536 9
1537 7
1538 1
1539 3
1540 6
1541 1
1542 5
1543 5
1544 4
1545 5
1546 9
1547 5
1548 1
1549 4
1550 2
1551 7
1552 9
1553 6
1554 7
1555 9
1556 7
1557 8
1558 4
1559 7
1560 4
1561 5
1562 3
1563 2
1564 2
1565 4
1566 6
1567 6
1568 7
1569 2
1570 3
1571 1
1572 5
1573 7
1574 8
1575 4
1576 8
1577 9
1578 3
1579 5
1580 6
1581 1
1582 1
1583 3
1584 1
1585 5
1586 7
1587 8
1588 3
1589 5
1590 3
1591 3
1592 7
1593 3
1594 9
1595 5
1596 9
1597 7
1598 3
1599 4
1600 5
1601 3
1602 4
1603 7
1604 1
1605 7
1606 1
1607 9
1608 8
1609 9
1610 2
1611 8
1612 9
1613 1
1614 9
1615 4
1616 3
1617 8
1618 6
1619 6
1620 8
1621 7
1622 9
1623 2
1624 2
1625 1
1626 6
1627 5
1628 4
1629 7
1630 4
1631 6
1632 1
1633 6
1634 4
1635 5
1636 6
1637 8
1638 1
1639 5
1640 5
1641 5
1642 9
1643 3
1644 2
1645 4
1646 9
1647 9
1648 7
1649 2
1650 8
1651 2
1652 8
1653 6
1654 8
1655 1
1656 6
1657 5
1658 5
1659 7
1660 5
1661 7
1662 7
1663 8
1664 1
1665 9
1666 8
1667 9
1668 3
1669 6
1670 4
1671 9
1672 8
1673 1
1674 9
1675 5
1676 8
1677 4
1678 1
1679 8
1680 7
1681 7
1682 9
1683 1
1684 2
1685 3
1686 3
1687 4
1688 6
1689 7
1690 4
1691 3
1692 3
1693 5
1694 6
1695 4
1696 3
1697 8
1698 3
1699 7
1700 8
1701 5
1702 4
1703 9
1704 1
1705 6
1706 7
1707 4
1708 7
1709 3
1710 1
1711 7
1712 9
1713 4
1714 2
1715 9
1716 5
1717 6
1718 9
1719 1
1720 8
1721 9
1722 4
1723 1
1724 8
1725 1
1726 4
1727 1
1728 9
1729 4
1730 3
1731 2
1732 9
1733 4
1734 6
1735 8
1736 9
1737 2
1738 3
1739 2
1740 6
1741 1
1742 2
1743 3
1744 9
1745 8
1746 2
1747 4
1748 3
1749 1
1750 8
1751 9
1752 7
1753 2
1754 1
1755 2
1756 2
1757 1
1758 4
1759 2
1760 2
1761 1
1762 4
1763 8
1764 7
1765 4
1766 1
1767 6
1768 4
1769 5
1770 1
1771 2
1772 1
1773 3
1774 8
1775 2
1776 8
1777 3
1778 6
1779 3
1780 9
1781 7
1782 5
1783 2
1784 6
1785 9
1786 5
1787 2
1788 1
1789 2
1790 7
1791 5
1792 4
1793 2
1794 3
1795 4
1796 7
1797 3
1798 7
1799 8
1800 4
1801 6
1802 3
1803 1
1804 5
1805 1
1806 1
1807 1
1808 1
1809 5
1810 2
1811 8
1812 4
1813 2
1814 7
1815 5
1816 6
1817 8
1818 8
1819 9
1820 1
1821 5
1822 7
1823 2
1824 6
1825 8
1826 7
1827 7
1828 1
1829 5
1830 5
1831 2
1832 7
1833 1
1834 9
1835 9
1836 7
1837 2
1838 8
1839 8
1840 7
1841 9
1842 8
1843 2
1844 8
1845 6
1846 8
1847 4
1848 5
1849 8
1850 1
1851 9
1852 1
1853 3
1854 6
1855 3
1856 1
1857 7
1858 6
1859 5
1860 1
1861 4
1862 8
1863 8
1864 3
1865 4
1866 2
1867 5
1868 7
1869 9
1870 2
1871 7
1872 1
1873 9
1874 6
1875 8
1876 3
1877 9
1878 8
1879 3
1880 1
1881 3
1882 6
1883 1
1884 1
1885 5
1886 5
1887 2
1888 3
1889 1
1890 3
1891 8
1892 2
1893 7
1894 5
1895 8
1896 1
1897 8
1898 1
1899 1
1900 7
1901 2
1902 7
1903 1
1904 8
1905 5
1906 5
1907 6
1908 1
1909 8
1910 3
1911 7
1912 1
1913 3
1914 2
1915 2
1916 8
1917 3
1918 3
1919 6
1920 8
1921 3
1922 6
1923 8
1924 8
1925 6
1926 2
1927 9
1928 9
1929 1
1930 9
1931 1
1932 3
1933 2
1934 6
1935 3
1936 3
1937 4
1938 8
1939 2
1940 8
1941 9
1942 2
1943 9
1944 1
1945 6
1946 4
1947 9
1948 1
1949 6
1950 9
1951 3
1952 7
1953 7
1954 7
1955 7
1956 3
1957 9
1958 6
1959 8
1960 7
1961 7
1962 8
1963 4
1964 9
1965 7
1966 4
1967 9
1968 9
1969 3
1970 3
1971 9
1972 5
1973 3
1974 4
1975 6
1976 7
1977 2
1978 4
1979 7
1980 3
1981 7
1982 8
1983 8
1984 6
1985 2
1986 3
1987 9
1988 9
1989 6
1990 1
1991 2
1992 6
1993 4
1994 6
1995 3
1996 9
1997 6
1998 1
1999 3
2000 6
2001 3
DEPOT_SECTION
1
-1
EOF
