NAME : gen500_011
COMMENT : uniform customers, demands 1..9, generated by bench/make_tuning_set.py
TYPE : CVRP
DIMENSION : 501
EDGE_WEIGHT_TYPE : EUC_2D
CAPACITY : 100
NODE_COORD_SECTION
1 0.8261339508618081 0.5489654099769545
2 0.6763036489742458 0.6994447631361652
3 0.5007152116041987 0.9056479810418463
4 0.6238416698417439 0.5861083711990943
5 0.7555269474477719 0.7016114789322043
6 0.41147832990246336 0.34157562400786146
7 0.7819256096539393 0.6143510697904938
8 0.32630315890480144 0.6656758377691269
9 0.8031599187820979 0.5453288602767398
10 0.41845771916713526 0.9884231453234303
11 0.8098194320852892 0.22213974586967677
12 0.24595171004098404 0.5751692741709696
13 0.6160922621539917 0.5758684933161319
14 0.10661275929264935 0.2140220376838603
15 0.3715301032269964 0.5930691196215935
16 0.7698556755614848 0.3011301716570286
17 0.529668054912013 0.31440742565910895
18 0.6350793064876573 0.3148768284374529
19 0.617251661585763 0.7133703519843299
20 0.078962349725192 0.3421500810897028
21 0.3845627137107346 0.447053936364034
22 0.29551210287957896 0.5762740491821676
23 0.7062528885685667 0.36513988465028335
24 0.3765274523832651 0.3837954643244529
25 0.3948662407283331 0.061501336495162984
26 0.6727452315274615 0.5459862289216529
27 0.044364359450327906 0.3335023569422443
28 0.7446957217280168 0.15400456392978368
29 0.8924030904471235 0.8452879884403816
30 0.9460656532953009 0.48604981518681867
31 0.986756276021237 0.10502768955813158
32 0.5981651134266571 0.7849067713859352
33 0.2712008854771052 0.6845616768326307
34 0.8177674363008676 0.234949074477819
35 0.36751374602114073 0.6688785839398339
36 0.17652738804693946 0.20061650875553616
37 0.8763147972181988 0.4043294199010007
38 0.21744986922712672 0.005079455022016011
39 0.1297121351492948 0.4955391197757738
40 0.3989005701637707 0.38711582510373954
41 0.1747178696560846 0.640090838176245
42 0.27262772898869403 0.8763191096947655
43 0.5620376567158931 0.1423754841209739
44 0.867172586026141 0.8785907350529761
45 0.8035500485354292 0.11106256450894036
46 0.6977322830062743 0.825925700654397
47 0.5982018659225602 0.22630791101416892
48 0.03477881317523879 0.19248997059989692
49 0.6677210697240232 0.8728773666872782
50 0.34856059696297426 0.9415997043162039
51 0.6405817020616327 0.21743706353989767
52 0.25536294615480726 0.4885981170901842
53 0.15655511722624071 0.08748979010578062
54 0.2228497419181804 0.059190960001395565
55 0.3459076679970692 0.6249568820369796
56 0.10476126300184896 0.3875485837522088
57 0.3277532455192762 0.3534651920528127
58 0.32897596958571407 0.40774836824569216
59 0.6363558973278525 0.19949107181917047
60 0.3469467654924633 0.7867403990202685
61 0.929007096690953 0.07457625014387892
62 0.3637640210465103 0.5572530316310969
63 0.24277032738557158 0.49072250958351504
64 0.8722068347089411 0.11668683634573185
65 0.5634588423902422 0.7699114414498059
66 0.6558188915147968 0.8378497106683683
67 0.6336409269760721 0.07440400486414922
68 0.5362860460515921 0.044019523329160815
69 0.1773049463682388 0.16860693891157996
70 0.44285915453992486 0.8053202647503589
71 0.5019979785480065 0.3384554644976673
72 0.11683614847405743 0.16356151457404344
73 0.8297672572848324 0.5081567658849313
74 0.5029995492418086 0.9009292309905748
75 0.7843141402537743 0.32455353803345266
76 0.3002882199200835 0.9949621828395514
77 0.24450709227571288 0.5942593643641763
78 0.3188627349700609 0.3656548382048931
79 0.12345939589628618 0.7964585376237793
80 0.8530598791932273 0.07482329344131688
81 0.7995142079528992 0.7367193559144699
82 0.3152986670250757 0.6273580630525727
83 0.5532238811782823 0.7927534789235002
84 0.010760974686844116 0.6154469718520075
85 0.7515251271972551 0.49380982061341283
86 0.3695912062765241 0.954200683000293
87 0.2559354854887139 0.06864716801723536
88 0.29398782475137797 0.901280413220477
89 0.33806302702331925 0.019218041249820295
90 0.9430203689466949 0.06735648992816834
91 0.8837998820774412 0.14790494488231754
92 0.43024018047289125 0.8567795090681026
93 0.19516541813362287 0.297684636337919
94 0.6545386938561001 0.46597058734259966
95 0.0675178302535755 0.36614454265623286
96 0.2989024307761504 0.37264899065151924
97 0.9978209827527207 0.21194593062375267
98 0.48390900064161313 0.4761005390141577
99 0.9504724739017512 0.9597244442464096
100 0.046176907842074844 0.8833533236552489
101 0.7856613010505197 0.7981993743908928
102 0.6185789249517835 0.2793502220679881
103 0.22399691099183217 0.41425191781701065
104 0.7241254913078933 0.5724969330965666
105 0.7928458458726502 0.4899813982461616
106 0.013424834779073525 0.20643974525109743
107 0.49983628787653733 0.9822753985219067
108 0.35346809936009926 0.49541477548555946
109 0.039062077560140684 0.6893264044182362
110 0.041747948854904404 0.5983408349901541
111 0.6926731044227181 0.7697692385142394
112 0.28975458520343444 0.4028375499599781
113 0.9997791267360079 0.9213820951247202
114 0.4378645918670553 0.677225303057003
115 0.809617000851953 0.8032733104572541
116 0.7580797144686536 0.6927185529999813
117 0.8896624205323628 0.05787624093048305
118 0.15674734287103176 0.45234303730896996
119 0.6853829526355638 0.5904304280709343
120 0.8265512054311281 0.9795966724934494
121 0.021175789880280238 0.8477141712208852
122 0.24105716486124318 0.5464346329157168
123 0.22180863064867873 0.6201566493336724
124 0.5883792697059679 0.2390454892643198
125 0.6615196204299164 0.8464890441521847
126 0.3323966352002332 0.759041490361327
127 0.2439362032289657 0.824364461917049
128 0.8212197652254736 0.6410089576980093
129 0.9777165430820244 0.9465309523521206
130 0.5122956780614355 0.8090753530778707
131 0.2447877203977168 0.7896082869020693
132 0.10243995127771421 0.37976742726607216
133 0.0955926962122029 0.149906158795456
134 0.3024352143268926 0.35112122209403573
135 0.8213354604724864 0.08103899948011017
136 0.4604313911007314 0.4867261969144281
137 0.08521834862567812 0.7225325521969878
138 0.7894326194472638 0.5690058476410731
139 0.5188240126504345 0.1785683088722072
140 0.8530899593184731 0.8053132343275285
141 0.2620649653649423 0.16149136198146918
142 0.6838203543739604 0.2815846248060093
143 0.6101107810865833 0.6608477026720552
144 0.24427611654537107 0.8298603003280375
145 0.9631794056656904 0.23647037285144423
146 0.9036756484210455 0.7513181671246467
147 0.5289750767323803 0.9698140649439361
148 0.6883705433169326 0.744952696304891
149 0.8101028426955037 0.6805812226806761
150 0.5497418597674566 0.09398000685134633
151 0.8839542540589143 0.24633447891535032
152 0.8546863869469374 0.35139229162434626
153 0.24437936336234234 0.7478677160555195
154 0.9029611369292851 0.12018848589882225
155 0.22535495576472908 0.8481943913838385
156 0.8777110284518254 0.5759780274513792
157 0.26126533817327235 0.599350048966731
158 0.7208230758892488 0.7093506071715283
159 0.7679117994384346 0.9125383573079422
160 0.71908837803874 0.9522666543766296
161 0.6313142403607672 0.15309967203077424
162 0.8023852564905932 0.18943672949974444
163 0.4947215744557337 0.43176102798987026
164 0.3663228072891225 0.31662153589343434
165 0.5131413794878776 0.7825022057339835
166 0.3529884442039771 0.5396882688386779
167 0.19660413502841623 0.785974378794556
168 0.8384281440148932 0.7866797545967359
169 0.9976454224896641 0.07322902444556323
170 0.6564927265815018 0.4180804914807059
171 0.18933079462165747 0.6389978312528302
172 0.4308276513356252 0.4878124061993574
173 0.30279111730496744 0.11556259610156516
174 0.0417964221085233 0.8655735203177702
175 0.8745465874197549 0.4736788888791006
176 0.3541695113201552 0.5905642566753945
177 0.7806581973691297 0.21915454250429645
178 0.4588894684838537 0.5125515052643813
179 0.4181229699868144 0.48866556626420476
180 0.18218033721044002 0.9999152418598913
181 0.42828741377093926 0.9318764265310131
182 0.10617594467168523 0.3670179851436304
183 0.8681859262315744 0.6213483561420268
184 0.5230464689910367 0.25389202283761547
185 0.9197600743870362 0.35886278320245313
186 0.015729360551470895 0.96960852611939
187 0.10748048392190235 0.7747679314899908
188 0.7289489049757828 0.9807501968403921
189 0.6574484588955029 0.47163273443738596
190 0.09514346730961099 0.5032110835969816
191 0.4742631660297547 0.9527912777764652
192 0.6256293655432725 0.9838660245394116
193 0.3903702168073224 0.4486430771329647
194 0.9462035969149343 0.44170340023699994
195 0.6183509410920773 0.4619946157715731
196 0.576461918500385 0.9610878687020192
197 0.7159987676081885 0.4738512976756615
198 0.15360483130593816 0.596909577405509
199 0.053442339657099436 0.11069966019034294
200 0.0030789139528220044 0.2052283750879953
201 0.09001671124577648 0.40304741141843503
202 0.11127257655460909 0.6029292872381108
203 0.8535094242006701 0.3237473022741094
204 0.8117383801771331 0.8662213969698775
205 0.46272683978203133 0.5097764822034174
206 0.09991081572772831 0.7640585226418114
207 0.3110129361500711 0.39414119405380965
208 0.9713689106976514 0.5938484475687635
209 0.1846355795773772 0.5289951180226865
210 0.8439105972052964 0.31643735606619305
211 0.7531519853459631 0.19401430702220435
212 0.500248452746189 0.5996694208901093
213 0.5859349192351017 0.36693497626919713
214 0.5531600770664253 0.1070888071349192
215 0.06873329153617536 0.77814051264647
216 0.8030813079960284 0.38722129328759103
217 0.9412137563008857 0.5834156555109501
218 0.27691337180613174 0.2690787325103837
219 0.351461588246874 0.10362096623915984
220 0.47014781022764374 0.09032491205685278
221 0.7910585218694605 0.9042636729487886
222 0.8401078606775328 0.638874587532069
223 0.6512745755701268 0.5092647609102817
224 0.3561079050748117 0.9945535605162092
225 0.08311313663593067 0.9022624979132818
226 0.6267064666774167 0.12089391075541478
227 0.30478081800434575 0.47576637887665496
228 0.8430648860855744 0.5858527329355909
229 0.6481050178323431 0.8767747726125188
230 0.05568655925695698 0.38444589604144974
231 0.9219652452451521 0.6500791980605667
232 0.7203556325993064 0.7067154010996538
233 0.7511579253135907 0.8208198606470785
234 0.8030605060512601 0.4871960563315656
235 0.3832324925105074 0.6390000097871373
236 0.9480611628061157 0.19102723759470008
237 0.34315960386993904 0.19919228130237687
238 0.6205211576986187 0.9274778586428318
239 0.7341685849199036 0.7150940924467983
240 0.3193348883424785 0.7285688436887726
241 0.6716926423632577 0.5952973299691263
242 0.5185499725658986 0.39243098793090814
243 0.9936243305292839 0.5369067668869667
244 0.7806137785165754 0.8499020830467694
245 0.7821685122039129 0.9744881250738977
246 0.6619505144253391 0.7810549928219651
247 0.789351210505228 0.49294296695737805
248 0.7240448111049281 0.928721725449563
249 0.48975913084671985 0.17383352219767678
250 0.8714398716873415 0.7611184999589661
251 0.9353280056246857 0.589031383523864
252 0.8944033483505822 0.11801498196110172
253 0.6715775974488607 0.28659623943417556
254 0.5213142146245681 0.9823661598148986
255 0.8210085496370275 0.29924854998123895
256 0.853563514371589 0.9699719062102728
257 0.41825389689461334 0.7595041247160185
258 0.33951341865715823 0.4965791495442491
259 0.02356956436275459 0.09314499208923144
260 0.3133499932805177 0.20453488825331156
261 0.33057726601137094 0.40352735123159067
262 0.480594322604054 0.0581451570998478
263 0.3184230266344982 0.31746661793153375
264 0.6564953217097337 0.9487016878300484
265 0.27001792638241895 0.7390377733428712
266 0.9778411929698002 0.021697493266585877
267 0.18668503543585413 0.5014654564888872
268 0.6488370097523422 0.5677793035367088
269 0.9302701310837934 0.30923255012277684
270 0.10238864382486501 0.11769995067092875
271 0.16999706278504323 0.6089011750776289
272 0.30766865462872295 0.732624981024212
273 0.4300409290305671 0.6124076921386135
274 0.989202396854801 0.058207306693312755
275 0.5136204937641903 0.9576981804211044
276 0.9591462535488455 0.4123283463159072
277 0.8206218955513777 0.9738235570659468
278 0.07401589125300245 0.5755065533997453
279 0.8802728542477909 0.44475688884713427
280 0.5775696563929295 0.08076681040829448
281 0.8594585485692136 0.5245866255214657
282 0.34640388917004605 0.40682434461631833
283 0.7453758204545922 0.1412853886772989
284 0.3617902970484973 0.7804434708783389
285 0.3985540719752987 0.2978371028067187
286 0.6606380363024795 0.1531210746075048
287 0.34953339075491663 0.33861937884716375
288 0.20130243181031982 0.4486735455544416
289 0.6578101681226467 0.46109028954123954
290 0.22960626068419054 0.2847048075769978
291 0.8973224854507463 0.07626242767771518
292 0.6938528239191832 0.1305852564622212
293 0.0026246952230989384 0.9833681462415546
294 0.7612192297250521 0.29639640873114914
295 0.2751393622304359 0.35617919780041973
296 0.6734503761711266 0.9537977737489984
297 0.7950724818857403 0.3131719637482385
298 0.7777499926564643 0.9889444992883056
299 0.8869646399276374 0.9995679609655541
300 0.3191213192503456 0.834290755558421
301 0.5906021966219378 0.39537172073441906
302 0.5816681644301691 0.9102705275570446
303 0.9031782344615111 0.6346923223826493
304 0.5834975533005159 0.2973915319527771
305 0.22041023458089992 0.2615005949985888
306 0.623078446083525 0.5381607587971754
307 0.9969318562275735 0.42225255151227803
308 0.20938826695581492 0.7133531613836996
309 0.7142970653541265 0.8032608539035956
310 0.6280965709747602 0.9180214102953612
311 0.4449731600392718 0.5363243244699492
312 0.21785599666243294 0.41771247204393447
313 0.15978792862063207 0.8590113766842473
314 0.44881695376525543 0.8514151993326575
315 0.6211125605376349 0.8229306756348659
316 0.9985817097241938 0.8366519874119606
317 0.36037632278647647 0.929876694107451
318 0.14439963125706923 0.08035147415590338
319 0.40478302860889415 0.8225337160179653
320 0.7353470834802508 0.5312140672578763
321 0.07361877741654954 0.8395774222072133
322 0.10368780649801057 0.6460863469757432
323 0.4228512877620655 0.4225653781767643
324 0.17567570666751986 0.866208293407512
325 0.2859309915198308 0.1894674508606906
326 0.17233283049779213 0.9919055493777897
327 0.7474700828847659 0.39959660635557026
328 0.23077085938202802 0.6289937327578758
329 0.34068076414607984 0.6970055827305823
330 0.8438952118014981 0.08497764024013854
331 0.46395853093696093 0.779132328719383
332 0.708014675527693 0.13200401659187389
333 0.7243169994768701 0.6054216273400324
334 0.35524252927753497 0.028702441663285838
335 0.2598610620021863 0.8998391584571391
336 0.03329409452896215 0.8050695799450367
337 0.8923480040238044 0.03170300075065047
338 0.46091418572466425 0.799939575534723
339 0.04028283452481152 0.9353892765281691
340 0.6728843605992099 0.14388833010852553
341 0.7465158446602614 0.2695774543352
342 0.9572391693262484 0.5572184545802776
343 0.7405967030179168 0.4775715858903067
344 0.2067009897973624 0.15798197305575978
345 0.9683774328701211 0.30792889551951563
346 0.5813625852358546 0.6013087734984112
347 0.9378568502030155 0.7688965515125371
348 0.8540168107360487 0.11247553239307106
349 0.048863803906592285 0.6426471220968503
350 0.1274091817968127 0.10503291958921646
351 0.250648127809747 0.10307094968053976
352 0.40761207013963674 0.8009810106902584
353 0.7598399207679215 0.9164396217155022
354 0.3833614544495272 0.10530569977978654
355 0.92165817291532 0.7088515222387161
356 0.7034748973682223 0.4205483888387813
357 0.1745925679663285 0.8030824553518083
358 0.1546327883731392 0.38689510965934615
359 0.18650725311317562 0.4700467166508544
360 0.055740007389944 0.9787551217518538
361 0.2579947095068832 0.9103853885950307
362 0.8972241810650405 0.2560239007059327
363 0.9655384061881691 0.4351983089775171
364 0.8903330167362161 0.9518415196985709
365 0.11050699651957063 0.8746336384184042
366 0.6990232851079167 0.8128960920250199
367 0.10696784189460984 0.22088204439890435
368 0.4769561814633918 0.16855439357624624
369 0.3738286366443271 0.436127800967982
370 0.6761292233533845 0.45685780585637015
371 0.2644754970295268 0.2685986616779016
372 0.558679980773371 0.11351314233091547
373 0.544743019011823 0.03402631656384936
374 0.3740017331802158 0.4365558518225996
375 0.18935305378708878 0.23757942461330306
376 0.8526342686455239 0.4705710620699589
377 0.7544139020784759 0.552938429980397
378 0.7781886272839218 0.22696293042637483
379 0.5066844329787763 0.13372069891191196
380 0.3454325240574807 0.6855121381363328
381 0.8791760544120243 0.8935481312771792
382 0.44854185685532777 0.13829225239567788
383 0.3054901853116718 0.5176650062493154
384 0.21304705419054493 0.8816118497794099
385 0.2852342205360283 0.3680255852432329
386 0.22691146123050587 0.11794973949591991
387 0.009301527520207742 0.03735845856199205
388 0.7621369601107771 0.011490659484564514
389 0.7318639610298413 0.8001511562593147
390 0.7646297618150323 0.8898611222197362
391 0.47433999857502807 0.015465625403074168
392 0.8181602744636294 0.5862436733664251
393 0.7228173795837496 0.7025895890032938
394 0.6973685172231175 0.26017776892855815
395 0.11322700051087242 0.5056427587666483
396 0.6544415953866585 0.7165162256217449
397 0.48041785630313394 0.46898739543248114
398 0.9700686190501708 0.9520755319187972
399 0.1487454660366685 0.08559423432009106
400 0.3475072244172128 0.32299399088434655
401 0.036634600823650665 0.8976088346170534
402 0.9073978449551632 0.9840172054250376
403 0.35780693859493073 0.945209040106426
404 0.30716280666802354 0.6308045094369187
405 0.10595406308201216 0.5229380605058696
406 0.3468914656458456 0.7390792775722708
407 0.9074417718976129 0.831822352859046
408 0.6715091351000836 0.4202396605334414
409 0.02296042039719237 0.8370469181823547
410 0.875420246998261 0.9123474695787975
411 0.5743039963262265 0.7584682653689077
412 0.5383184983347475 0.7102537723877794
413 0.6787841659713066 0.0732195321661262
414 0.5927431057472187 0.9578972034289934
415 0.08508064248977998 0.415608583505765
416 0.3565287652156356 0.6201083699258538
417 0.5208014688406617 0.8714584912807988
418 0.2752788730945054 0.13828133309178736
419 0.15594298608846768 0.7721399860091817
420 0.16500131743465496 0.38978107543457974
421 0.13725394602486685 0.47281617816825783
422 0.5044026029300765 0.646482065792421
423 0.4259433593563704 0.26674542360606834
424 0.273466086625762 0.09065244876333711
425 0.11496679702755097 0.7925968835885145
426 0.16700630538839878 0.8755810569251928
427 0.1614271249510385 0.612562334882513
428 0.5404375416725647 0.51017400102324
429 0.16212765554334474 0.6355632613581377
430 0.158034231875531 0.9439902904789707
431 0.498135968488567 0.7832705301814851
432 0.5048554211723417 0.9534195688588105
433 0.5189453003946227 0.6283644578124064
434 0.006659910452794904 0.9965768287407649
435 0.6468676003756708 0.38219959494160205
436 0.9630385584502987 0.5636459476430011
437 0.1631359995008277 0.19470045525782886
438 0.08406506213717968 0.9444206118595279
439 0.3598923002613047 0.04449027506394998
440 0.6001601981837121 0.5604781499073158
441 0.5504040051698852 0.8265918655513774
442 0.12777417984559714 0.7195629165960239
443 0.6717463648553076 0.9043104391939741
444 0.5232498644099395 0.7479637548165948
445 0.8361580355761355 0.48684352806651576
446 0.952795612640971 0.8332442974935833
447 0.9242773534147326 0.040322280147808365
448 0.7682191366727896 0.3653762563941395
449 0.7353501136801702 0.6105896032240707
450 0.22716926355790146 0.040004174896686395
451 0.30333095164066437 0.24291762568060815
452 0.42720514893326156 0.9491977316882442
453 0.9302463399006092 0.8568813463387187
454 0.9460037511224233 0.9730197181971708
455 0.9866739737542735 0.35949200734254116
456 0.6909177045309899 0.5900853039008005
457 0.5160561129767824 0.5364649110467453
458 0.1687796011077335 0.7442305487258545
459 0.34272473826062766 0.22539814851869988
460 0.0027028262662022184 0.3184855812850641
461 0.21518092325546812 0.12958040698094242
462 0.46979557483215906 0.7610426437233775
463 0.5803618845470154 0.9669147389169884
464 0.004833358358585005 0.7460199205706228
465 0.5523065391350879 0.2787049098019476
466 0.8116769918553727 0.8217638852514033
467 0.8014001715768774 0.3772841942613854
468 0.6800285518339029 0.6521352125466742
469 0.711670914575071 0.9276000215440798
470 0.48167908085855704 0.3082459488913656
471 0.4608116244486804 0.5119885618034404
472 0.44963479159580255 0.6355303463520188
473 0.9711221874276468 0.15283337223358673
474 0.6724532770689645 0.46187752738820254
475 0.9995325485506563 0.6925766499595768
476 0.43256518731053395 0.7536566038317696
477 0.7251427439550449 0.3073018264937021
478 0.15474523423329856 0.4786681857034917
479 0.16085068060296648 0.21347689130546266
480 0.016334728618396688 0.8775844419982524
481 0.25475511789087746 0.5169352798732352
482 0.303831921415713 0.9970646443879934
483 0.681804587496122 0.12291904488426841
484 0.3023578961417559 0.9980363423174938
485 0.023742118321895544 0.8500870209078024
486 0.5032940092740347 0.07402315448567887
487 0.17428645304497914 0.937862254489493
488 0.6253188842323681 0.8512339832657199
489 0.45482832828195696 0.6133051594390675
490 0.8728604098282089 0.6097985846264072
491 0.7801756317035788 0.8053195018050707
492 0.33182205070745197 0.4086176120717253
493 0.6703311343354016 0.43026139818356823
494 0.852329353458141 0.6765390563673909
495 0.5913846321467322 0.14854501233760975
496 0.2670452755910303 0.465814303933211
497 0.22848198556558696 0.3661346186567801
498 0.04407952253825487 0.7043747098808941
499 0.34207139749724647 0.20483077409361694
500 0.9558007228341131 0.6507572769453335
501 0.6558984506000566 0.35474470591640483
DEMAND_SECTION
1 0
2 1
3 7
4 7
5 3
6 6
7 6
8 5
9 5
10 5
11 3
12 7
13 8
14 1
15 2
16 5
17 5
18 1
19 8
20 1
21 7
22 4
23 1
24 4
25 9
26 1
27 8
28 4
29 5
30 7
31 6
32 3
33 5
34 6
35 3
36 1
37 2
38 6
39 9
40 8
41 9
42 7
43 8
44 1
45 7
46 9
47 6
48 6
49 8
50 9
51 5
52 7
53 2
54 5
55 7
56 1
57 8
58 9
59 5
60 9
61 3
62 8
63 3
64 2
65 1
66 8
67 8
68 3
69 9
70 1
71 2
72 4
73 8
74 6
75 6
76 6
77 9
78 2
79 6
80 6
81 8
82 5
83 7
84 9
85 7
86 7
87 6
88 7
89 8
90 4
91 7
92 6
93 5
94 7
95 2
96 7
97 4
98 5
99 6
100 2
101 9
102 7
103 3
104 2
105 1
106 5
107 6
108 1
109 8
110 8
111 2
112 9
113 7
114 7
115 3
116 1
117 7
118 6
119 5
120 2
121 1
122 3
123 6
124 5
125 1
126 2
127 2
128 3
129 7
130 3
131 3
132 5
133 6
134 1
135 7
136 8
137 1
138 9
139 1
140 4
141 4
142 6
143 2
144 3
145 2
146 7
147 2
148 6
149 3
150 5
151 5
152 4
153 6
154 4
155 1
156 1
157 7
158 8
159 7
160 1
161 9
162 6
163 7
164 9
165 5
166 8
167 9
168 9
169 6
170 3
171 2
172 6
173 7
174 9
175 9
176 7
177 7
178 5
179 8
180 5
181 8
182 2
183 8
184 7
185 9
186 9
187 9
188 4
189 2
190 8
191 1
192 6
193 2
194 2
195 2
196 6
197 3
198 2
199 3
200 7
201 8
202 8
203 3
204 4
205 9
206 9
207 8
208 2
209 3
210 4
211 6
212 1
213 7
214 9
215 8
216 2
217 8
218 7
219 6
220 3
221 8
222 1
223 6
224 6
225 8
226 8
227 4
228 4
229 3
230 2
231 9
232 3
233 4
234 2
235 8
236 2
237 4
238 5
239 8
240 1
241 4
242 7
243 9
244 1
245 6
246 4
247 7
248 2
249 4
250 1
251 7
252 2
253 6
254 2
255 1
256 9
257 9
258 2
259 4
260 5
261 7
262 2
263 1
264 9
265 2
266 7
267 3
268 9
269 8
270 3
271 9
272 1
273 8
274 5
275 7
276 1
277 2
278 9
279 5
280 5
281 8
282 4
283 7
284 8
285 2
286 9
287 1
288 6
289 4
290 9
291 5
292 7
293 2
294 2
295 9
296 8
297 1
298 7
299 9
300 7
301 9
302 3
303 6
304 1
305 1
306 9
307 4
308 6
309 4
310 5
311 7
312 3
313 1
314 7
315 1
316 7
317 1
318 5
319 9
320 7
321 3
322 4
323 5
324 6
325 2
326 6
327 6
328 8
329 2
330 9
331 3
332 6
333 9
334 5
335 9
336 6
337 9
338 3
339 6
340 1
341 8
342 3
343 4
344 1
345 4
346 9
347 1
348 7
349 6
350 2
351 8
352 2
353 9
354 1
355 9
356 8
357 3
358 3
359 5
360 8
361 2
362 9
363 2
364 3
365 4
366 6
367 8
368 4
369 8
370 7
371 5
372 5
373 4
374 1
375 1
376 2
377 5
378 9
379 5
380 9
381 9
382 5
383 8
384 5
385 4
386 7
387 3
388 6
389 1
390 8
391 9
392 9
393 2
394 3
395 5
396 8
397 6
398 1
399 2
400 7
401 2
402 8
403 1
404 7
405 6
406 2
407 5
408 6
409 2
410 5
411 8
412 7
413 9
414 8
415 1
416 4
417 8
418 9
419 6
420 1
421 5
422 8
423 7
424 8
425 7
426 2
427 9
428 7
429 6
430 2
431 9
432 8
433 5
434 7
435 5
436 4
437 7
438 3
439 8
440 5
441 7
442 1
443 7
444 4
445 7
446 2
447 8
448 1
449 3
450 2
451 5
452 2
453 9
454 4
455 8
456 6
457 1
458 7
459 1
460 2
461 3
462 5
463 5
464 6
465 3
466 7
467 9
468 5
469 3
470 9
471 5
472 9
473 1
474 6
475 5
476 3
477 7
478 7
479 6
480 7
481 5
482 6
483 1
484 7
485 7
486 4
487 4
488 9
489 5
490 2
491 5
492 1
493 3
494 6
495 3
496 1
497 8
498 1
499 8
500 2
501 4
DEPOT_SECTION
1
-1
EOF
