NAME : gen500_010
COMMENT : uniform customers, demands 1..9, generated by bench/make_tuning_set.py
TYPE : CVRP
DIMENSION : 501
EDGE_WEIGHT_TYPE : EUC_2D
CAPACITY : 100
NODE_COORD_SECTION
1 0.5066671926816089 0.06582304670015093
2 0.275423084502303 0.8267210389947411
3 0.7760489765862169 0.8551364351271896
4 0.947397273322829 0.4332610648805316
5 0.02781464099485731 0.6897814971666729
6 0.7201876027128238 0.9504398871374343
7 0.32321056261046277 0.7923732283761499
8 0.20389708550801888 0.9451313959725236
9 0.2527768677300335 0.1353744120839906
10 0.06349178170284853 0.6970268226171692
11 0.7662805569161173 0.2562301512260452
12 0.46529754430929393 0.40596944456420114
13 0.9661230635886507 0.8132066133020742
14 0.5187869066533346 0.16323430664402383
15 0.8404398112842469 0.21633832616290594
16 0.4812102641734114 0.5779170686780642
17 0.816075623820409 0.8890325828503738
18 0.26090993088156655 0.0342310765848205
19 0.15465210494417547 0.9641852244679098
20 0.8707161556883344 0.6500266535886351
21 0.3376931803739823 0.9270655871733369
22 0.4076698248974818 0.3036665720423257
23 0.5101199881615271 0.8159784726644659
24 0.8061506862844068 0.3804795427672176
25 0.6776993078735086 0.31074099767363816
26 0.24790551138137695 0.7157793587359385
27 0.41266494868807724 0.024647403027629022
28 0.8844150931343002 0.19958570868963543
29 0.6328912436630141 0.43289859499496186
30 0.321671723298549 0.5397135032037649
31 0.47333130315976146 0.8819756188093733
32 0.7564715425747607 0.9583783256700285
33 0.8516380484910553 0.7447273438796622
34 0.5947767808838217 0.8711305353696226
35 0.9460837992109845 0.5359444757031572
36 0.7411999438584108 0.7206899488314573
37 0.5983919179096814 0.5565215709728158
38 0.29803782624491315 0.0667947737589556
39 0.02608107671601978 0.5835411303698312
40 0.0025620306652807123 0.4911072067434714
41 0.8196646311417609 0.09246896881635502
42 0.22152108821613592 0.3236152590397464
43 0.203601107602855 0.9765279524306963
44 0.21671362349113743 0.2561452422813981
45 0.6181385773408066 0.19566049695320442
46 0.16463210820554297 0.4042412232684869
47 0.6654464841424567 0.7229560790940883
48 0.8179837920646322 0.05218545354568238
49 0.6815467249598357 0.793135435551585
50 0.5944136064014222 0.8384213608691873
51 0.4239854605611394 0.6769148505059109
52 0.060956538616805944 0.5541412179113389
53 0.228452109618962 0.424979875597008
54 0.4929079380038053 0.6525523449708757
55 0.1502041196700914 0.6179295652287781
56 0.10017971530247627 0.49465017891228347
57 0.8896078521807286 0.5308085358390063
58 0.5215072485818324 0.9089664549579559
59 0.16356791294622708 0.9379031855022567
60 0.11658314339802023 0.27793438083156385
61 0.8200094844584461 0.48239247329280044
62 0.16193578920384633 0.5470376675958977
63 0.4633721704055477 0.06484438336236853
64 0.8303975672474224 0.7352920200238168
65 0.5293953091288265 0.08294671516376506
66 0.49186349452841827 0.4175465343162824
67 0.9381756427162021 0.20944753137743788
68 0.2980492379194021 0.12027243965581214
69 0.08214732389580381 0.094623105105481
70 0.9124459908782059 0.902406658144635
71 0.678868828527262 0.7392360457666021
72 0.5333269756037347 0.2057808031929066
73 0.354064425707839 0.45004041128865635
74 0.8593872309284522 0.38113888592002054
75 0.1310479316374984 0.04222056386401063
76 0.7724905480333119 0.3563534179228378
77 0.8818510933938389 0.8172041422563175
78 0.04281882128947789 0.6203735974671576
79 0.8601044098648181 0.8257144287342526
80 0.16927590574659246 0.8757918227141058
81 0.1909446044413744 0.6721025518977908
82 0.06568502393056697 0.5195067459010227
83 0.7322435885790843 0.41768150993521225
84 0.4309282628310077 0.5401935119955193
85 0.0023147910492077317 0.3551044066308562
86 0.4848033909163012 0.9640772289663372
87 0.9619181117748159 0.45508513989537625
88 0.6802063350105239 0.4857072335665331
89 0.2448605067335652 0.07830515239145952
90 0.06407219768414041 0.055974823757701464
91 0.3909936675727308 0.6313346463454621
92 0.8140526349459164 0.7319441098627855
93 0.13213756271182964 0.006479722483982653
94 0.1768608651306458 0.3642363909945675
95 0.031309683522661835 0.5583295447134708
96 0.5866045787222851 0.6384468696494386
97 0.6771077920506761 0.2757545952467657
98 0.40176665454454086 0.8948991462364789
99 0.5141223996912749 0.6515385099792899
100 0.4575653118190339 0.13215733763171322
101 0.07929554596524457 0.03910411989964935
102 0.5273364301671578 0.9794135497730468
103 0.010615881190759069 0.7406101692995204
104 0.6328801419328678 0.887796340765629
105 0.3066235242459935 0.4300763659607234
106 0.06571281017518726 0.15277670276827615
107 0.6124561011610571 0.9784299062400239
108 0.8601769248601987 0.8934804521446583
109 0.3295710204080541 0.17526375706641883
110 0.712054664581584 0.8506250287549653
111 0.7233000337898384 0.282729977447859
112 0.3023696082597118 0.7472680696776677
113 0.46790741939531855 0.12922925224867343
114 0.708924330562593 0.3035884379635748
115 0.7468367841353798 0.9735687714974808
116 0.6979145549055481 0.7139842687619486
117 0.723150194660234 0.12918201137714935
118 0.9904253507480937 0.24078487537779403
119 0.2791051374157746 0.1792271607938276
120 0.3279913341474153 0.27639980111804374
121 0.2735657727993166 0.45427218667042724
122 0.23892191028165888 0.9581569715262642
123 0.07744512633532252 0.27709589062316375
124 0.06242430951781586 0.6724798642257631
125 0.4412062728050773 0.7120792650800466
126 0.09564418982682421 0.6170959357739781
127 0.7241117123731853 0.4772148210687599
128 0.042219244341059614 0.39107682303024227
129 0.9323560254763914 0.7591273566014892
130 0.1966069950374837 0.7587307392325537
131 0.05956562516921293 0.5123729030397081
132 0.6160824906706877 0.28035420302744385
133 0.9367324564623993 0.7857059748509059
134 0.3522101196547226 0.641246277713781
135 0.11511265915465474 0.2790043916022934
136 0.9014504158367757 0.909467931761986
137 0.6720151573438256 0.2566739300002223
138 0.48275327128803447 0.20366906309982546
139 0.2896559860905078 0.9290748956508147
140 0.35319271483005477 0.787341734570717
141 0.06250673504806503 0.5225851010672433
142 0.6338944042037827 0.5621308910837732
143 0.031536559269311315 0.8653494330401716
144 0.9939814767789513 0.7662945154091375
145 0.2178954328420668 0.9986354899231343
146 0.4058628009705577 0.6135113326126629
147 0.8314719608440664 0.43976343638675197
148 0.4649801902203149 0.7184977557295993
149 0.6933646793217839 0.43721263574442404
150 0.9234520299974401 0.41328311216955516
151 0.24369528017021969 0.7790270350381536
152 0.09339499319985844 0.8808338651799346
153 0.8111833006597002 0.7727599298491763
154 0.2601605144335203 0.26394884554175957
155 0.48463154502077077 0.2508621001753196
156 0.8840457198296026 0.19940474340355485
157 0.0923236561938644 0.8186782562664305
158 0.4931185447319776 0.5336027572891122
159 0.07601491156634643 0.0732125738175523
160 0.8626751180690834 0.0007919277146835046
161 0.3124879743373675 0.4283661744318158
162 0.6335187415627207 0.562681596639847
163 0.195792647328783 0.8794907184379872
164 0.2760177611680332 0.07743769624911379
165 0.20124194259591088 0.5243925318067754
166 0.5653858238102817 0.1699759414743668
167 0.1742078533833108 0.05985908532258688
168 0.778627596192205 0.3366667183540981
169 0.6801764161112556 0.6808079211635796
170 0.9927045650913927 0.8112018016853738
171 0.6098278634454917 0.5869382292541994
172 0.3978090576200872 0.4909825554866939
173 0.9042494434750914 0.94658338394188
174 0.9627310995618281 0.030648078372518373
175 0.3902184918941206 0.7629091275291252
176 0.036472094056368976 0.8509362678296535
177 0.8796495324246181 0.6255120541182367
178 0.42012849879432457 0.2704819965430241
179 0.27249609319004564 0.5108028161567398
180 0.813382069439714 0.3689300763670631
181 0.6184195631909022 0.4539892042713828
182 0.28650709936738605 0.686196566165544
183 0.9295655109454375 0.6077411438934985
184 0.7389829894525294 0.06810594559070171
185 0.11659237023230185 0.6651325099244384
186 0.6340850979291905 0.7749344397311169
187 0.15274779035293073 0.4883035533100166
188 0.5880339583910051 0.7436375113926914
189 0.9444841026377622 0.9596161625019328
190 0.1256659942880326 0.7472810963237498
191 0.3442370531550506 0.06857933356691659
192 0.9655426324220812 0.3077527413594885
193 0.5262866273553054 0.08445477327751161
194 0.35985960120346117 0.4990078334263842
195 0.8999288153913341 0.9805047971483917
196 0.8915829647406259 0.8414700393257996
197 0.17908856798001027 0.7090309139452967
198 0.8501134478403279 0.8674922823930206
199 0.1637956045512169 0.7107469746277743
200 0.242328511842687 0.19953502979013282
201 0.43839623791383275 0.9271938793340259
202 0.31383331715154095 0.2795448196514043
203 0.7736306264479215 0.5370730729257381
204 0.6746221452643428 0.46409893317714834
205 0.44441906352722327 0.37865894432937
206 0.28881816143564454 0.266712464765838
207 0.07843449515752932 0.6521544789947067
208 0.39527884635955335 0.44128212872063877
209 0.7235288781954509 0.8487113628954539
210 0.5324863580915379 0.4211745408068417
211 0.6870930801847973 0.6702336910746105
212 0.08147012558029532 0.10262036250667605
213 0.5180269014860605 0.09315126957258235
214 0.7449257617013937 0.9256486356260428
215 0.8931859530114541 0.9540304807216368
216 0.6309263194214965 0.6081815195771786
217 0.7576113427719038 0.8511911466537061
218 0.8593335240658339 0.9302801876543625
219 0.18268037173409035 0.40543108037192865
220 0.7097380507962215 0.8418439897230416
221 0.7666962145994775 0.2956859633050847
222 0.10704273334457559 0.8169818791265325
223 0.5510922107030588 0.5576126787094242
224 0.19675149813357817 0.7145705445156925
225 0.38424353878379247 0.157678431498823
226 0.7487457323335535 0.8429113672704247
227 0.30844323300600873 0.28803754630939504
228 0.36534981775972386 0.007158331287146269
229 0.38839724063954106 0.6008038381557577
230 0.3341220428436341 0.7712128883322056
231 0.7582102887191381 0.0389075798803985
232 0.6725879048831053 0.2034003693242482
233 0.38477057973309536 0.3160115967521575
234 0.3327248759798893 0.37584883824373716
235 0.725750415226057 0.9517937057936123
236 0.6872261070216046 0.8945975599003053
237 0.9824608395249173 0.7325433814675631
238 0.09788793194490131 0.5799339235969776
239 0.07943298160567247 0.07846231610015186
240 0.29577010294678896 0.1462610730966819
241 0.024452472893434885 0.06006685464429751
242 0.9263618976637157 0.6292311978201487
243 0.4094702402935083 0.64230528117184
244 0.4465804634902254 0.536136921432058
245 0.42242442665455493 0.615884479841626
246 0.3728153952358466 0.9163610387985792
247 0.872404841017096 0.6223445159795075
248 0.08110022754519353 0.6500616851365258
249 0.3278714800926903 0.482879766830542
250 0.9790773716194394 0.23976305509368545
251 0.3322807043395444 0.9090717872364404
252 0.4381145153471232 0.8765771345254615
253 0.5842592777906627 0.16717063603952753
254 0.08617148760699667 0.9325432930822722
255 0.04711167216950363 0.5335386274364831
256 0.9749332536677523 0.6651474820053159
257 0.02565129961671453 0.9048359856803713
258 0.7473634117507132 0.2746573308310257
259 0.8504821727743981 0.19424389480756798
260 0.5436983301356988 0.4348710569561619
261 0.0663522204117084 0.7605258568174985
262 0.38997557402202987 0.23353527140503416
263 0.1402957344723349 0.04114167358436838
264 0.5289365850689559 0.43725824717345374
265 0.3157703806436728 0.5416930742880464
266 0.8847631507442532 0.8360176767066957
267 0.4503925875327661 0.9372386934267287
268 0.9443029436910302 0.36495585561278066
269 0.19378100687956978 0.2734351313584874
270 0.1567114396621535 0.4665608867495692
271 0.15925025730470865 0.7858728126685949
272 0.27074700887832204 0.5124301239500777
273 0.3777758605194761 0.8161347066232898
274 0.7742322653066827 0.8532626275298097
275 0.47049458598566707 0.01183763136653504
276 0.7044591746708678 0.8528496461101305
277 0.8945879310927037 0.8383269391144365
278 0.6454169648634728 0.07560005663195368
279 0.19992699548112125 0.22353114491822212
280 0.6397841066988516 0.011497214549340162
281 0.5688517075404782 0.04660785241228693
282 0.5640624823320424 0.6131536643405452
283 0.9643453634901539 0.6143686353772433
284 0.7149129503739458 0.7553662322689966
285 0.6943124296369064 0.4548180871853742
286 0.185750526119415 0.39759208434615567
287 0.8407840089297587 0.5339778013958576
288 0.30675410287313887 0.4765214985062689
289 0.6090249957143453 0.9968006768360156
290 0.9603584935696046 0.7997475914947682
291 0.7053615780969723 0.5800938531980621
292 0.19084116731336898 0.8195250064257126
293 0.37657587981473084 0.668359738091412
294 0.5491949735435672 0.9954203148608013
295 0.9089497901497146 0.7297408027870221
296 0.425830161448452 0.526511454475091
297 0.20891303386723992 0.9157533056513251
298 0.6852620210412477 0.44638605132688836
299 0.4080855835794557 0.8723359773398387
300 0.704999786332107 0.031482795052472756
301 0.6664845981251586 0.9578893740726665
302 0.5088163064560629 0.23067686477044547
303 0.6593659682936232 0.48920800651840146
304 0.5021614076245817 0.6123729650837643
305 0.03272030254268943 0.2980391011507544
306 0.014311421313712325 0.3036669755920912
307 0.5990164432116882 0.1557618187712949
308 0.8683258247207751 0.8267656970965384
309 0.3243632575575578 0.030959454971455136
310 0.9851782645183454 0.22513894543218071
311 0.5203049002848302 0.005435675489533165
312 0.8679312936960597 0.5689359952864721
313 0.9614176918542096 0.3251032223366327
314 0.20413898698927524 0.2900484995291114
315 0.9879856189552078 0.208933165656353
316 0.02971509720794485 0.8866224453917579
317 0.813584603098198 0.12611489330302184
318 0.06956666146357271 0.8982932353066884
319 0.7898703390059127 0.49297591451295575
320 0.5453892859149351 0.9458384131322085
321 0.7601089267988399 0.030193146545813176
322 0.16412806788439116 0.5678826087523233
323 0.4784317335097694 0.3911569622611969
324 0.08572842626649446 0.6919606066977599
325 0.5665115370183 0.9954877050971641
326 0.5256816703778882 0.6824088285029851
327 0.020493164653131446 0.6154686113409414
328 0.35911693195841965 0.86717029298068
329 0.8345935439098504 0.021195526780364626
330 0.1030832911161138 0.47483620854333897
331 0.07811321773160007 0.20048014768965394
332 0.245161202370893 0.4018891091742337
333 0.6432239376332063 0.6104262461028541
334 0.8426538830195733 0.5534017996389459
335 0.09309676930551358 0.46968730540641257
336 0.7108366807703201 0.817840752374136
337 0.27265694785568406 0.5785449115936301
338 0.6591880872075733 0.7875282211054636
339 0.16334278590966478 0.6104942395826967
340 0.7446054053156896 0.021517754174812276
341 0.8687491999399003 0.8625093733835567
342 0.4181644290171034 0.3307113244873775
343 0.12563433646774447 0.23310673877092802
344 0.8162632530110038 0.7773932182875004
345 0.8737892709266735 0.9467135198168622
346 0.22955870805942802 0.3518302126279149
347 0.00014994873989393476 0.418269555152598
348 0.3165687081834352 0.6663808189202114
349 0.3002862864632968 0.35564184542223265
350 0.08030006617964502 0.31129173775076
351 0.18226572485813008 0.1860445479744205
352 0.008287733820472876 0.6010927739023721
353 0.5198981157485394 0.8007951742806408
354 0.5371549587208958 0.49004578930510667
355 0.6107820831951447 0.2338969148836626
356 0.11094302551002688 0.8480516341907408
357 0.02258076626134453 0.21152886362354895
358 0.2394934108648008 0.5589401688595198
359 0.5311778364249475 0.1037675774450858
360 0.49036919226042064 0.03088471292735362
361 0.8548063677977712 0.021038473795563672
362 0.9962670957790509 0.9858172344363866
363 0.8406570499380606 0.8715939848359835
364 0.4842701123794112 0.41459738402502755
365 0.0203966181773223 0.14192030283413382
366 0.739708158417431 0.32176418534725415
367 0.3951480726414872 0.21552990737141053
368 0.9711094509286734 0.828148382874275
369 0.8783688217467087 0.6212315378498677
370 0.3625197401627446 0.9693473355883747
371 0.8059158731484557 0.42221580031088013
372 0.46778588679467326 0.7265899779705809
373 0.35778189596608545 0.4969214871539388
374 0.8624869271061885 0.5782912130873925
375 0.2759446553014191 0.675032770431296
376 0.6655727030651306 0.3911109815567475
377 0.5485048334446941 0.8820407622635519
378 0.11344900435504357 0.7315652296695109
379 0.6098193714635917 0.412290068006149
380 0.6693484522387271 0.6253825110758987
381 0.6925324643438835 0.1700443303469671
382 0.09738978751333072 0.32919209485379475
383 0.09657454577576019 0.9320325221481456
384 0.7099256589015441 0.023617220264339878
385 0.9351683044306119 0.7312166486714884
386 0.3698017234898754 0.7017546747577839
387 0.09888805481131346 0.40561841690584544
388 0.6888138715427892 0.7789657141468338
389 0.5637606289916804 0.6185221624937873
390 0.4043054425221886 0.7511079584462714
391 0.279942238858088 0.20785524333371275
392 0.23380862166528027 0.9470529778644491
393 0.6373237021633772 0.4199196306230579
394 0.683164455087439 0.13518933239300757
395 0.49650689230088785 0.22982440959413974
396 0.01408719400716918 0.49165539324337326
397 0.6711495349085234 0.8203832543242457
398 0.20678532181475306 0.9474508596394157
399 0.5279519453292714 0.7295983472219079
400 0.7689598289406003 0.9979732654562413
401 0.29318952522326425 0.8913502829054373
402 0.062484556250459344 0.5541483952134248
403 0.37684018255474594 0.17630390512155136
404 0.4052422929194972 0.9218430202735619
405 0.029596303304243787 0.15391340065439185
406 0.7999487341999418 0.7898809100070743
407 0.9288004167425895 0.2956132094364097
408 0.17823094183335997 0.09898992960046082
409 0.9596510097437473 0.1999858561461303
410 0.31296921856144166 0.6376567187643504
411 0.7226448497527259 0.6079351555765373
412 0.5724621242319732 0.6886158035950207
413 0.1362726844800496 0.19658267356330883
414 0.19509189334595356 0.5467142135780522
415 0.8306509296445661 0.40488232451316275
416 0.9119088275543991 0.42769465428302744
417 0.74547586842108 0.11254630857317283
418 0.18818900879255906 0.23581602061289597
419 0.1905498581880849 0.5708407439610179
420 0.8410202455916345 0.42720483659676123
421 0.6366742457789568 0.33154636916964286
422 0.6598280492693974 0.8180877869319915
423 0.11923498300113022 0.8150268890751128
424 0.0028043706641945887 0.8934516422666973
425 0.718918053856473 0.12442277908469701
426 0.1913896689117014 0.6885611699623924
427 0.41482969452200535 0.8964916747605592
428 0.590690968832737 0.9354559292500735
429 0.721963423402817 0.9852731894521095
430 0.37346809707734463 0.5327755301489471
431 0.7572036036334412 0.33750526084842847
432 0.6183957067679233 0.8109919070571
433 0.3214979022708895 0.3861725831672641
434 0.30904880608090224 0.9964579930852988
435 0.4282915801749394 0.5574612608892464
436 0.7571156043776034 0.8192367592607331
437 0.9888045215818944 0.7509052100621536
438 0.8595449874573525 0.5936617306213678
439 0.7320742160327531 0.574055469365129
440 0.5340022232390372 0.5611228141582401
441 0.6150226061576408 0.8831005972050591
442 0.27069874876450806 0.15341946161779907
443 0.7421731765525473 0.8635877784710019
444 0.1576608444153499 0.7185207112809712
445 0.9835177076442746 0.6553476373671788
446 0.959912674486485 0.1099208780694968
447 0.6061251042626088 0.9692517521686805
448 0.7338153281196118 0.13496960699963134
449 0.9250122047681922 0.17033725779708953
450 0.6309491200073558 0.6388575091146198
451 0.8089676848444941 0.12659127342196808
452 0.16560035466275635 0.36216840724065713
453 0.5264889370599837 0.46573111756400265
454 0.5123406399688226 0.3413896647925717
455 0.13599070030303773 0.9936343315865556
456 0.5320887783567867 0.7975007349927217
457 0.9094540144139581 0.2868502350880282
458 0.2752197235770055 0.251933850940561
459 0.930146617619807 0.32599844212740414
460 0.5852153599495847 0.2889664117355776
461 0.9716187936917376 0.2222460336786901
462 0.12109535925805914 0.11147270419246702
463 0.19645919913113696 0.048206058037094324
464 0.3967962336541474 0.13888419803596297
465 0.5023746264163931 0.0852370773212845
466 0.343757401680306 0.2601716916206439
467 0.7402227127456454 0.05298430277587718
468 0.04801946927032008 0.5990989067565499
469 0.4063545300963014 0.31723690111525293
470 0.6295673028016233 0.5405583624137081
471 0.09157497386522118 0.7008663416098669
472 0.24021412121812602 0.5339707938026701
473 0.5057081896106147 0.7906967217044331
474 0.5504358246213303 0.5637855780603226
475 0.9143697316578189 0.13476184646274503
476 0.06347073165719364 0.9350112308410445
477 0.23739726679462414 0.2550570613600299
478 0.3437030467754125 0.9142089015597625
479 0.5923893508442705 0.2993478436051764
480 0.578482723366833 0.7797252118992506
481 0.44805845043141324 0.4410365442512537
482 0.9561595869515733 0.3384505122446583
483 0.5375298591987443 0.045400433481395774
484 0.5881915024257093 0.49068758481598906
485 0.6554122338826236 0.12406203625779644
486 0.7013205015550303 0.557651783042757
487 0.9908495611696247 0.3462545223706809
488 0.9352336381824443 0.2438330909729598
489 0.21488902491454032 0.1269844208931593
490 0.023161752867477015 0.0027794565590057996
491 0.24881775750456958 0.0015896613335524279
492 0.4425288502781034 0.8707190854293622
493 0.9864264885082704 0.7822283547742547
494 0.5349393632938048 0.8848192398584156
495 0.8582263658125305 0.6017842753307329
496 0.24172904172612564 0.026151831777908252
497 0.7172179380476311 0.3857263109203293
498 0.126550129857671 0.5626766683373263
499 0.4866392741257003 0.3811194877014549
500 0.8694432690000874 0.25897688212314285
501 0.3315221885810351 0.24376307772624162
DEMAND_SECTION
1 0
2 2
3 5
4 4
5 9
6 5
7 9
8 2
9 3
10 2
11 3
12 7
13 1
14 2
15 3
16 6
17 5
18 3
19 8
20 4
21 5
22 4
23 5
24 2
25 9
26 5
27 9
28 2
29 5
30 2
31 8
32 6
33 3
34 4
35 8
36 5
37 8
38 6
39 8
40 8
41 5
42 7
43 1
44 8
45 9
46 4
47 3
48 5
49 4
50 9
51 8
52 1
53 2
54 5
55 4
56 4
57 2
58 9
59 4
60 3
61 5
62 9
63 8
64 6
65 7
66 2
67 4
68 6
69 5
70 3
71 3
72 3
73 7
74 6
75 4
76 8
77 3
78 3
79 2
80 4
81 4
82 7
83 1
84 8
85 5
86 7
87 5
88 1
89 9
90 3
91 2
92 3
93 8
94 7
95 2
96 8
97 1
98 9
99 6
100 3
101 6
102 6
103 2
104 1
105 9
106 9
107 6
108 3
109 5
110 5
111 1
112 3
113 9
114 4
115 5
116 4
117 2
118 6
119 9
120 5
121 5
122 5
123 3
124 3
125 9
126 6
127 5
128 8
129 3
130 3
131 4
132 1
133 1
134 4
135 9
136 6
137 9
138 5
139 2
140 4
141 3
142 8
143 9
144 4
145 9
146 1
147 9
148 7
149 9
150 6
151 6
152 2
153 2
154 7
155 6
156 9
157 2
158 2
159 8
160 4
161 9
162 1
163 5
164 5
165 3
166 8
167 4
168 5
169 4
170 3
171 7
172 1
173 8
174 1
175 7
176 2
177 1
178 8
179 1
180 7
181 2
182 5
183 7
184 3
185 1
186 6
187 7
188 8
189 6
190 2
191 5
192 2
193 5
194 9
195 5
196 8
197 3
198 9
199 9
200 3
201 4
202 8
203 8
204 6
205 7
206 8
207 7
208 7
209 3
210 6
211 3
212 1
213 7
214 6
215 6
216 3
217 9
218 8
219 2
220 5
221 9
222 4
223 7
224 4
225 5
226 4
227 5
228 9
229 5
230 6
231 3
232 5
233 5
234 9
235 3
236 4
237 3
238 6
239 8
240 5
241 2
242 2
243 9
244 9
245 8
246 5
247 3
248 7
249 9
250 6
251 7
252 1
253 7
254 9
255 8
256 9
257 9
258 6
259 1
260 2
261 4
262 4
263 3
264 4
265 1
266 3
267 4
268 6
269 4
270 4
271 7
272 2
273 1
274 3
275 1
276 7
277 6
278 6
279 2
280 6
281 6
282 8
283 8
284 2
285 5
286 6
287 3
288 4
289 2
290 4
291 2
292 6
293 4
294 4
295 7
296 2
297 8
298 9
299 1
300 2
301 2
302 3
303 6
304 9
305 9
306 3
307 5
308 2
309 4
310 4
311 7
312 6
313 8
314 5
315 1
316 3
317 9
318 2
319 5
320 7
321 6
322 4
323 1
324 6
325 1
326 8
327 5
328 2
329 5
330 7
331 6
332 9
333 6
334 6
335 3
336 4
337 7
338 7
339 2
340 3
341 2
342 1
343 2
344 7
345 6
346 5
347 6
348 4
349 9
350 1
351 3
352 7
353 1
354 5
355 2
356 3
357 5
358 8
359 4
360 8
361 8
362 3
363 7
364 5
365 6
366 7
367 6
368 5
369 9
370 3
371 9
372 9
373 5
374 3
375 5
376 8
377 1
378 6
379 5
380 8
381 1
382 7
383 7
384 6
385 8
386 4
387 6
388 5
389 1
390 2
391 1
392 7
393 2
394 5
395 5
396 9
397 1
398 8
399 6
400 8
401 4
402 3
403 3
404 8
405 2
406 7
407 9
408 5
409 2
410 1
411 7
412 9
413 6
414 2
415 2
416 9
417 6
418 4
419 2
420 3
421 3
422 4
423 8
424 9
425 5
426 1
427 4
428 3
429 7
430 9
431 3
432 9
433 6
434 1
435 8
436 5
437 7
438 3
439 2
440 2
441 7
442 6
443 7
444 4
445 9
446 6
447 4
448 6
449 5
450 9
451 7
452 9
453 2
454 1
455 7
456 4
457 9
458 8
459 6
460 5
461 8
462 8
463 5
464 6
465 6
466 6
467 5
468 4
469 2
470 6
471 3
472 1
473 6
474 6
475 3
476 4
477 3
478 6
479 1
480 8
481 3
482 2
483 1
484 2
485 5
486 6
487 2
488 3
489 7
490 4
491 1
492 3
493 2
494 7
495 6
496 2
497 4
498 8
499 1
500 3
501 4
DEPOT_SECTION
1
-1
EOF
