NAME : gen500_018
COMMENT : uniform customers, demands 1..9, generated by bench/make_tuning_set.py
TYPE : CVRP
DIMENSION : 501
EDGE_WEIGHT_TYPE : EUC_2D
CAPACITY : 100
NODE_COORD_SECTION
1 0.6739185510458501 0.8147106714604504
2 0.337184453424893 0.5705150208928792
3 0.412312276350592 0.2781808952734891
4 0.1620281498255267 0.4417242017473434
5 0.42824764066926435 0.24834916138089547
6 0.30307379260483636 0.16871717877227965
7 0.8112082467997664 0.46272917078508613
8 0.8718467970909284 0.426744855616351
9 0.6312880930024976 0.10882897731341457
10 0.1806078459422389 0.10767936200121575
11 0.27553152949288395 0.5799196603823983
12 0.6446085812456003 0.5762361966089624
13 0.7406168090223808 0.8328688383465603
14 0.594673460250944 0.7968508554400339
15 0.9248311440094512 0.4849889083017078
16 0.6748934965188859 0.3329974588797646
17 0.12346125423832421 0.5465846350744943
18 0.9766885608559429 0.804156561864944
19 0.7547721019355538 0.5629526847658802
20 0.15031295582996185 0.916410553061926
21 0.3790512506748155 0.043488164791484984
22 0.07795952292739072 0.7066907387844644
23 0.8112870923850272 0.003741836655087205
24 0.41016941435743925 0.057551326919188184
25 0.5057099549370166 0.40052179885799866
26 0.16426108643448512 0.3866883235656765
27 0.3175277424369678 0.9757609712359014
28 0.9224978407125338 0.8111590081566088
29 0.47834838572744254 0.4246963959246275
30 0.7965130891571672 0.21952703045585276
31 0.10781677600643513 0.5360828119499225
32 0.5143166679906733 0.6355672356715599
33 0.5988838950111309 0.6673272844653987
34 0.30683702320700246 0.8137835728315055
35 0.22454469510503416 0.13090053016596004
36 0.6383214498892973 0.16678526629457224
37 0.24512049641162403 0.43600363210126214
38 0.06092335444740982 0.37497107245238803
39 0.9029347755774582 0.9797616041010211
40 0.7644796421635095 0.28152145507843906
41 0.5819012759361222 0.22603860152867916
42 0.2965827016448952 0.6257040796772898
43 0.6705707893098873 0.04907189820804636
44 0.8233108602098685 0.12650691640633016
45 0.2682720585683781 0.5584533361366621
46 0.1115857777520265 0.9716084461130001
47 0.023600698363504424 0.3398287760322021
48 0.4299955338513921 0.5380067768733835
49 0.7356752255394273 0.17296494644979232
50 0.7495459515372853 0.48772830017734137
51 0.6150548668058882 0.054306132853956024
52 0.38688093889976705 0.9745542590715258
53 0.7832126922513543 0.28953599287277176
54 0.6855777281592182 0.010127018924716458
55 0.7713840551962163 0.7373413959734294
56 0.2207731179288639 0.5630262335872945
57 0.4579986427928615 0.39206531382080045
58 0.11774796291043377 0.14663835132677128
59 0.16655287520839546 0.19420121685389824
60 0.7312182815971477 0.2546062259533861
61 0.6424461690545789 0.550049789580127
62 0.06792567187551946 0.3781384035745341
63 0.03849926323442787 0.015558775390616342
64 0.9376257829232222 0.20569952811992243
65 0.9349634773938997 0.6557919466759287
66 0.5542880639505388 0.44900310091500584
67 0.6218608761875174 0.7040670528036385
68 0.49143137485239263 0.2193174692773031
69 0.16516674052731894 0.8366921948452624
70 0.23057103770158838 0.16516180333941222
71 0.6447582845236715 0.7653510970469805
72 0.08583911171217695 0.2606151424037958
73 0.45130454962296296 0.658558557140346
74 0.7879822388882781 0.7227486314531006
75 0.780824820523842 0.23874899404465533
76 0.673877208191988 0.7962216920057783
77 0.10775563028660806 0.5463398005136328
78 0.6883080497098197 0.348875183864485
79 0.7831051135755462 0.933453295344733
80 0.8033571661838125 0.34962653667681265
81 0.39804505638171084 0.5994486133754536
82 0.8096800837976863 0.23479960967948976
83 0.17785437684901162 0.9544462592538383
84 0.9164271037632394 0.9241574256286451
85 0.07899594072365268 0.9157347404279127
86 0.4607694231963966 0.07757859306778603
87 0.5725826149495639 0.3706015020635989
88 0.35802251523038586 0.1973382707529301
89 0.8816014014800494 0.5722826928660298
90 0.6741846918495282 0.3071247330234843
91 0.905583566898212 0.19723855552324265
92 0.7545114416614047 0.566037947635438
93 0.3004027944297719 0.974711289266628
94 0.860231132739553 0.9462864288179738
95 0.6024479678514887 0.9884506872170683
96 0.7225016153886995 0.26434962978104637
97 0.18672640984958255 0.3016012328914395
98 0.6517195893619455 0.22451104524412702
99 0.3990888897130366 0.728323484818171
100 0.2503384823565976 0.2674396517514189
101 0.30810337420330614 0.08476518790696941
102 0.2459996867174694 0.665291753305071
103 0.6705184393294057 0.6173888823148411
104 0.3476842549600577 0.7551856563747361
105 0.17377190279090182 0.2966545504023206
106 0.5016261234786554 0.5241419094678714
107 0.08748642078433722 0.02357008562586571
108 0.31579029814551673 0.7993418043768921
109 0.2913466428547188 0.005213540607319267
110 0.07628240839377654 0.8298768842820539
111 0.07125614163650296 0.11534491249145418
112 0.5528814964142376 0.37129672350844534
113 0.20596970651018975 0.9525680694718195
114 0.7389878806517226 0.2855271587905477
115 0.7224014328785007 0.7012940983343183
116 0.6629280867459539 0.20767130297380287
117 0.07082412256231463 0.8209176785411945
118 0.3300291080879365 0.18199765132355217
119 0.568906211015966 0.5961588892457561
120 0.030116151768376787 0.7643085508121156
121 0.7455568864260244 0.5535600281980767
122 0.3082215152490715 0.5276706562354274
123 0.8849129274681865 0.5173977602059214
124 0.19995591198792584 0.03140671859936017
125 0.9712466911258848 0.6686217394325609
126 0.9141390047568086 0.2396376397351596
127 0.5232578114573592 0.06453318022821986
128 0.03180993081292127 0.706513859576962
129 0.9410542630103788 0.4083000711128777
130 0.42177595088425734 0.6156707941268037
131 0.5139752927026194 0.5712531030557355
132 0.11336277375630743 0.5108376660504809
133 0.569271575114362 0.06417515959345155
134 0.16261353247220245 0.02994293048153618
135 0.3548332333316243 0.4986051503651465
136 0.9288124692747178 0.6910598990585558
137 0.45422644201325835 0.8626254879060047
138 0.4498674798597193 0.2867825984782255
139 0.12583935928847767 0.060221671481222705
140 0.8042123943584442 0.9733955561967929
141 0.17023321183424034 0.8624581865900808
142 0.9506470914397909 0.18620787218789547
143 0.5050369473205731 0.2363433294052033
144 0.39417591393527474 0.1383117375771834
145 0.39602927743395744 0.7443858223277985
146 0.32670673480641865 0.3578105673900591
147 0.8480909930987204 0.6793707349099793
148 0.42672234582498025 0.9440440752018037
149 0.6963064093484315 0.23080564139362425
150 0.09963025294731398 0.5449877662744298
151 0.037998707290138656 0.30792079710745535
152 0.4377396403394005 0.5306044255728075
153 0.9602154026071313 0.8591600972464184
154 0.6613051037473853 0.4353590085705952
155 0.39719789320937515 0.08374572654020185
156 0.6844205985757806 0.18059773488508257
157 0.3714919783794821 0.8592421647518852
158 0.871679277614536 0.18843556541735706
159 0.6189326152856688 0.8464892386455516
160 0.1327821009017225 0.6118908258720166
161 0.9878328860836542 0.7496326694393625
162 0.7203344530562926 0.37671491168368354
163 0.17808644765535409 0.5569919569942957
164 0.48116991860310465 0.5053819283243862
165 0.22218225524562107 0.6779620508982118
166 0.23197556802932273 0.15124793971603234
167 0.36176256625984193 0.5523569043217453
168 0.722314055372729 0.17030107295919195
169 0.2669867766182744 0.40040077984008804
170 0.4042627637138674 0.2879188339666877
171 0.8181658071618868 0.10897640612043213
172 0.633902801292881 0.5163235572634308
173 0.8056896687796646 0.7377537007669733
174 0.9375110541258905 0.9581594185841517
175 0.349281813566547 0.40000794931430594
176 0.055100669015755055 0.8361194207842066
177 0.7131228879826121 0.35336008477750125
178 0.29874192895126184 0.8920391528457665
179 0.4849450736902191 0.5441480258439733
180 0.2494527125566779 0.5965808785268936
181 0.8217607218159119 0.41506783285724935
182 0.6018115360714037 0.9758193325524709
183 0.39868551535712415 0.8050257284244602
184 0.04662085986695541 0.16002786506053723
185 0.9842096629699225 0.6696385353697295
186 0.2533688176345148 0.9822277841141422
187 0.15173400278109717 0.06623805509136294
188 0.11207077514331898 0.8380281302112222
189 0.1354630411502158 0.6766606907041188
190 0.2790098009895804 0.7358192518156795
191 0.7260590172292604 0.4360831239963773
192 0.40082195160905953 0.5055951085340065
193 0.8962801157936022 0.03767650989227722
194 0.5355864390212671 0.9064385602442316
195 0.8096525654938656 0.46973397905763825
196 0.2473391297223957 0.5645302100360801
197 0.5935070069961709 0.20819233743199972
198 0.6717360605848354 0.7369525948380702
199 0.24447795138174444 0.7389474669528352
200 0.5104798080125779 0.04002741179893099
201 0.8867510734941231 0.5821161695445771
202 0.219301648502228 0.02746164052924449
203 0.9528128028279742 0.08576864650847427
204 0.09950482551744799 0.04615578432994161
205 0.3932825619924549 0.262040046073004
206 0.797116310071373 0.2519801664121084
207 0.3874376945318815 0.6306350495199315
208 0.2592604468798835 0.6702586807215746
209 0.3659427523352329 0.11525448720043008
210 0.2685703139564626 0.7598204118678039
211 0.33631314604784857 0.8374074567388601
212 0.15192179368192626 0.5279472386849237
213 0.10124951959631134 0.8459195275685016
214 0.7847237406187406 0.0067539835948849936
215 0.28931405933105114 0.9753132147920442
216 0.09024541326716662 0.568253209953691
217 0.0317111853790929 0.6611725384294703
218 0.2595811866868879 0.9315469486908255
219 0.226974176006982 0.16800772755869775
220 0.11069658726157672 0.16910369906760025
221 0.08358506197054116 0.08852942781236883
222 0.04866548841681706 0.17336380076750968
223 0.04791511506214863 0.9106435175760782
224 0.14951616274435042 0.6655028831846659
225 0.7284029241755412 0.0068678471868443
226 0.46535214590262197 0.7230962511144609
227 0.585092011624435 0.02914838873601122
228 0.09592853280407188 0.429982028645745
229 0.15517267976130955 0.20967309714250548
230 0.5572926920660078 0.1796928990450537
231 0.4130323273703581 0.9651648331441859
232 0.330499098552437 0.4419294671137649
233 0.3113074191751457 0.2211581932145532
234 0.8989147766787168 0.15125440394035605
235 0.5884782956703216 0.8908977755955542
236 0.3641284738417423 0.15696251883712387
237 0.12270805905470183 0.7169098065642697
238 0.6374376151859189 0.21396584067481383
239 0.8727539300949873 0.9344019497038372
240 0.8610408056571207 0.9590347824832324
241 0.7641113814358232 0.5469432884491534
242 0.0821998582519412 0.11485357371332383
243 0.5196669435603848 0.881207253553931
244 0.15860276809839835 0.551711787958167
245 0.8845946050752737 0.35443101735264027
246 0.7944736026200523 0.994586709979564
247 0.4569722700323736 0.7977827853036303
248 0.6166323992584448 0.47719306214991764
249 0.3211996737371938 0.7978488924925163
250 0.5244311600550794 0.33381331703670036
251 0.5169494640732025 0.8860519641021395
252 0.6056607019950303 0.9570210458965315
253 0.7959794000211176 0.31731002882569337
254 0.7790166989949949 0.7023000794265775
255 0.3556451156782956 0.23246237122925584
256 0.4131156698472541 0.6773334078211976
257 0.16045620580948006 0.5623340058623075
258 0.08424892496171643 0.5834052838925293
259 0.22353684863773005 0.7811207059891047
260 0.6377530609128123 0.2176401551445123
261 0.5854730705584961 0.20593969716402127
262 0.4384055915290833 0.5780876694604167
263 0.3134043166209537 0.22819964219944633
264 0.9146473681980977 0.1850081488842057
265 0.3186016415556794 0.6941479600220377
266 0.07871881710174677 0.09063265887723027
267 0.10350668937379803 0.4507849370700663
268 0.07253501927801453 0.24325785088943164
269 0.7318592248936473 0.6706798711403925
270 0.4326000266025717 0.44026028424839125
271 0.2738597741981842 0.04346420201946721
272 0.2656944034376133 0.11712757684229269
273 0.41310543594106386 0.27595740731882523
274 0.26869787023242064 0.1123529972088434
275 0.3076257263220804 0.1869129630794446
276 0.29393123051000625 0.2595740719948162
277 0.22806354585929345 0.138804408432038
278 0.7149773835188407 0.3935177470450709
279 0.48786434273027857 0.16347553266418524
280 0.1727912096425268 0.41495955248811556
281 0.8841369190858167 0.25733510591334197
282 0.08034308818973457 0.6510795845257457
283 0.7425429687818021 0.60728857481891
284 0.9899080800890886 0.021038229551764154
285 0.938957801560832 0.09635121488616649
286 0.24426891765575787 0.4256297168274983
287 0.38503866049821256 0.30074136576210386
288 0.5951805506711875 0.13291598016159512
289 0.2754034040580374 0.6631468464270289
290 0.07798236395833769 0.2723316793889836
291 0.9338655067483432 0.679397050141986
292 0.7951320803916716 0.4740825988172632
293 0.8792386725335514 0.48084024800108316
294 0.5727672439125902 0.848621811970473
295 0.017942005613831635 0.907011766839479
296 0.6589732828867872 0.7656391220053181
297 0.937313913087855 0.10806019066606853
298 0.7327618019944268 0.9658415938701166
299 0.23228306412282074 0.49141416361671764
300 0.8740530372329148 0.3177084416290158
301 0.03335120703723493 0.9476504604278227
302 0.6523848813371783 0.33107861312322084
303 0.730871542873331 0.8941222515179115
304 0.3489304043161594 0.9514229772633875
305 0.9173887832770017 0.2520647242502889
306 0.38796496204763775 0.8179602559655316
307 0.8938120514836366 0.25417672052079165
308 0.44174296007683944 0.19715133701724874
309 0.8268518162633948 0.025938073365425862
310 0.22317402247446805 0.0970429288821324
311 0.39650088937667893 0.33996643531441106
312 0.7549675169779829 0.8988103851133545
313 0.20226545610235513 0.435685280623599
314 0.5379818376368942 0.4959274309399925
315 0.6152205427801872 0.8992939177842094
316 0.5730149423554648 0.9726527173813775
317 0.6449035792729723 0.001749023739769373
318 0.652430923929781 0.8232085843605103
319 0.6854889475599417 0.5487098702895161
320 0.3149525290625438 0.016116167880829924
321 0.5928411800874829 0.5759348622715756
322 0.3884757065237616 0.8350198982045131
323 0.8964889971645092 0.5342759142720441
324 0.5555988730396104 0.937717492369021
325 0.886526855787255 0.5684299914609413
326 0.9537630057830001 0.3320930023198536
327 0.28058395102703104 0.5549778039758451
328 0.10950161429761962 0.7454851749350044
329 0.9342424731397181 0.9680853077242119
330 0.8693297322678979 0.6462952097008373
331 0.5376461375531927 0.5021364770281608
332 0.9551178163421956 0.6906447080005845
333 0.7391295361647053 0.6493863287057842
334 0.16401722335096103 0.6396749456302252
335 0.07237440673773798 0.688852124629854
336 0.6741795995894907 0.2191330559075585
337 0.31689723506465484 0.37309906407947435
338 0.22664740431214858 0.9416397664920225
339 0.08836436560059546 0.435887581152558
340 0.537264401185164 0.44060701606000185
341 0.6194981450099745 0.4765904082815834
342 0.18687854070800414 0.19735817065636851
343 0.5927155651900214 0.5247364827966006
344 0.4784525670379681 0.745430609525536
345 0.5910858828318986 0.175172607301615
346 0.5223118289210926 0.19890932488397672
347 0.5331989695615102 0.354279965531323
348 0.35256491244555477 0.9230606001723364
349 0.3146579458570641 0.7901793124169729
350 0.336648394777998 0.7976046477118687
351 0.9789208783145581 0.31901417853485337
352 0.9866045409146675 0.8057079952982965
353 0.9253865571736991 0.5659428677418292
354 0.9420939164936121 0.5643178998588311
355 0.4897133541730412 0.8393983694164904
356 0.6093045624825925 0.14510469050102093
357 0.8094054017667842 0.026179309158531505
358 0.876482136010447 0.6706160226130395
359 0.6389331911178715 0.16061314591819054
360 0.41077589613638776 0.48964456681350965
361 0.12468223743439688 0.9680348580407522
362 0.27464243867951266 0.22104651264174158
363 0.623444055906967 0.1296678960002169
364 0.41950854673550664 0.4704426690663598
365 0.376376250234567 0.8502545170907799
366 0.7229114943046621 0.11311683016810536
367 0.5865492370974752 0.30645480504674083
368 0.8039236300177871 0.6959961134689776
369 0.9136947876024123 0.37883265825482904
370 0.7967490317437484 0.9533176453286047
371 0.7910803731641793 0.4682655073862868
372 0.8314217285261887 0.6365730640586239
373 0.99013507625061 0.949291146955181
374 0.06938686635431068 0.46916132483187856
375 0.23277435392842316 0.8395049410458996
376 0.03866199761581701 0.4167657323006355
377 0.7019093938458093 0.5921980343188133
378 0.48632172030461496 0.2925150976013686
379 0.6101220470460303 0.7910269648116892
380 0.49317054871835975 0.04519361367146335
381 0.2287466890992842 0.9478532484223423
382 0.6354805024266269 0.8803600073632035
383 0.09025007909347893 0.08233025422698925
384 0.10550246260209017 0.9058480849966909
385 0.8116808541241789 0.34393987827882566
386 0.5659637714585466 0.32933342445602987
387 0.12473858475991728 0.3919795091111643
388 0.8034231910787931 0.5028210689845398
389 0.04142967559525579 0.6477785317033742
390 0.06207523848463459 0.04055858735131013
391 0.8820312703575086 0.7838592623446056
392 0.6364840058717219 0.31014113962627465
393 0.7675414255277812 0.38609290192744194
394 0.9253291792044929 0.7983246171471649
395 0.13319713170989056 0.18391117384932498
396 0.2583735787577811 0.963551350766773
397 0.26711629462915254 0.43583776145648023
398 0.28746003111134255 0.29527881898277786
399 0.7378020900039987 0.10213997929563712
400 0.2815090206146662 0.35845706589421344
401 0.42143879974136644 0.29046005170482925
402 0.732310209505867 0.17948148344319526
403 0.9459271361279887 0.8474003229951437
404 0.29996816487870503 0.21887253855971978
405 0.21998130218948064 0.355250701065312
406 0.4391321714227805 0.9433227633739809
407 0.10271149259344314 0.7671945683203959
408 0.24366317310554497 0.24527894544574458
409 0.8912767349742788 0.5457417998739994
410 0.3694313250830552 0.03710557252940083
411 0.5093623697736954 0.7227910770642473
412 0.790789390123764 0.9824312388700124
413 0.6002016018639391 0.3938660706409579
414 0.8750488337866127 0.037816249120173895
415 0.5479843766235264 0.8921703789519803
416 0.7635509025564047 0.06282438055203654
417 0.4182336005904792 0.14757918733148212
418 0.027168116370500095 0.20322775443285668
419 0.5535455294746184 0.9077584262888422
420 0.8638517474678623 0.7299216430123032
421 0.8620618996043128 0.9481776888761588
422 0.0804143590274593 0.24367081091201004
423 0.07183402475459821 0.6026801302640186
424 0.2773139300053036 0.9445700974330655
425 0.2090728238235533 0.2215031345629217
426 0.48074364330509944 0.8339309849929112
427 0.8175854130988863 0.6262332330421865
428 0.0637601655946628 0.3775544290858488
429 0.874626949812779 0.5575483790038758
430 0.09863777359095549 0.8779354201632128
431 0.5371053306752103 0.9583116196195681
432 0.9905017447555449 0.5280341495933895
433 0.7978271246347393 0.5905325519590408
434 0.5215056558350586 0.003912339386214048
435 0.17431923557900864 0.7527180383161388
436 0.04719042762316006 0.15968510197595243
437 0.17178886284392159 0.09417036087142017
438 0.9037732352670031 0.5233514662695404
439 0.15949921065884143 0.6938938600629942
440 0.41807198512842003 0.8494139970301535
441 0.9654577334517666 0.2685108487488681
442 0.9903544288038132 0.115354397368988
443 0.22377473599951425 0.18140595096127365
444 0.11034192327050119 0.6689273155284932
445 0.1828739100293595 0.14147554546037366
446 0.19280683422654754 0.8613102878836031
447 0.0704977265360125 0.6955197862418576
448 0.5277252366886517 0.3150270448262469
449 0.08006879000173017 0.5885681831391729
450 0.8615618622410952 0.5815032714644274
451 0.7751878519362728 0.9925626794040118
452 0.35439354035654824 0.08647671104953736
453 0.24154959729365233 0.6366171271535547
454 0.20433105520756778 0.5483826694775985
455 0.6563518041153658 0.10877245363475418
456 0.24301899076176137 0.5767220458821687
457 0.7973833466099324 0.49628529898414053
458 0.7432869180856486 0.5188295337088762
459 0.06434668837155855 0.46215152146658933
460 0.23816279298475285 0.759320934333066
461 0.6309597045578499 0.622916008352983
462 0.8882069643740959 0.4437274153482026
463 0.0490890042919605 0.7218579223966768
464 0.16048459735874876 0.1749868615299518
465 0.5853335863153519 0.4174795040071503
466 0.416834670788385 0.5415492830221689
467 0.8713693722428963 0.6152728179902758
468 0.9689387595724389 0.552762336604147
469 0.17969878765095604 0.43171977539817163
470 0.24336414165715003 0.659946049917801
471 0.27559717106488046 0.8996651967310472
472 0.044454939646509706 0.8067433995332638
473 0.07613121975179793 0.00830222843941375
474 0.4339714338471934 0.5803150890432602
475 0.5136411938518444 0.38564443188083863
476 0.9588561594848563 0.6987591105308055
477 0.032121991199069666 0.39432378488999664
478 0.6613934814417104 0.6770068777164766
479 0.262051504213224 0.3357589917749608
480 0.7433061334601208 0.829009503506517
481 0.15860917640269634 0.9266367831330273
482 0.36096991029854975 0.42739074081970974
483 0.9270176098683144 0.8432023295918795
484 0.9113120016366557 0.530448469105188
485 0.8464188970808665 0.0244075976995769
486 0.3680844787914952 0.5006100669163908
487 0.839749795833171 0.04310562977995247
488 0.7381112644235708 0.49913249970783813
489 0.3348683417826108 0.7148455687875507
490 0.04649180196348657 0.8735093162212872
491 0.2677933519487923 0.8011066570718078
492 0.4785590590359575 0.6918354590686451
493 0.4281390730447192 0.49866841390187044
494 0.8330835000243575 0.1350402316534577
495 0.9886142741845997 0.024242561186675005
496 0.3679151225391857 0.3908603977141495
497 0.59552447011239 0.8511640051425706
498 0.5693532826068476 0.7030143714058373
499 0.618455324677012 0.6498907963516394
500 0.1893076167330432 0.41194020552682065
501 0.7213936828052073 0.9064626131936792
DEMAND_SECTION
1 0
2 4
3 8
4 1
5 9
6 1
7 1
8 7
9 2
10 2
11 3
12 6
13 4
14 8
15 3
16 6
17 8
18 2
19 4
20 1
21 5
22 7
23 9
24 7
25 9
26 6
27 2
28 6
29 1
30 6
31 2
32 6
33 7
34 6
35 1
36 7
37 1
38 5
39 3
40 9
41 5
42 2
43 2
44 7
45 8
46 9
47 1
48 2
49 2
50 4
51 6
52 5
53 7
54 5
55 3
56 3
57 9
58 5
59 3
60 4
61 9
62 7
63 3
64 3
65 8
66 1
67 3
68 3
69 4
70 9
71 1
72 7
73 6
74 4
75 7
76 9
77 9
78 5
79 7
80 9
81 6
82 3
83 2
84 4
85 3
86 9
87 8
88 5
89 7
90 6
91 3
92 2
93 2
94 9
95 2
96 3
97 9
98 9
99 1
100 6
101 8
102 3
103 1
104 8
105 1
106 8
107 6
108 5
109 5
110 2
111 7
112 4
113 1
114 4
115 3
116 1
117 3
118 2
119 8
120 7
121 6
122 6
123 5
124 8
125 6
126 8
127 3
128 6
129 7
130 4
131 6
132 3
133 5
134 7
135 9
136 5
137 7
138 3
139 1
140 4
141 8
142 8
143 7
144 7
145 9
146 4
147 2
148 8
149 5
150 3
151 2
152 3
153 6
154 7
155 1
156 9
157 7
158 7
159 3
160 8
161 8
162 8
163 1
164 2
165 1
166 1
167 4
168 8
169 1
170 2
171 9
172 1
173 3
174 6
175 5
176 2
177 4
178 7
179 1
180 2
181 8
182 2
183 4
184 1
185 7
186 9
187 9
188 1
189 3
190 4
191 5
192 2
193 2
194 9
195 1
196 3
197 8
198 5
199 5
200 3
201 6
202 1
203 4
204 5
205 8
206 9
207 6
208 6
209 4
210 2
211 1
212 4
213 2
214 8
215 3
216 9
217 2
218 5
219 4
220 4
221 5
222 2
223 6
224 6
225 8
226 6
227 7
228 1
229 4
230 2
231 9
232 4
233 5
234 3
235 4
236 8
237 6
238 2
239 1
240 7
241 1
242 3
243 7
244 9
245 9
246 7
247 8
248 9
249 6
250 1
251 6
252 6
253 5
254 2
255 6
256 2
257 2
258 7
259 7
260 7
261 1
262 8
263 4
264 8
265 4
266 2
267 3
268 7
269 2
270 9
271 2
272 6
273 1
274 3
275 4
276 6
277 3
278 3
279 4
280 4
281 6
282 7
283 6
284 8
285 6
286 5
287 1
288 1
289 2
290 1
291 8
292 1
293 8
294 3
295 2
296 1
297 1
298 1
299 7
300 6
301 1
302 9
303 2
304 6
305 5
306 9
307 9
308 8
309 4
310 1
311 3
312 2
313 3
314 6
315 3
316 2
317 8
318 9
319 1
320 6
321 2
322 2
323 6
324 5
325 8
326 3
327 4
328 9
329 1
330 2
331 8
332 4
333 9
334 5
335 1
336 4
337 5
338 4
339 4
340 1
341 7
342 1
343 2
344 4
345 2
346 1
347 7
348 6
349 5
350 9
351 9
352 9
353 9
354 2
355 4
356 3
357 7
358 7
359 5
360 5
361 7
362 6
363 1
364 2
365 4
366 3
367 1
368 2
369 8
370 2
371 8
372 5
373 3
374 7
375 1
376 5
377 6
378 9
379 5
380 3
381 2
382 8
383 4
384 1
385 5
386 1
387 6
388 4
389 2
390 6
391 6
392 4
393 4
394 5
395 4
396 4
397 9
398 9
399 7
400 9
401 7
402 2
403 9
404 1
405 6
406 7
407 8
408 4
409 1
410 1
411 3
412 2
413 9
414 3
415 8
416 3
417 2
418 1
419 1
420 2
421 4
422 4
423 3
424 7
425 2
426 6
427 8
428 8
429 4
430 4
431 3
432 1
433 2
434 1
435 6
436 5
437 9
438 4
439 3
440 3
441 8
442 1
443 1
444 2
445 5
446 2
447 1
448 7
449 8
450 1
451 6
452 5
453 5
454 3
455 9
456 7
457 6
458 2
459 4
460 5
461 8
462 7
463 3
464 6
465 5
466 9
467 7
468 9
469 9
470 5
471 3
472 2
473 4
474 5
475 9
476 5
477 5
478 9
479 4
480 3
481 9
482 2
483 3
484 6
485 6
486 8
487 6
488 3
489 9
490 2
491 3
492 1
493 4
494 9
495 8
496 2
497 3
498 4
499 7
500 7
501 6
DEPOT_SECTION
1
-1
EOF
