NAME : gen500_001
COMMENT : uniform customers, demands 1..9, generated by bench/make_tuning_set.py
TYPE : CVRP
DIMENSION : 501
EDGE_WEIGHT_TYPE : EUC_2D
CAPACITY : 100
NODE_COORD_SECTION
1 0.18685795839862507 0.9167399422495889
2 0.8938416034226753 0.3232629005776202
3 0.24551420499519205 0.6387294576733563
4 0.19983546262014062 0.2706254657438262
5 0.8795551981230333 0.9106273457443658
6 0.22065163538441124 0.9382793051855995
7 0.3752209888417104 0.33667134357791273
8 0.3220801958034253 0.9988140673319625
9 0.30571897900598277 0.4495714565030602
10 0.35945051029541686 0.8025431771556033
11 0.7764073774193763 0.36770750361345184
12 0.22319606942276538 0.3822470914189009
13 0.3871182654992458 0.8212368740200356
14 0.12270678352375253 0.4998246081284622
15 0.3070974095433314 0.5462498603889582
16 0.6821521769635818 0.9455939175951006
17 0.058983352660672894 0.7959778965116493
18 0.20763778425872015 0.53783790636458
19 0.8344477868533613 0.8627085216509602
20 0.39477050158140536 0.19919094906875245
21 0.4624161037008573 0.22298240820371473
22 0.38228104485905656 0.4655325926350997
23 0.5722897781525393 0.7935526461601536
24 0.050807455678466895 0.4778036255589535
25 0.9342978384681283 0.5879873586794215
26 0.042976212832133376 0.5130593083837816
27 0.6527163621551672 0.6911428277270545
28 0.09775786811030296 0.9494362142341325
29 0.0941340243485711 0.23231295392436213
30 0.10033085642373818 0.7719847837846314
31 0.6119090917640712 0.07239698478113565
32 0.6360230187669579 0.36024201566086855
33 0.0897909454146042 0.020199658434990275
34 0.6588429344414027 0.9945549451080744
35 0.536347905134544 0.01866387470608355
36 0.9146294332852861 0.786204088326597
37 0.012053101063707827 0.9921303928460249
38 0.052297121214882614 0.8875543763766888
39 0.7136507912551386 0.18812618266780046
40 0.2290083721351417 0.6423937441850297
41 0.6520602535017349 0.29614483248900336
42 0.2518191585983287 0.3919235031314747
43 0.791412969373332 0.3240747855289936
44 0.8438561144366135 0.15210861757084315
45 0.8448358989377497 0.46308508471107035
46 0.8439269436567389 0.5412645168491572
47 0.575629320648523 0.6928043263551673
48 0.32996094680618204 0.34344418709875035
49 0.1933967572284978 0.6711237120416514
50 0.27129383616218705 0.32526262610903245
51 0.28683493465847065 0.5866938483438559
52 0.21190575752450336 0.5617018646970934
53 0.598085320816786 0.4068880826727419
54 0.6219630409729611 0.6536016812655383
55 0.8432978292141238 0.8147094683684614
56 0.7801627983589453 0.026281346195381472
57 0.02251288728160028 0.7471289762378391
58 0.44782843714898557 0.6654164124583183
59 0.6437953899113112 0.06687046846352174
60 0.979178275394638 0.2438510897892321
61 0.8542763011157053 0.9924732503234365
62 0.5576138856839068 0.7804363474439805
63 0.27522182349115876 0.5013910831781839
64 0.4973735388997699 0.969045716732057
65 0.2790608576228414 0.7000870025323173
66 0.32977373282264655 0.5884063173380611
67 0.43938287435412327 0.23958324075178716
68 0.8082920674828682 0.3174003866105355
69 0.8500861385688755 0.3789459143480016
70 0.12464202705809335 0.10604777297962731
71 0.7255301833718838 0.8210897400791195
72 0.4531724368227996 0.7511471780013702
73 0.9419584169380618 0.2766316888774347
74 0.011352451575386446 0.9575560660086034
75 0.8529379791149627 0.7305219330280995
76 0.39859718205099237 0.9322355944220911
77 0.4272081398185611 0.48587243860685403
78 0.15687064836330256 0.2295365357051139
79 0.06027513774319715 0.9566414055812905
80 0.20132199414483742 0.018986169297383504
81 0.19081014804623941 0.9519752995846288
82 0.01071485751150647 0.7224084647304225
83 0.37912182973855957 0.00870121438573701
84 0.4853432102088715 0.7986258404011192
85 0.9366925671986198 0.9673602008602431
86 0.6817224067875044 0.19748810081878287
87 0.7748459824915495 0.6113435832492742
88 0.1571618526152725 0.2033277117133283
89 0.9737778969526919 0.7553031679021769
90 0.897449591003025 0.4476110329313777
91 0.9310630652044884 0.6958711328735817
92 0.5461239077276242 0.6803971788937282
93 0.47825213830502666 0.405778144063905
94 0.12032388590819099 0.2361956832331582
95 0.02404540264844146 0.2765526518203829
96 0.022403945936549485 0.18709248798545253
97 0.4595244101926209 0.944875492186933
98 0.5733726559290084 0.3091173639619119
99 0.1108345122745159 0.5291670752524673
100 0.17012973241283957 0.4516403768488987
101 0.9025257240260071 0.023177637032801734
102 0.8809878622355081 0.3019829068572638
103 0.35397965386594676 0.9157927645916151
104 0.8543711049938363 0.681710620246486
105 0.3201815085938957 0.23479808772712796
106 0.08518500742655055 0.8059471300733565
107 0.8489770461725289 0.4776336486517637
108 0.7775895631617177 0.8955593248681232
109 0.23778822772697494 0.1987554999901996
110 0.47149401498478194 0.03866381302650934
111 0.40504810508319644 0.08214093695941194
112 0.6243779420071164 0.19159628339091084
113 0.20050353542668997 0.5121858182125228
114 0.22111532058430527 0.7599309482469289
115 0.4820544366400469 0.5519131895872096
116 0.9363659985181417 0.5159203118459952
117 0.8504105885376099 0.6040477422419055
118 0.6742174661161537 0.11204686881185344
119 0.4425362505903808 0.4091464976651136
120 0.6279270089056685 0.44934987839212015
121 0.2941653208478844 0.8994546355495354
122 0.5960112651216735 0.5900592408096937
123 0.8693521568944182 0.5722060732612024
124 0.34982370645976446 0.31610407380281724
125 0.4220325481726628 0.9589733863519587
126 0.17003500747539435 0.7867905091323371
127 0.9469522157126757 0.9944467641862622
128 0.224901101581938 0.3253606491428671
129 0.5234112577351057 0.023696153429812794
130 0.4600009355112591 0.7717533336425698
131 0.1300755942051438 0.13252908351571213
132 0.2962780726479617 0.3815519532020635
133 0.33921975573233665 0.8163985958906358
134 0.018785210131830432 0.2092802390412335
135 0.5225674992379189 0.7839099219606992
136 0.03503596536775766 0.5838115323320447
137 0.388565021087927 0.27116938039735083
138 0.15787347394549434 0.8475382119604891
139 0.9025075145783803 0.4626234962241871
140 0.3104994841356248 0.8577191541736079
141 0.14438965822064653 0.001883355295699607
142 0.4290794504410629 0.06669081601802318
143 0.14819962434408296 0.9920764289829309
144 0.5916628616259159 0.701186814376689
145 0.8991343872477457 0.6780928833335793
146 0.47634293859660004 0.4628248222995285
147 0.6455180264206869 0.6323856289969622
148 0.3573334763787219 0.46147196144663405
149 0.7965976818433269 0.6351371766727235
150 0.34560982658181527 0.7292410021555202
151 0.27193665454034965 0.25876659338880603
152 0.32898031458623667 0.7618975043697348
153 0.6763197664552618 0.8951087549151707
154 0.9201086294062549 0.4425600142050061
155 0.2111727118970278 0.9244903384321947
156 0.8657360256973278 0.9042240110477697
157 0.06206940536572669 0.816756888833589
158 0.016932452867653325 0.9414058389186691
159 0.46374700776478117 0.994742445221847
160 0.8308730458938183 0.6035211861869056
161 0.9782379325089458 0.719791038716156
162 0.3136459427012359 0.8149714256106554
163 0.5984923687440954 0.7511874012386207
164 0.764917151909322 0.9512285625168114
165 0.1750763782403556 0.18230259442861396
166 0.15575511346636917 0.952413812445773
167 0.9414430470728798 0.9965551394857862
168 0.5579485852449341 0.27079470904709213
169 0.16871948970824013 0.677347463246635
170 0.9553779984823284 0.23083491530888434
171 0.8016255843579955 0.9884223526649794
172 0.9207964291684207 0.22092123085473214
173 0.85827603789052 0.25659974718303025
174 0.24249683564585556 0.28337678551202206
175 0.06956569781521438 0.3301086088064432
176 0.6173436253263302 0.9550103372688336
177 0.011714417053308224 0.7581745234171171
178 0.11933175601365575 0.28737090402027643
179 0.25115427826937875 0.26021858565878453
180 0.773107491818138 0.5031933046632079
181 0.3522022999914808 0.024350751910569457
182 0.16715308655912786 0.7813732663207168
183 0.057932778971703236 0.5130256571021314
184 0.4526113552423363 0.49641605884125983
185 0.2956999094140834 0.6833176105788862
186 0.7881381705093442 0.3072523787264332
187 0.33348749954223256 0.8769211597623418
188 0.2225375570842003 0.8877356012184404
189 0.7618981672322152 0.32928467266589434
190 0.954905321912032 0.7599575456162089
191 0.28809286554356706 0.9335734594588442
192 0.479864607913566 0.2511637602196183
193 0.6005514434992756 0.04253881548586025
194 0.4218723131278541 0.9838589703040722
195 0.9651873523530491 0.8918656970967346
196 0.8623243678104541 0.7034252518773527
197 0.9407798077330487 0.2088585043261143
198 0.35118582176893387 0.8484990782210013
199 0.8653057566445884 0.7507308573858353
200 0.6287596888570395 0.5483945734808959
201 0.9898041629097001 0.7729874314682593
202 0.11168570287656476 7.987249575180932e-06
203 0.9253753067770955 0.8852018890740389
204 0.12113314192662972 0.4411309342283274
205 0.8513944509731227 0.19220541254917034
206 0.4750790759969722 0.7000691885617524
207 0.15796886028802848 0.9580204594538947
208 0.3909191751777531 0.4034262027971376
209 0.454725394806065 0.982349503040548
210 0.4422102077261906 0.3708674686367288
211 0.04401295091160373 0.7430049382686522
212 0.9402660443094231 0.7047595884661003
213 0.5366230179766687 0.5551902151029245
214 0.8079140727142576 0.691322110040323
215 0.319403057392609 0.5955729611016046
216 0.24074058913840524 0.1443418641424592
217 0.9611365773485995 0.07487394016217697
218 0.008203629828041459 0.3021829653255619
219 0.38182499852481955 0.8185599028276789
220 0.5099153964030994 0.23115743226169339
221 0.3544888855856356 0.5261146317099702
222 0.2040532072885487 0.792581718187183
223 0.5807458009878376 0.7892841180672387
224 0.6772605170758139 0.8528865894348263
225 0.38442670139886925 0.9270435185058685
226 0.3117122470718816 0.7672419125907589
227 0.39560086222194113 0.9050978985577633
228 0.804541852370094 0.9149443714050318
229 0.013431800446773834 0.9732455671110264
230 0.06578754258194064 0.5057678145338438
231 0.4669764654031857 0.7561118219146883
232 0.2638270031376003 0.03085683572727005
233 0.966041393459339 0.4378263902284901
234 0.4164058481971237 0.9743226219770732
235 0.5596675666225794 0.6794491350598136
236 0.3458105378754758 0.46073836270045343
237 0.4243652639513541 0.21400763720838245
238 0.4793589459160481 0.012909961752262111
239 0.37678008938314567 0.8755188502501131
240 0.09497932228624772 0.9634943709862032
241 0.7036720015530499 0.7247600080057833
242 0.02160406201925702 0.17224316464618794
243 0.7386359512638478 0.9155437913437093
244 0.13440713432110685 0.3945279044488328
245 0.09573714541694733 0.38876871803097257
246 0.907698157176916 0.7702442302249042
247 0.9964254924227509 0.35291632563616626
248 0.8128692284993883 0.08167549031645527
249 0.8826999246673601 0.4759852324596484
250 0.25327213482880406 0.9273272822241623
251 0.32880223061104485 0.16757947564391273
252 0.7477481881758344 0.9492371105360062
253 0.4084069183093473 0.9098285154475568
254 0.941294276126974 0.45571405644332685
255 0.0024663949891643444 0.4945588805242308
256 0.2750598112369639 0.4931891662484226
257 0.01783976242323282 0.8250040366973315
258 0.6313713310774142 0.6860086355506521
259 0.7880224630262761 0.46013720151741033
260 0.6979140290399674 0.2888841856537978
261 0.6182884251812221 0.3114675464550193
262 0.4679561496406537 0.8736338572294253
263 0.572704315777482 0.4170310747835049
264 0.748081940780655 0.8695989650536644
265 0.10612790253194715 0.47591937468727896
266 0.0004695790475204298 0.3202825986632275
267 0.956729243949439 0.11558609959611477
268 0.29179796199783636 0.267211614433535
269 0.2050032798255077 0.21381895118436556
270 0.8956450001588342 0.9101279934170263
271 0.8203954590894413 0.6041171434739822
272 0.16125079298575973 0.17575616377952108
273 0.9671027806885321 0.5748914941149709
274 0.2962428431542349 0.7931308000477394
275 0.9569825805844655 0.45110069667746644
276 0.2231556967085795 0.6649347725362501
277 0.37936011776941736 0.8060964016393659
278 0.588557378264097 0.7790797128410224
279 0.09249781040047922 0.6023032100004018
280 0.7994567145392468 0.1674158963421466
281 0.14003312151524883 0.5979628583702128
282 0.5096673950273874 0.3345435408284658
283 0.19750569922104266 0.7353722670043426
284 0.9808356788411492 0.9499223997300745
285 0.6705777467243941 0.8610709721595629
286 0.8924988716755986 0.21532402482012336
287 0.28669956431960597 0.3376807344834224
288 0.8801839979039008 0.8236834809458908
289 0.7114093039125818 0.9148957232370765
290 0.579532684448127 0.9603184810984283
291 0.7458456107424652 0.021411629908082874
292 0.2964878087776298 0.2784617975897843
293 0.022415209825664473 0.7877298566051277
294 0.9938664447368033 0.19042361745982328
295 0.8087182195043954 0.949544976356062
296 0.917155500646032 0.09076110785689662
297 0.6987677179883882 0.49431593865907475
298 0.6318063179545433 0.9453961125857009
299 0.5445421909263233 0.13460297307678315
300 0.9916504549985286 0.9959674688861707
301 0.5634324517945184 0.7567020951869277
302 0.39756634753637665 0.4446553110479974
303 0.10710203171392574 0.543952563627391
304 0.5608448764775742 0.3803237160100085
305 0.9587641551679226 0.01185557358334055
306 0.5017903773882625 0.7839193111820546
307 0.1842935183284432 0.27513168400651844
308 0.3137352108255731 0.07917457449549326
309 0.30879087673456884 0.9005262240427407
310 0.4143166900652473 0.8626085637391658
311 0.2565393043844846 0.02561093173921114
312 0.007146505912002499 0.8270533166964512
313 0.3472717729616924 0.3258100479501347
314 0.04335698283500744 0.4643567203892902
315 0.6825978664634356 0.9384227654156522
316 0.26519199245540304 0.7973852844193068
317 0.030568950979622422 0.5279328731214903
318 0.38757750990035167 0.6932808294620616
319 0.011074690664946374 0.4267232693023796
320 0.2667286610812529 0.8562236459447643
321 0.06313368084360615 0.2548630377307368
322 0.9245176312147431 0.78820453447498
323 0.7579705985925518 0.6697235511560005
324 0.35930522853799973 0.10157571514526498
325 0.08699898421536512 0.10946009584176342
326 0.2970517093866102 0.1317721848612733
327 0.3699416771223587 0.3139119866147191
328 0.21248745941533265 0.004575718970876941
329 0.17628985229261962 0.7381274878487574
330 0.9833857030150841 0.6991249269246291
331 0.02364097904343021 0.2805121298692377
332 0.06257422073401941 0.7638788552235573
333 0.8365970210833426 0.34521892559465905
334 0.7846717780999349 0.722171585796887
335 0.6323587811632201 0.8664279167958066
336 0.9296446019497083 0.7972099746508076
337 0.9245565850619647 0.2845286362642355
338 0.2669336750244453 0.11152891726699599
339 0.9769614579014685 0.1284003693681418
340 0.3407111282727484 0.5782375951427934
341 0.4601941637034551 0.06036310056323879
342 0.5105300674903493 0.3442035489953096
343 0.7636270828531477 0.44813011628113397
344 0.28173818254697935 0.797695205365574
345 0.9206092676665855 0.30474639029617157
346 0.7443719779583592 0.3869126862210057
347 0.10595241222883611 0.3564298929755806
348 0.24366295781373337 0.884204354958293
349 0.1194849297712487 0.5926127021868559
350 0.03612757354118579 0.4080756434755275
351 0.829130904884385 0.43792200101046896
352 0.5555067845300483 0.3326870396226729
353 0.5844543498699466 0.2929793226755101
354 0.43731356508409325 0.10700321171272609
355 0.8404160498909748 0.8524433235788789
356 0.886676868574534 0.5131652370507039
357 0.541547220518699 0.2587826329507795
358 0.9223630604364066 0.34973229209788026
359 0.41382641690130917 0.7071503522337639
360 0.6217497813508129 0.26966106694285463
361 0.3550123593926411 0.8303142266283011
362 0.7094273105894506 0.4419813604889615
363 0.4198982154478026 0.8437155917346578
364 0.7219303242959575 0.18523068395507947
365 0.6132301114188639 0.4269162583931433
366 0.9755284642607019 0.63785576582713
367 0.3450654256475719 0.8612278837203509
368 0.5491514394864686 0.3062895992175083
369 0.014137286541661576 0.17819894144149728
370 0.2546110657714249 0.05317518090117401
371 0.8304215524624309 0.5228696028432424
372 0.40871659669647 0.2050255644811959
373 0.19455001136805605 0.46558100103732525
374 0.5867978204827364 0.5947427554257658
375 0.20600010466295027 0.6006634459970245
376 0.40132943260301457 0.9387773755902328
377 0.9103443800049122 0.016779811544299972
378 0.8098224395518702 0.7292760588872119
379 0.33315441577725313 0.599900489597507
380 0.4935560425228437 0.5824832562743614
381 0.24043448245818722 0.5394043245198353
382 0.196900769064681 0.9753861550592928
383 0.31478539884745316 0.8228201033279289
384 0.4162540352706612 0.592849634092689
385 0.8710824888443874 0.52515620672273
386 0.3100938902910214 0.43446910662333993
387 0.976670402249556 0.2806756121887065
388 0.42055778204408123 0.4728427628671117
389 0.9028755875553505 0.08928117710669325
390 0.9327449158452369 0.5403981342329263
391 0.3133334971540901 0.9289034606903004
392 0.05044666651769314 0.23315874999087727
393 0.5901780145957831 0.9553317870884134
394 0.6124336762865237 0.39119884264634175
395 0.11687003744225677 0.7198329034250479
396 0.07785236964478925 0.982241505881511
397 0.20572983319293714 0.3776035602186323
398 0.8263121342098274 0.7369929542035644
399 0.4740926193585182 0.8397495705868739
400 0.7813229947276189 0.6490838817074637
401 0.6773106691607783 0.13439028529401853
402 0.29465730456770145 0.7524668618006849
403 0.10523101631328924 0.07332056751678073
404 0.7898840620110086 0.8672754904288952
405 0.06505289084506916 0.05559402156775306
406 0.061847990166489675 0.5876330978725908
407 0.5399955079046106 0.08145385373184866
408 0.6620126034595626 0.9689837344370327
409 0.23594622785645913 0.6925489887473935
410 0.8540166796789751 0.6702608836254474
411 0.020111292002767067 0.08990536131570781
412 0.7480624549390755 0.8088826195036167
413 0.6776370556012653 0.7652818907075343
414 0.0573923138963367 0.031670399501854685
415 0.5265049509993948 0.964785420483122
416 0.1303382030985898 0.5854340786972306
417 0.3594875073115581 0.23274723819774878
418 0.8707947687287838 0.18647029044880958
419 0.7414262174085349 0.8522635848925221
420 0.7377160499966319 0.08781237369181472
421 0.3252456132523385 0.825164417317983
422 0.17136420463761048 0.6868698587909404
423 0.0969067470158892 0.8187835283381638
424 0.2761413925232322 0.3738979951728092
425 0.4958119273872338 0.40718370001767756
426 0.6769070303449211 0.22715660183341402
427 0.982258181514838 0.15241347555411344
428 0.5773366560564757 0.9610227779358254
429 0.014110460520136758 0.2889396456845048
430 0.976874974352553 0.4787127986142141
431 0.3044759858612026 0.04613843436267051
432 0.3232102645501542 0.7793628369625527
433 0.7508441249087945 0.8313994570368964
434 0.4502313797650259 0.7611024766260484
435 0.32735145905355034 0.928963050506239
436 0.08571021580577753 0.30043808625443946
437 0.8354205963789929 0.08668445287638149
438 0.9445102553128096 0.36343372516405126
439 0.19127540516757624 0.40871857125257993
440 0.6357650733866995 0.33779699724063084
441 0.6365061914515276 0.16103682819191267
442 0.5105652971722863 0.19376324252025168
443 0.7269164462394259 0.338766169962912
444 0.9487023237888514 0.6050680330825324
445 0.5391127478661027 0.22062745155240182
446 0.518743939579709 0.7580919661507683
447 0.28383744306257774 0.8432114874894906
448 0.7247632686321154 0.5888135492133223
449 0.29048157878666514 0.6834842611307873
450 0.24556119444815216 0.6339708317137345
451 0.5663707673773823 0.8782165921137938
452 0.818347356197418 0.26652416882184626
453 0.5858114291101568 0.9499853775440306
454 0.1676490769904171 0.07510678569906326
455 0.5414440290880403 0.4024053622260778
456 0.17762880384168767 0.5768001218387727
457 0.9978440548279693 0.4008279342884138
458 0.43156069508883843 0.46866606622687823
459 0.8040034783082392 0.6496242494180923
460 0.15696746225017744 0.3314621224890585
461 0.1714988634630592 0.5513175281518222
462 0.47807415562269195 0.47075334205389985
463 0.12018135491572446 0.2986733185414113
464 0.4233127645165644 0.6431317896891813
465 0.08251030042230278 0.45346057482562097
466 0.9077191814245169 0.4239502017229112
467 0.2866357295145828 0.7226053591673053
468 0.8806617403739723 0.7993852731748317
469 0.0030901359536504858 0.7490865270780471
470 0.5413016923918369 0.588178928642284
471 0.7713347223769259 0.9734576239396021
472 0.03157279621923559 0.8201862735550465
473 0.6037399135817264 0.2329177271088253
474 0.5946418967668922 0.12717077508157537
475 0.8978267598596854 0.8551395308368055
476 0.35001441869649097 0.3339351126075293
477 0.08647121474961161 0.36132109816539715
478 0.13892317782596897 0.31063942866537275
479 0.1651708732582189 0.48789661718237076
480 0.45108373208539254 0.9243916687403133
481 0.871234223918076 0.297025864220408
482 0.022072181183521278 0.9220627790443402
483 0.8904844721669295 0.6492389323550747
484 0.6331147172320825 0.1080641796628794
485 0.6684256331284579 0.3733265007750103
486 0.9039946697277784 0.9667832519823968
487 0.5486306914996812 0.8269213045371651
488 0.9249618278241813 0.3451252556910872
489 0.862274574923024 0.9355814299406191
490 0.23662850339938624 0.7815820831815726
491 0.4867965178252187 0.14825902795022083
492 0.9067493351844516 0.2988366086042511
493 0.042368110891423005 0.424360984122926
494 0.09899056582175403 0.3494990472105264
495 0.9154820139400087 0.5903150754215133
496 0.8294818791692207 0.6564856559454786
497 0.8634549235391501 0.2024235770558641
498 0.2786373891337308 0.7287194655731298
499 0.04919691262748249 0.746731843727243
500 0.6374944290797989 0.11966321411374892
501 0.14096157298370693 0.3259733649453035
DEMAND_SECTION
1 0
2 7
3 7
4 1
5 3
6 8
7 5
8 8
9 8
10 9
11 3
12 8
13 2
14 9
15 9
16 5
17 1
18 1
19 9
20 3
21 9
22 1
23 5
24 2
25 7
26 7
27 2
28 6
29 3
30 9
31 8
32 9
33 6
34 1
35 3
36 4
37 2
38 1
39 8
40 6
41 7
42 8
43 5
44 2
45 7
46 6
47 6
48 4
49 6
50 9
51 9
52 2
53 1
54 5
55 9
56 5
57 7
58 3
59 8
60 8
61 4
62 4
63 4
64 5
65 5
66 1
67 3
68 3
69 9
70 3
71 7
72 2
73 8
74 9
75 1
76 5
77 7
78 2
79 6
80 2
81 8
82 3
83 2
84 7
85 3
86 9
87 2
88 7
89 4
90 7
91 8
92 3
93 6
94 7
95 2
96 3
97 2
98 4
99 3
100 6
101 5
102 3
103 8
104 4
105 4
106 7
107 7
108 3
109 8
110 4
111 1
112 9
113 4
114 3
115 7
116 2
117 6
118 9
119 2
120 9
121 1
122 4
123 2
124 1
125 2
126 9
127 6
128 2
129 3
130 6
131 9
132 3
133 6
134 8
135 5
136 4
137 1
138 3
139 7
140 7
141 9
142 5
143 6
144 2
145 1
146 1
147 8
148 4
149 7
150 1
151 8
152 9
153 1
154 5
155 8
156 2
157 7
158 4
159 3
160 4
161 7
162 8
163 6
164 7
165 3
166 3
167 8
168 5
169 6
170 6
171 1
172 5
173 2
174 8
175 4
176 7
177 4
178 3
179 6
180 6
181 2
182 6
183 2
184 3
185 7
186 9
187 3
188 7
189 3
190 3
191 1
192 8
193 7
194 2
195 2
196 2
197 4
198 5
199 7
200 4
201 3
202 5
203 3
204 4
205 6
206 3
207 5
208 4
209 6
210 1
211 5
212 2
213 4
214 9
215 7
216 6
217 8
218 9
219 8
220 9
221 2
222 2
223 2
224 9
225 9
226 2
227 1
228 4
229 8
230 5
231 9
232 1
233 1
234 1
235 9
236 7
237 2
238 5
239 4
240 7
241 5
242 2
243 2
244 4
245 1
246 3
247 9
248 1
249 2
250 9
251 4
252 6
253 3
254 3
255 8
256 7
257 4
258 9
259 4
260 4
261 8
262 9
263 1
264 7
265 5
266 8
267 1
268 1
269 9
270 1
271 7
272 7
273 7
274 3
275 3
276 4
277 7
278 8
279 4
280 8
281 2
282 9
283 2
284 2
285 6
286 5
287 4
288 8
289 8
290 9
291 1
292 1
293 9
294 2
295 5
296 6
297 7
298 6
299 8
300 7
301 6
302 8
303 6
304 3
305 7
306 1
307 5
308 5
309 5
310 4
311 5
312 1
313 3
314 9
315 8
316 1
317 4
318 5
319 8
320 2
321 3
322 1
323 4
324 1
325 6
326 9
327 2
328 7
329 7
330 5
331 3
332 5
333 2
334 1
335 6
336 1
337 2
338 5
339 9
340 1
341 2
342 1
343 9
344 1
345 4
346 7
347 6
348 3
349 6
350 5
351 9
352 3
353 6
354 3
355 4
356 4
357 7
358 7
359 6
360 3
361 8
362 1
363 9
364 2
365 2
366 7
367 9
368 4
369 1
370 7
371 2
372 8
373 5
374 3
375 5
376 4
377 8
378 9
379 8
380 7
381 7
382 4
383 4
384 6
385 8
386 8
387 5
388 1
389 5
390 2
391 9
392 6
393 2
394 2
395 2
396 9
397 4
398 2
399 7
400 9
401 1
402 1
403 4
404 4
405 2
406 1
407 4
408 3
409 3
410 6
411 3
412 3
413 5
414 6
415 9
416 6
417 8
418 8
419 6
420 9
421 1
422 2
423 1
424 6
425 9
426 4
427 4
428 1
429 2
430 8
431 7
432 2
433 6
434 4
435 8
436 7
437 8
438 2
439 9
440 9
441 3
442 9
443 2
444 5
445 3
446 9
447 2
448 8
449 4
450 5
451 8
452 2
453 1
454 3
455 2
456 2
457 5
458 1
459 9
460 4
461 7
462 1
463 7
464 4
465 7
466 4
467 6
468 3
469 6
470 9
471 9
472 2
473 1
474 9
475 8
476 1
477 4
478 6
479 3
480 2
481 2
482 6
483 7
484 6
485 5
486 7
487 8
488 4
489 2
490 8
491 2
492 6
493 2
494 6
495 8
496 9
497 5
498 3
499 9
500 2
501 2
DEPOT_SECTION
1
-1
EOF
