NAME : gen500_016
COMMENT : uniform customers, demands 1..9, generated by bench/make_tuning_set.py
TYPE : CVRP
DIMENSION : 501
EDGE_WEIGHT_TYPE : EUC_2D
CAPACITY : 100
NODE_COORD_SECTION
1 0.17914582722609196 0.6420750532529277
2 0.14952760488267014 0.023335208600533286
3 0.5314673566576193 0.5132386668365577
4 0.49735975219538786 0.5868585736589866
5 0.9757209425908598 0.17005761576420564
6 0.12281181551881026 0.32125476099656036
7 0.7208032331317794 0.3069687716765451
8 0.33769395691197035 0.5798187813637948
9 0.399271405368419 0.1879483621729895
10 0.9101850819780004 0.7854971447944207
11 0.18712961708842668 0.48124024707335
12 0.6284436060305866 0.9326537764862939
13 0.4109460062012701 0.5586237407185584
14 0.7690323135343878 0.08472763781454573
15 0.06273883957135717 0.7148526710838413
16 0.6949918105795941 0.03320842085653519
17 0.18725299763563863 0.3743687933074392
18 0.32265492420619213 0.47746608241753563
19 0.8281764033667405 0.41775222485448416
20 0.524559133117647 0.07297809698033397
21 0.7414580389341748 0.6652891333734671
22 0.11485329341753192 0.40674976652524897
23 0.6710437351376197 0.37757670670406474
24 0.8836587646993541 0.11876371327816737
25 0.4922583074890612 0.11362910802358572
26 0.20162921990616844 0.25846932766313924
27 0.8238183875233729 0.49267818393785523
28 0.5100225940865529 0.6274543398536566
29 0.4037203769411051 0.7450684916361174
30 0.18223962214526335 0.6446732310561324
31 0.45927543189271347 0.7861495413714857
32 0.3154691444409242 0.16350185710985776
33 0.6604262871911318 0.06356940396661359
34 0.9619722621066301 0.5211404399227252
35 0.7142483942470641 0.23502037823615496
36 0.05723811229627773 0.06293143173871818
37 0.8868877321582463 0.3252261964829013
38 0.10079737067301742 0.37139001017812734
39 0.32191595957499985 0.3764480871044732
40 0.5277926054440921 0.6578604203086255
41 0.3782597976309263 0.5866515983658883
42 0.5746863289143127 0.5850622617285023
43 0.34597668535347603 0.9251789851149845
44 0.26229315486587657 0.6962618238052746
45 0.9503765382919634 0.040359069915398726
46 0.7830223028993176 0.9425770918781412
47 0.59558864177707 0.8990054737108373
48 0.2553229730303398 0.042734737563973724
49 0.5613849222608726 0.915593254073783
50 0.1461884211428942 0.6098728922847853
51 0.01035707446929357 0.15571883357158223
52 0.5073406750993695 0.8283266019014655
53 0.5160972454230716 0.8922073626073648
54 0.7472176656708717 0.9228572932239726
55 0.6476587996246436 0.16929697292353774
56 0.42468028380770406 0.6496558677132032
57 0.5612503919189593 0.6241877622137304
58 0.7081655014160126 0.9160310070938618
59 0.2580820441373902 0.4114739573520767
60 0.6407384906165438 0.010887233779050765
61 0.6338732427827836 0.059145503534384525
62 0.8294330441807664 0.4625282914245745
63 0.5766792459425851 0.7346612761665858
64 0.09826086098728104 0.5550593031297686
65 0.5266447685993744 0.6943048982944346
66 0.46707843522692927 0.4414000984104115
67 0.3165330060892747 0.4580039976564716
68 0.1501164876464457 0.0635312227449557
69 0.6616953638742362 0.8177007232611687
70 0.34248827366094525 0.5285118093893533
71 0.7011892970305186 0.8653033649517412
72 0.2989223377355894 0.6667822243073227
73 0.13712913165605245 0.6989046935308231
74 0.608894705552474 0.8236714675078557
75 0.12210129013804949 0.8442887864860886
76 0.14983766845807533 0.3603903089334868
77 0.944700625904026 0.7404153672641146
78 0.6509444698377783 0.23510676978489586
79 0.6358982159567395 0.003496911851770146
80 0.1701887028763026 0.13280598722879544
81 0.06242693142915978 0.12714841495060614
82 0.4707779580242015 0.011119856501284775
83 0.6552720574952507 0.6547868310009891
84 0.12447044266688423 0.15202217275933805
85 0.986048223330253 0.8409899607197326
86 0.17906192372391205 0.7087204527242952
87 0.11519484040526085 0.3596339590206219
88 0.7680876639787285 0.7090586266879413
89 0.5833889204319461 0.45977909822412255
90 0.23831075936940627 0.44254661256289785
91 0.515844023239722 0.5123267959345411
92 0.11152385310816482 0.6930438974508851
93 0.12333737284752211 0.8301368374977887
94 0.24054731187790446 0.2059971951602223
95 0.06617943128471393 0.9054933366769541
96 0.11421168919501967 0.9897345400088003
97 0.8860391961058507 0.9739625773918968
98 0.6175788849476989 0.9696724854071949
99 0.6619715786290346 0.002407836208290548
100 0.016690409565343733 0.9433444680606029
101 0.64061127167875 0.4009128614295232
102 0.7966489949498275 0.8335043140494198
103 0.449267431995239 0.5314622639628986
104 0.6661364669624257 0.14881597164350435
105 0.3286617661212745 0.49140453913252424
106 0.3607285137243972 0.017410815793111323
107 0.3630072103310319 0.8298753799882173
108 0.5888697637544292 0.7692189416110196
109 0.7041618068852515 0.9306121077629684
110 0.9758632191919745 0.5561185440628228
111 0.856189880771849 0.6804962424374265
112 0.36628966866226886 0.26822733503281615
113 0.1682477147394641 0.2839312849819349
114 0.7229680518100583 0.8671776279151134
115 0.11057604888196859 0.871955102636013
116 0.9770940052341783 0.5654785661308311
117 0.12187079625145958 0.8042601127777621
118 0.8719954555246896 0.5335622223158943
119 0.34899474845942213 0.37612311954501476
120 0.3030928528390272 0.2722054949144286
121 0.8191007868210944 0.8240274938626105
122 0.6859446728127423 0.7895455330519588
123 0.2509030278745744 0.6019436611838912
124 0.003294704665150361 0.545831915727532
125 0.5236597827711281 0.6097685290784634
126 0.8049926466074199 0.4259185030319086
127 0.5924683332638632 0.10745501256790646
128 0.8311885655255122 0.5328689669225539
129 0.701824848403387 0.7074227174903439
130 0.296207605544057 0.7731464265726752
131 0.8661655702796092 0.6513189449371533
132 0.2090726743281277 0.9573539415803314
133 0.31797561504898875 0.3621326464427894
134 0.8029907798059166 0.2375367781413109
135 0.6565962061186547 0.02605494418081067
136 0.6347842446851215 0.2350723005469687
137 0.6622637105934024 0.6265669946216337
138 0.5408742261041433 0.5316540743198375
139 0.4340558163498881 0.03817520356896076
140 0.5924116116771474 0.6351291147654272
141 0.9926757592746677 0.46042452988645244
142 0.8265691397254716 0.9632591088487064
143 0.582529850048945 0.022752556217847886
144 0.9584717251644054 0.8190567907394302
145 0.14215989475320934 0.5689491077518711
146 0.31008721813014484 0.17038325913600139
147 0.25215156802200966 0.6226275788593599
148 0.3844756310905212 0.6534285497480539
149 0.20179435303984816 0.06612238295534534
150 0.7355037534541584 0.8711141245895726
151 0.7371856457798198 0.8035738270804661
152 0.7575604246603206 0.20945319599651435
153 0.5853028184188283 0.7557999028138365
154 0.6997203479215803 0.7562376781894001
155 0.7473070844889234 0.822007607638673
156 0.5777010196662113 0.694016856253324
157 0.7339368185708365 0.23287222940108498
158 0.9478265396159818 0.2786908632824724
159 0.261178095599788 0.7920961753006943
160 0.5462507510953601 0.155265029734296
161 0.27238744826503214 0.13926765534742824
162 0.5113437532344959 0.4643324352899598
163 0.559461068142546 0.33007686550140225
164 0.9571795018735767 0.5538867265369097
165 0.8341028707509203 0.42551284980766046
166 0.5247910286256284 0.2489612709438448
167 0.9124493668009457 0.326524657913859
168 0.3266551202399436 0.11063490163608625
169 0.12020099850694421 0.8365729646268003
170 0.5387205047894258 0.5219300785295566
171 0.3522222397031889 0.4673619577831378
172 0.9286470085350202 0.3487961827177679
173 0.3069176715689419 0.7679702968258008
174 0.09070578241608596 0.8594000757601967
175 0.7169473985728605 0.8661696664436489
176 0.29494369757720995 0.7691977425932405
177 0.9732604074276113 0.15378801163449884
178 0.19929215544481815 0.3715370765841389
179 0.5908019408158294 0.21976417490868716
180 0.11091103907200106 0.23762127755646478
181 0.9920801933378468 0.4650121432675145
182 0.3573866979455821 0.7258504229225452
183 0.7419093606677248 0.44078439789660684
184 0.5404286198765572 0.09071546436612177
185 0.6830389774801514 0.8289075710421285
186 0.9902638962310345 0.08005445282478996
187 0.3145621403409632 0.9590334978153647
188 0.6950889392689221 0.8990286958299616
189 0.9010648474551941 0.6720189239973151
190 0.05917694416515873 0.4131804441301584
191 0.7093782763534873 0.8113431868045031
192 0.5675419964953581 0.14393989109189842
193 0.5512776979964646 0.35676901306045805
194 0.8924845779576446 0.6431183115017556
195 0.22215738392741136 0.09194174915553266
196 0.29699746535348426 0.7962761472788191
197 0.13748781347775763 0.06831623854369862
198 0.488468985451201 0.033611658239942055
199 0.8987179522580214 0.5152230150079619
200 0.6373450955268846 0.24101107257398047
201 0.8064078486913918 0.456840644517836
202 0.6254599781643659 0.6282301423116703
203 0.9382720182639274 0.3680231365947575
204 0.3865938893477574 0.21423505778932672
205 0.5853230644272555 0.46935247806284297
206 0.0041861954358234366 0.6365025742424814
207 0.9054140116293669 0.9312709498201155
208 0.33273940175718997 0.12369001950058034
209 0.18060959877677918 0.11904526400658522
210 0.645276974036401 0.2929528870253585
211 0.3584116467982015 0.02178747752702692
212 0.6874843669334432 0.6256473154565594
213 0.08965846955347101 0.9701333350853639
214 0.46546985228481086 0.19013038335622812
215 0.05443748130832915 0.9887387374049609
216 0.366586484663327 0.0320183848321266
217 0.2263291976501447 0.87644171060502
218 0.9356866972677105 0.7642260070067779
219 0.4867226040125763 0.7337839141566959
220 0.3170350714177187 0.547445494989989
221 0.10217065330129671 0.08225407309519417
222 0.22488086739342206 0.2439786073060397
223 0.1138611390533183 0.04010390811640707
224 0.770558897264996 0.27610758503345134
225 0.23978946129466694 0.4426285914482019
226 0.4234237590943931 0.0023843142227946146
227 0.6944956357745745 0.6495696033213296
228 0.6663285202082785 0.078500398991587
229 0.9708278570039198 0.14841241400952088
230 0.36310770053566144 0.39523365125480814
231 0.5663787625435905 0.24653562871922263
232 0.4022181299696368 0.11178995412400794
233 0.2852162847720422 0.6179940994464147
234 0.10019547865596146 0.7456770860124765
235 0.25059440867455807 0.16096007801884926
236 0.7666211574386144 0.7437234666530851
237 0.4020686321465238 0.19396594707923942
238 0.5932739633187426 0.30630698598558914
239 0.41274960110123404 0.3542906618503229
240 0.8329211737661563 0.45526737700012165
241 0.8935233787316467 0.3881365752262236
242 0.528659261450576 0.385285822294709
243 0.5324768728555409 0.437694706910601
244 0.26026236245945744 0.5434072636057098
245 0.5869135531582332 0.15237728283838636
246 0.6451168291645057 0.28956143712960114
247 0.7987978150417357 0.27747432887439083
248 0.20668660813937534 0.9120298358733268
249 0.969657533591283 0.8211640841443741
250 0.5991114661469741 0.8878204706076239
251 0.6605926111733843 0.7985171065474604
252 0.217649394006595 0.5217813584635558
253 0.0285866948913005 0.26681844079077155
254 0.9432273837144521 0.9250625704611828
255 0.1262131271068968 0.8099892538242747
256 0.19367519788235454 0.7828492210218747
257 0.15506179951734367 0.0011910720472916303
258 0.7482473107113444 0.589027329446754
259 0.976097101308398 0.20301182665426898
260 0.2559426404637838 0.42253505373409694
261 0.26628778194214686 0.08186300664855528
262 0.1828305257728976 0.7700068064278877
263 0.5165660874137318 0.35757101500008326
264 0.7044094228720803 0.7469929877481488
265 0.7400194174572058 0.2921002405069224
266 0.7414116679135052 0.19637773059467545
267 0.38426406707409777 0.8242985779940334
268 0.8739578720023274 0.35044055405199626
269 0.47376628717733393 0.6459488579525011
270 0.0973060539125421 0.6882762930791659
271 0.04480022599478528 0.9957690890764668
272 0.8861473693172527 0.699914314235226
273 0.6456907437303945 0.053970962950554036
274 0.4649617072007056 0.9340963255165103
275 0.2687316885788017 0.9346707949154638
276 0.9636899914428173 0.3816105893696612
277 0.4419137500559275 0.5430766283300922
278 0.9347716791419337 0.9881909382142899
279 0.6919763349150782 0.29867575005576186
280 0.024024037849108337 0.2708938993223222
281 0.4911356582138392 0.47242217687385013
282 0.9013582000805775 0.23027158510875023
283 0.7559609637188903 0.9398342856310588
284 0.9749446698820757 0.12818581063854606
285 0.13063287687795633 0.1834561518627581
286 0.1629071570275581 0.9669560712050332
287 0.6925562127568287 0.45700182825027325
288 0.1216379258083019 0.5554055685834872
289 0.7356656698684327 0.6965856052590131
290 0.3762559203903525 0.9800470079983103
291 0.4700762879274202 0.6952329597620859
292 0.5104539702032123 0.07984702048757708
293 0.7589761485801696 0.7765482105808315
294 0.11825031985408319 0.46193997212820037
295 0.11380322852613034 0.9124637634547003
296 0.31716059285355636 0.3418613004599559
297 0.45212228413621436 0.48190864673028866
298 0.45977468035903324 0.2305787159143845
299 0.2234376142131983 0.8299908875058232
300 0.9819178678950335 0.4486366962900653
301 0.11092595507008418 0.30951067951376265
302 0.6598842597911927 0.9937010086927307
303 0.9595753973608842 0.08211947887044069
304 0.23999413691335947 0.21298406486021704
305 0.8043250809792167 0.3371915423233762
306 0.5926318852426319 0.7985102926880913
307 0.10059656199584954 0.4851989066478479
308 0.7737152320022602 0.8274030151886735
309 0.7832766479607232 0.18984211681507868
310 0.24656521430644474 0.5359976770296275
311 0.9237318782505782 0.7713698137832675
312 0.2710968990542836 0.4578353683977231
313 0.925013799126978 0.15440470696882913
314 0.9812592698096084 0.493319669342427
315 0.564917328661312 0.665576728831383
316 0.6541478508163482 0.3136532281293417
317 0.38473340035483006 0.40820890993731274
318 0.04887356872242088 0.525695231950218
319 0.6872897316374889 0.14544841477292503
320 0.10464729476948942 0.4537258212643889
321 0.058169512754954744 0.42442590343939135
322 0.40530625455953484 0.9399923246502262
323 0.9543784063747776 0.1576431589309879
324 0.8100775076471423 0.3919322150739335
325 0.6024041858524124 0.6210558160968613
326 0.8120055437119428 0.8276687048367077
327 0.48747980536701363 0.39210072472107327
328 0.37048561723207707 0.05489403846666363
329 0.6802210623559675 0.3137817854336503
330 0.10152970641301773 0.5432900815580411
331 0.7965607981750474 0.5330671687305899
332 0.8959480980801908 0.6656094533266428
333 0.06119397583624264 0.620955513064864
334 0.35905367337454275 0.16932112692953405
335 0.0022240293082272933 0.013037555554221147
336 0.46928511654095806 0.1672510355042942
337 0.2794422079845572 0.04999809295567581
338 0.8308883834243436 0.012484669036588514
339 0.08267410540626552 0.5102217450105407
340 0.7082253288925199 0.8973120647247723
341 0.9954860384536933 0.19207076162852632
342 0.19947387502464686 0.8511530470049234
343 0.19464582420501564 0.06746499770854664
344 0.02681440994689066 0.13793736529343537
345 0.004163459603789721 0.06389212103064135
346 0.11925327325164958 0.4844322409207955
347 0.344822440049693 0.6155075955011079
348 0.2521681522638618 0.9348070574634249
349 0.594946415594767 0.005675823436403937
350 0.07508790152027767 0.30211125584722687
351 0.44537756775704096 0.16492591464693207
352 0.3671153228572427 0.8654965411548629
353 0.8763638282327688 0.9618181760084628
354 0.046894676197691276 0.5681350758001641
355 0.6348715272481166 0.44822726876724184
356 0.14023901379569625 0.5172147229758051
357 0.5788713480696136 0.7916275941980154
358 0.4624884603610624 0.1228411460732729
359 0.9035069860359676 0.5663164650792134
360 0.5395674260833958 0.7256290252509535
361 0.4147955292053226 0.6729018403675026
362 0.08650075205975027 0.15732561502770293
363 0.6651366938078386 0.23861558093480895
364 0.7554232024403521 0.7698872005243412
365 0.1256952571840536 0.8655691397370578
366 0.7317384234000898 0.5294266291243597
367 0.6200444278803311 0.9354148754260024
368 0.40460191865304096 0.7854167992370538
369 0.47910438797919164 0.7786636105281248
370 0.43534113724583723 0.8626722191722695
371 0.5100330980237777 0.5623526898910225
372 0.662284754269452 0.48251317505081537
373 0.75617208277244 0.37102426131927013
374 0.963592686524833 0.3132349360105121
375 0.34320079803406034 0.49776888609745595
376 0.6413919867287436 0.8539912306321609
377 0.8176480586497852 0.8083866109100518
378 0.7973411174249634 0.016241389862410305
379 0.23936007648637614 0.7196214474798136
380 0.8733965125461136 0.09881892387954527
381 0.8036991938116732 0.4359749239974825
382 0.7728737695590545 0.9254422683097984
383 0.19991251379239738 0.7318785497889229
384 0.029948008232282608 0.4198629229405987
385 0.566836707450341 0.2753139152634635
386 0.44361879227622947 0.5088302767333793
387 0.7446609238504933 0.849510509007097
388 0.8352322228573252 0.1688626936890355
389 0.42338444049093005 0.7973299868478251
390 0.9264530406168447 0.03641778212944191
391 0.13124840468251986 0.8261549824391003
392 0.2729943550642687 0.8908161687499268
393 0.4671372874597638 0.09373741892779663
394 0.09469983409763427 0.03670092932073321
395 0.18403236079945784 0.7504195499923363
396 0.27904876421907787 0.6582365690876559
397 0.5073485523084381 0.8967026967210143
398 0.6141819467043257 0.8168746236113539
399 0.48988943266081253 0.6407849041229755
400 0.978999901814758 0.2219295566641144
401 0.5057967707864333 0.640014179072533
402 0.6663040342998138 0.6556181104209804
403 0.5935087952244299 0.07174278415229751
404 0.3259480281848395 0.16773730467276726
405 0.6252972717531543 0.9844016000257368
406 0.8989327375663225 0.48317617013858183
407 0.2087190412422787 0.06307894941725845
408 0.9116329775287552 0.036677719606226455
409 0.6143877359849101 0.6834384099996197
410 0.23739635107293044 0.24897236072797568
411 0.35252330000927445 0.10191330617997685
412 0.20092910515288898 0.46919611111374804
413 0.8274086519837616 0.9666228547872576
414 0.30350665649898023 0.8594982109829331
415 0.895017947844829 0.925495344148418
416 0.32447236041216265 0.49428753326001584
417 0.0627969818001145 0.6799121341818913
418 0.8556007169675611 0.7822174612847704
419 0.7274214687492943 0.3266457210692034
420 0.4240555749850301 0.7390375060542679
421 0.6316214828228014 0.08425809727311406
422 0.050133132251977464 0.5935826370403771
423 0.6888277144524582 0.9651985835246184
424 0.07662130424727898 0.08622868928505634
425 0.12146882652063884 0.9678976807341716
426 0.9987295564267626 0.991898895700901
427 0.15728066284903142 0.6043984464263062
428 0.24177017038999526 0.5937333009271264
429 0.35750683740039024 0.7882870220272518
430 0.29951489109924123 0.9933738449936331
431 0.3561872139735365 0.5690484029365198
432 0.9444942889947191 0.9847266198881275
433 0.550690391003836 0.33417098062713246
434 0.14695471417306138 0.7632751285298258
435 0.7218092299491562 0.8368151509996729
436 0.09132677412927614 0.8254001975251667
437 0.9688554391717021 0.8204258872054153
438 0.3889346510344369 0.3714368520455468
439 0.12981891851671334 0.09641075915754926
440 0.3142542717372543 0.5412777537357156
441 0.3953709565775141 0.9046602951059021
442 0.11065482166256047 0.28889991132670256
443 0.2035718897559523 0.7010492918952569
444 0.18995688770264108 0.6153136800062996
445 0.8108582652505631 0.788725841085624
446 0.7353383250212212 0.4657407690705786
447 0.23719487508024262 0.4734041361429465
448 0.8395295581487685 0.7145412724764554
449 0.5739206620287763 0.9810968741633501
450 0.09841179670552225 0.6533049999740218
451 0.5331907425707478 0.6744864556057607
452 0.9274721436495171 0.2715270670996245
453 0.6225914364226017 0.14450599337562386
454 0.5973401537645945 0.5159534336198071
455 0.4001156465201974 0.9802617046544969
456 0.22624211208432554 0.2563464210049883
457 0.9269137005069402 0.3885210498471444
458 0.39477100375515917 0.4712913987410857
459 0.5569679204773084 0.5771422411903041
460 0.6275383685613597 0.2745085199154369
461 0.7567165263820551 0.2680631435544013
462 0.5655465379779901 0.011953378485909716
463 0.2087711117547406 0.08403278827812177
464 0.8230557220244172 0.2540450481440789
465 0.5522217816723931 0.18024971174979487
466 0.7663358732591152 0.5897898384057245
467 0.2890607167266793 0.33039952335640177
468 0.9523358807547176 0.5490643845763994
469 0.8541374948586221 0.5486548527653169
470 0.1471448521432822 0.09193946786744522
471 0.5003920229996026 0.3330942646035292
472 0.33504138918496973 0.38649156365521664
473 0.25090250118477786 0.06628315286788877
474 0.9550921942392853 0.383171055380771
475 0.1068962549816963 0.1924703788134572
476 0.3198431919132776 0.5718721731574035
477 0.12471651940962702 0.502271060233584
478 0.7766373242891427 0.6755878752295356
479 0.027411221125341334 0.09749475855142542
480 0.7838730273559213 0.014980633379141683
481 0.49668559021302894 0.9589882065672252
482 0.29118814713028096 0.2932026027920742
483 0.3587354084575378 0.8780898231111255
484 0.3310881835620558 0.12385855247815791
485 0.6692533108291233 0.2937909492958669
486 0.024620287939443708 0.4131393368907932
487 0.7031974814712659 0.5661878087699929
488 0.3547370800640445 0.1699442775317842
489 0.7747490037228464 0.07955075147935875
490 0.22688619576497715 0.05044992058918074
491 0.5999938052668717 0.14693272838950056
492 0.2046994544228795 0.6107946307877488
493 0.3821748730618876 0.6334164830500558
494 0.7877509683508881 0.8510736459651659
495 0.21395384682511365 0.46908757663117295
496 0.11712927168563914 0.3458424739429421
497 0.11628070021665493 0.26997259932743567
498 0.8893292192485779 0.2895579262374255
499 0.14566036293789542 0.8793699634954637
500 0.7213794564569599 0.29334314978567344
501 0.7045028603000013 0.10655834968268019
DEMAND_SECTION
1 0
2 2
3 3
4 4
5 3
6 6
7 7
8 3
9 9
10 4
11 2
12 8
13 5
14 7
15 3
16 2
17 4
18 6
19 1
20 9
21 7
22 1
23 9
24 6
25 9
26 1
27 6
28 8
29 8
30 7
31 9
32 7
33 1
34 7
35 3
36 3
37 2
38 5
39 9
40 5
41 8
42 6
43 3
44 4
45 6
46 7
47 3
48 2
49 5
50 5
51 1
52 1
53 6
54 3
55 1
56 1
57 3
58 6
59 5
60 4
61 5
62 4
63 8
64 8
65 7
66 6
67 1
68 1
69 6
70 3
71 1
72 2
73 6
74 5
75 8
76 4
77 8
78 4
79 1
80 1
81 3
82 5
83 4
84 6
85 8
86 7
87 1
88 5
89 5
90 1
91 6
92 6
93 4
94 6
95 3
96 1
97 8
98 4
99 4
100 5
101 3
102 3
103 2
104 1
105 6
106 1
107 6
108 9
109 3
110 2
111 8
112 1
113 2
114 9
115 5
116 8
117 7
118 5
119 1
120 5
121 6
122 7
123 1
124 6
125 7
126 1
127 6
128 3
129 5
130 1
131 5
132 9
133 8
134 3
135 2
136 5
137 1
138 4
139 2
140 7
141 2
142 6
143 2
144 9
145 3
146 8
147 5
148 5
149 9
150 5
151 7
152 4
153 1
154 3
155 9
156 4
157 4
158 9
159 4
160 7
161 4
162 9
163 3
164 2
165 3
166 7
167 3
168 9
169 3
170 2
171 2
172 1
173 6
174 3
175 7
176 4
177 6
178 6
179 3
180 2
181 6
182 1
183 7
184 4
185 4
186 8
187 3
188 5
189 3
190 7
191 8
192 9
193 4
194 2
195 4
196 7
197 2
198 4
199 7
200 4
201 6
202 4
203 8
204 1
205 8
206 2
207 8
208 7
209 5
210 2
211 7
212 7
213 4
214 3
215 6
216 9
217 3
218 4
219 6
220 5
221 6
222 7
223 7
224 6
225 3
226 7
227 5
228 3
229 6
230 7
231 2
232 9
233 1
234 8
235 2
236 8
237 5
238 6
239 6
240 4
241 8
242 4
243 2
244 1
245 2
246 8
247 2
248 1
249 9
250 7
251 1
252 5
253 9
254 6
255 4
256 2
257 9
258 3
259 7
260 2
261 5
262 1
263 9
264 6
265 3
266 8
267 2
268 1
269 4
270 3
271 3
272 8
273 5
274 8
275 7
276 1
277 8
278 8
279 6
280 4
281 3
282 2
283 2
284 4
285 5
286 2
287 5
288 1
289 3
290 9
291 3
292 7
293 6
294 9
295 8
296 6
297 4
298 2
299 3
300 4
301 7
302 8
303 9
304 8
305 7
306 6
307 6
308 5
309 1
310 7
311 6
312 1
313 3
314 1
315 8
316 8
317 2
318 7
319 2
320 4
321 1
322 1
323 7
324 9
325 3
326 4
327 9
328 4
329 1
330 6
331 5
332 8
333 4
334 8
335 8
336 8
337 7
338 4
339 8
340 7
341 4
342 9
343 9
344 5
345 6
346 2
347 9
348 8
349 5
350 9
351 2
352 6
353 9
354 3
355 4
356 4
357 7
358 8
359 4
360 3
361 3
362 3
363 4
364 5
365 8
366 1
367 6
368 7
369 5
370 2
371 5
372 6
373 8
374 8
375 7
376 6
377 4
378 6
379 5
380 1
381 5
382 4
383 5
384 5
385 8
386 9
387 6
388 4
389 6
390 1
391 4
392 1
393 4
394 3
395 5
396 6
397 3
398 5
399 9
400 4
401 5
402 2
403 9
404 4
405 4
406 3
407 9
408 9
409 9
410 1
411 4
412 1
413 5
414 6
415 6
416 4
417 6
418 1
419 9
420 8
421 9
422 9
423 8
424 5
425 4
426 4
427 7
428 9
429 4
430 7
431 8
432 8
433 6
434 6
435 1
436 2
437 5
438 5
439 7
440 7
441 3
442 3
443 1
444 5
445 3
446 9
447 3
448 3
449 5
450 7
451 8
452 5
453 9
454 3
455 7
456 9
457 3
458 4
459 9
460 9
461 2
462 8
463 3
464 5
465 8
466 9
467 6
468 7
469 3
470 7
471 6
472 7
473 7
474 2
475 2
476 4
477 5
478 5
479 2
480 2
481 3
482 3
483 7
484 2
485 6
486 1
487 2
488 7
489 1
490 2
491 7
492 2
493 6
494 6
495 2
496 3
497 8
498 2
499 6
500 6
501 4
DEPOT_SECTION
1
-1
EOF
