NAME : gen500_019
COMMENT : uniform customers, demands 1..9, generated by bench/make_tuning_set.py
TYPE : CVRP
DIMENSION : 501
EDGE_WEIGHT_TYPE : EUC_2D
CAPACITY : 100
NODE_COORD_SECTION
1 0.03804391800917506 0.7562225493709033
2 0.36058976898385064 0.8355921467103719
3 0.41494196534942196 0.6648463245514387
4 0.879760849447456 0.17262846730054837
5 0.7331707847754406 0.11491408966952887
6 0.9794686907857727 0.5818806161112643
7 0.21123475259888802 0.5529607240491557
8 0.6957020330545853 0.14761835620715524
9 0.8754391746579867 0.48866888365052485
10 0.8117202533510854 0.16047497329367078
11 0.07628684341685621 0.7396967633631668
12 0.8886755005579686 0.5850945095237485
13 0.3978336302258729 0.6846598842764163
14 0.12123531751232708 0.16183255964069576
15 0.5661403071703186 0.08322848832431196
16 0.8547943707248293 0.8301492288108441
17 0.6083455534625756 0.9514571037451752
18 0.8388948865132888 0.8003677363477788
19 0.1249423558684496 0.7548146807389822
20 0.8905136121917858 0.9277412549414686
21 0.18368557795744467 0.536962972991998
22 0.43095420989670896 0.5249067262346595
23 0.9367830835458377 0.20460289771270002
24 0.4421015488714698 0.1153215256886535
25 0.8667900097263512 0.5347483164521432
26 0.7061822932233967 0.514251281626155
27 0.2401577957089609 0.016819209076994857
28 0.3031812018855735 0.2797944986554862
29 0.7286867450981561 0.728894922617224
30 0.34035715310877224 0.7842593548820836
31 0.561508549351302 0.699126136873096
32 0.6633565978189929 0.3460859212517283
33 0.6622054631780997 0.8091624691037494
34 0.29382551033721804 0.6430167073382257
35 0.7848013227965078 0.7976347198460814
36 0.4336718616695805 0.7861995038957981
37 0.31074682457702496 0.11199949497496531
38 0.8688403629636644 0.07215948175462594
39 0.9305264994106314 0.5120542402501846
40 0.9844949172460215 0.044425834785259855
41 0.9562708108596918 0.5775536343086843
42 0.6328927651862087 0.37970338661041003
43 0.5351066299227608 0.7919647538523189
44 0.31702225645185855 0.05415828060968941
45 0.6792689072333588 0.9512543994646268
46 0.10902321045249808 0.8076890044194633
47 0.4809955491118557 0.0014168708194124413
48 0.5339742578197957 0.4562838237368644
49 0.666207778261925 0.7518702207431707
50 0.0896571279537014 0.30013013934095756
51 0.1674909168137001 0.13806949826178905
52 0.4788379886421644 0.7257568582110511
53 0.3440578992862535 0.03486180444117115
54 0.6467740640099816 0.3770452409914298
55 0.9672042010671563 0.46786964640930706
56 0.28906474029935003 0.9155177507034261
57 0.6784051120777098 0.7394432745709336
58 0.03779692252696798 0.4630267223027561
59 0.15668072530989863 0.3856922354557153
60 0.26995159691958015 0.9652662741493452
61 0.1903529832186639 0.1996049595489925
62 0.2337491486699229 0.685135261929443
63 0.08018331542574819 0.9166507907586154
64 0.08563559362825057 0.43852055796399503
65 0.13460064309390019 0.19956979812265652
66 0.5895302653450626 0.8915376012029317
67 0.8368196286348156 0.7565777760589497
68 0.6251411287150862 0.9194635856685762
69 0.1962795106616656 0.501930163066284
70 0.5185764350382631 0.9857875773058725
71 0.5896472076479482 0.34462242646685404
72 0.785045468363213 0.15586177686378722
73 0.8226125424102542 0.5671312447173871
74 0.4954137298532364 0.835729214635208
75 0.7617810614876321 0.4892334947239967
76 0.7694377195329757 0.3764119372982234
77 0.02503401046615561 0.4192697669645936
78 0.6741050227334318 0.9896996760665323
79 0.7625667697504735 0.8513274237749604
80 0.6870515635928605 0.8898762411288351
81 0.48685166112561706 0.8789934881920184
82 0.24589777737675222 0.39778779478326176
83 0.818873800128657 0.715504485804474
84 0.22426773829742508 0.6073467890561728
85 0.763490279637522 0.7834985016670194
86 0.227682353197304 0.5442359288844437
87 0.9816747054808955 0.3465857330060603
88 0.29561154777553134 0.4408267203298667
89 0.7813752655493286 0.8381802624459735
90 0.41131386740251386 0.5637003176916507
91 0.8799167606705383 0.9962212410679793
92 0.9824108503730644 0.9905242783184293
93 0.6299712116131777 0.9146700893859595
94 0.7747051904254343 0.5540568038034706
95 0.4958173350314925 0.7400663811394732
96 0.605504868369262 0.2029942563953825
97 0.02211131040078851 0.44836317197426767
98 0.10714985542457267 0.8797357816237191
99 0.9676461329103001 0.42582511374294374
100 0.8829713014778862 0.13946064432207717
101 0.9092981028606281 0.6149855847950783
102 0.2064742087498983 0.9907213660914962
103 0.3799965140191559 0.6321490911198709
104 0.7901781153255877 0.8366077093602944
105 0.24593322978173093 0.972167326526374
106 0.6743227681540254 0.8291837554051877
107 0.08176010918733023 0.07153508949264165
108 0.012898211507630153 0.281104354895618
109 0.1977854624094827 0.5887853104586306
110 0.06547871979248066 0.24798720024992482
111 0.7691658661309838 0.16007436015970278
112 0.9316159397202349 0.7203717232565954
113 0.3180153613308798 0.1908391644960994
114 0.01382597332460711 0.36941268737035915
115 0.11269336386214013 0.8915889726588206
116 0.7535920332164356 0.28079301094129894
117 0.6009446463677436 0.8530909946183461
118 0.3918913592667599 0.5070331807504741
119 0.7040498792762274 0.3058818652460886
120 0.3512073303954334 0.1929936250680342
121 0.931568137112963 0.3782343082896519
122 0.02803164229264543 0.04758254145280372
123 0.8467394851112132 0.5694055324208402
124 0.8660939437786089 0.6896887823033783
125 0.26922857104815345 0.03999596243564307
126 0.28817389967158613 0.973908757731535
127 0.5760406998545541 0.6890239098795828
128 0.1976927244629466 0.7485359459904032
129 0.7923768490409606 0.2004690455590301
130 0.2639574739340198 0.813682707152442
131 0.038110621273787504 0.8741480430661461
132 0.2206890728027774 0.4280153230762965
133 0.15373685789657343 0.24027996892218817
134 0.944252732116365 0.7259214021850475
135 0.5452288808265088 0.4102574891900863
136 0.9637098896111098 0.19876939958593787
137 0.8915194830937976 0.4654566500424462
138 0.9668076676657177 0.8317495294535774
139 0.95821760101555 0.35665212372287014
140 0.29644178097959617 0.4050309632836874
141 0.020497406540049945 0.2840905723202709
142 0.7795467552728621 0.07938504746463881
143 0.06684165175051204 0.6928009449579219
144 0.28664938369215853 0.7149117604932164
145 0.9002657379029688 0.7484633935331358
146 0.16667219539610756 0.0036387039941513377
147 0.9648216990269015 0.42618055418205725
148 0.44026685160978496 0.3270787292064026
149 0.1701034856889947 0.5198090994127669
150 0.5138548950986281 0.9547694755772952
151 0.6983149161008673 0.8008368742531559
152 0.5241431869536395 0.9973122843030504
153 0.4417038953702429 0.16978223911646595
154 0.3100202745250682 0.7863372069318122
155 0.002198773129623799 0.8473592780418108
156 0.20114721358871224 0.67064519380946
157 0.74276553914356 0.11590047824076821
158 0.9120529837316965 0.79769062401791
159 0.7998728065348425 0.4665104805588044
160 0.578894129711883 0.8519192421150753
161 0.6024692792969831 0.5798249633779483
162 0.08974706086052375 0.183585359621803
163 0.3571142959276945 0.6204899384270249
164 0.7044530446198938 0.08999681432153839
165 0.5075233442166494 0.08077224884631329
166 0.7432594243909879 0.8198806036000523
167 0.8424601931595848 0.48713372076809236
168 0.1967316331333515 0.4724456091339485
169 0.6491201988432904 0.6665937222612137
170 0.5875493558868778 0.15768594754993603
171 0.2687631640379945 0.8301795499150421
172 0.9819868808045366 0.12553835357081378
173 0.4183146515774553 0.8538309804164197
174 0.6813793892319248 0.7788820477779351
175 0.10683528275474086 0.4236655744447707
176 0.8184769642992588 0.9253030609746659
177 0.9264636580450386 0.9687947245104838
178 0.42115878950578933 0.4047460006087421
179 0.31071528891592193 0.003857583435580736
180 0.6334559491054244 0.6272763429189363
181 0.5167538964208062 0.5392469904189936
182 0.46949649229963275 0.5386710237755321
183 0.6791169899809826 0.5015479522677732
184 0.2538559641030982 0.966739500037234
185 0.43446050566521655 0.5157548116334261
186 0.26054995570691963 0.35642143050427244
187 0.9744216677066334 0.07814483049189858
188 0.24097864296185545 0.6342922684478721
189 0.1023656392992558 0.3190528222582253
190 0.5038832279234229 0.6874795123822892
191 0.24109461808475174 0.24280545725442826
192 0.19305332842129186 0.4722754050063319
193 0.35099445323767464 0.41004614420396757
194 0.7205177244337038 0.6827523916269723
195 0.9366358437947216 0.7970440969831798
196 0.0371251327424994 0.37826764803293556
197 0.9570754610726889 0.15081156300462106
198 0.7811845152532628 0.29183309783607336
199 0.8078525424657449 0.9034063943183991
200 0.972321037178328 0.9207993152462974
201 0.4240399060379363 0.9317024409263188
202 0.5894616903783171 0.3739794799953631
203 0.7971718845506816 0.9977158227369634
204 0.9886677992527586 0.34305461526547376
205 0.026163165471591476 0.9423792291617019
206 0.6534831801480352 0.3115719068427524
207 0.9369461935619924 0.5389016878775027
208 0.0085347763986241 0.19687007194644657
209 0.5143259162397387 0.9844190102416218
210 0.22516093635938106 0.3340962699972585
211 0.4945270327490725 0.42390086590191733
212 0.6732829836376903 0.082547738675817
213 0.9722899001190263 0.5041824056235166
214 0.08870482548161196 0.20756610353805682
215 0.5654459750420963 0.3951663678117556
216 0.81012341138848 0.5039679772648272
217 0.14462402265763963 0.7791951050546697
218 0.9472103365127748 0.48716073515356917
219 0.9517364334396325 0.6548553033147326
220 0.09477009536229142 0.8694974026505772
221 0.6177056589403532 0.6902477178907407
222 0.280809848171079 0.5356718526484008
223 0.8010137851662072 0.8569546270751697
224 0.449080174759221 0.6934561522398804
225 0.8500482317173099 0.29392195488720163
226 0.5667785590751484 0.5716282549873123
227 0.39996836206859965 0.6762567285670398
228 0.08251007086577278 0.02803512526854346
229 0.24028556974150617 0.5877776433182387
230 0.5397781699545962 0.1618638664422185
231 0.7817080844176768 0.08723593358605686
232 0.18915013296530647 0.1049259099623766
233 0.4159431602623348 0.19182827823342974
234 0.8890921841962999 0.13262530040797993
235 0.8809171880535107 0.8252644261704543
236 0.3915876199591466 0.8439509371511256
237 0.03097773238493806 0.4753769171173957
238 0.7600103912395014 0.8785626123866549
239 0.8072366959360102 0.1393680479597863
240 0.3121186097831645 0.9503787204553131
241 0.6872596332481509 0.6388973265908199
242 0.9538817018870897 0.7745146876222028
243 0.49019498769427616 0.8058813473204077
244 0.5212051233455605 0.6119132908259128
245 0.15120596306889622 0.4039219044823634
246 0.9382999901861007 0.5981237612489024
247 0.5868319836035537 0.2376237791124559
248 0.6207962749786683 0.9143759649993676
249 0.814607450412853 0.09911748518363517
250 0.6820038479005189 0.9285721068837158
251 0.47318960119625664 0.3221139257173137
252 0.606101209766136 0.9823655368496466
253 0.21826205999901682 0.39776437373425166
254 0.1671157967768495 0.3693910189314453
255 0.9829286259292261 0.2383431615162409
256 0.9935042923093144 0.6910124055529963
257 0.17138012841518746 0.42826400142273857
258 0.5819478971947373 0.9406550669192765
259 0.6868499129297767 0.9131110787112113
260 0.7663579882657425 0.9857742394932647
261 0.888516945606676 0.025705395565201572
262 0.6361257515033509 0.3265893997910293
263 0.3379635048016606 0.47288650895054674
264 0.365326265571819 0.8660495709578608
265 0.13039492211683168 0.8630576762084029
266 0.20617386587953435 0.12197854563056454
267 0.2671429673874208 0.9835341052296773
268 0.028943898553214664 0.16669761277922868
269 0.06662113556557236 0.3751747939608654
270 0.6434951439316673 0.8930000641460722
271 0.2551034403965836 0.2692397084057834
272 0.7883689351211707 0.9337263746035791
273 0.47569369265046835 0.34059889844270164
274 0.2870350674349612 0.03094019284030669
275 0.6486532913271762 0.7856596357131089
276 0.48798873404418397 0.2054002196401239
277 0.3813943445793272 0.16685724086637344
278 0.4743432490262329 0.4727916563371435
279 0.8558790367876596 0.2850031894309468
280 0.36080204631886614 0.026227495142310153
281 0.4819936125087202 0.070180594020674
282 0.20486149314496405 0.9711145526571011
283 0.9561788523427187 0.19254936889575813
284 0.6173878416959067 0.6426991081121818
285 0.8841857382336163 0.12306391080208967
286 0.5238740152516098 0.8755757205847382
287 0.3502209182152607 0.5827406558152174
288 0.7257932724414471 0.5846496409452349
289 0.5139589695844976 0.7678294920466491
290 0.863098796133821 0.8762604595311748
291 0.7874144990201378 0.45768524912170705
292 0.18775127992454133 0.7156819638215234
293 0.4657427719235768 0.5570654367761384
294 0.6994123861623619 0.15525300541469367
295 0.15868908288944072 0.4758077372638043
296 0.6324791112978719 0.8543326776684793
297 0.22939107672646675 0.38945257746645057
298 0.5889092931921575 0.28638203773612736
299 0.48221886067196995 0.4086329283818755
300 0.8158985100454798 0.8972413275399215
301 0.12889095838691433 0.5593350125287576
302 0.495355101429626 0.12406741826476642
303 0.8335108188703687 0.08491667224458965
304 0.6959506376115772 0.20246319015255165
305 0.5074684202971577 0.6301442177106765
306 0.4403716996585174 0.3676404994958804
307 0.4104904734681306 0.11985891458848863
308 0.8355025487833898 0.1352246301741632
309 0.8304440755769815 0.7770865533908633
310 0.5406734270137403 0.6025770979299951
311 0.07163641693331035 0.021604596016576494
312 0.4373492110974925 0.21978453437527468
313 0.4772443123407073 0.4079145471663229
314 0.18892083519750558 0.8771035143797582
315 0.9154288594576627 0.7363397999502472
316 0.7828293389423657 0.35948033496140575
317 0.8332693705717023 0.7266880020808134
318 0.1592646780527699 0.13001173707054314
319 0.24149435731707314 0.3074056201204709
320 0.21279083214594008 0.36480961644067966
321 0.5906781739021184 0.698406608175898
322 0.4415487814993807 0.025902364369018605
323 0.7821975464723201 0.7001915836927501
324 0.9593622839325814 0.15668417831756654
325 0.9828399112835069 0.31017427318178414
326 0.45910495155393516 0.6821370661776877
327 0.8754685824385935 0.6634930885719084
328 0.24027657847396566 0.5666449737426452
329 0.21918104831645235 0.5031301732651094
330 0.6477213406094656 0.3199603071867396
331 0.8215828433172807 0.23412728162522645
332 0.7909703768018433 0.14752996725869527
333 0.1371877662926202 0.24674437475201205
334 0.9687755552204926 0.1608789994947123
335 0.430261241242912 0.3931548769130696
336 0.3683575427987117 0.17667059402797125
337 0.5448896483962365 0.9859793981444854
338 0.41658901486509525 0.5495493437498682
339 0.7914907104373021 0.3159739789037477
340 0.982486840853595 0.3980601143810275
341 0.08065008073716262 0.7645170028007532
342 0.04901089702347661 0.8151560077936458
343 0.12583495962824764 0.6708219824536168
344 0.025643305934007543 0.37992745196716804
345 0.597348652892637 0.7427403341096491
346 0.9518809767645344 0.9338604875609807
347 0.8398243073031387 0.46548475447009063
348 0.17452957657738977 0.7250153803171406
349 0.5609558406034875 0.6465757417846124
350 0.537009302701407 0.17835195150058347
351 0.8355637670588275 0.1674874621768241
352 0.3530957655102853 0.0716982136671559
353 0.33914948019574565 0.04125086813088907
354 0.31438380370593877 0.7030716784888364
355 0.04441206912470608 0.38866330318247344
356 0.6602640416333064 0.26310480261493707
357 0.01246426791399402 0.6602512476463077
358 0.07444387758848614 0.8895580089075422
359 0.36691356286583754 0.1405120985128191
360 0.37778317055312416 0.2278221150350601
361 0.10253958342306158 0.2621656562889392
362 0.3414443293122925 0.3021599290856417
363 0.7106212645165504 0.8639677214085074
364 0.03754010779958128 0.7395153802685195
365 0.26706585070072686 0.24002558757370018
366 0.5586672049487017 0.9904872166214826
367 0.2597875476759961 0.3141977116833342
368 0.6540026952528694 0.6097465369280024
369 0.7010167535758397 0.863745690655576
370 0.9857707919373903 0.36211405169426547
371 0.7040262287840521 0.5997823478532979
372 0.7434455037944887 0.8027778581998565
373 0.1032104642085293 0.2847175232875966
374 0.7108114374493298 0.6445143200699769
375 0.14329238524051624 0.1970157362987821
376 0.9897164917884522 0.6042442681387207
377 0.6471118385168723 0.43244721876983605
378 0.8091494524697875 0.5481536243182846
379 0.3271340190849602 0.1045333003115061
380 0.20636511996938955 0.3127888916261762
381 0.7962390179431933 0.790771107854518
382 0.3476816578693882 0.6113752570908002
383 0.5410796686040957 0.2779303992679997
384 0.6695391875621737 0.9276611382819648
385 0.5224408602652569 0.3320423141020067
386 0.2596200836417609 0.09046193974285999
387 0.035011418441108 0.2648948463962022
388 0.21598798076129655 0.7793233547853395
389 0.5164893350164454 0.11127754002626489
390 0.7901573753235568 0.5948306630036648
391 0.5027291059427816 0.24629437252095576
392 0.3167429312295694 0.13479434872142793
393 0.2621917103852688 0.3709891956393807
394 0.6282010300540225 0.23707497119571597
395 0.4811758137645875 0.42779425740674026
396 0.5916326311171757 0.17458889235809005
397 0.8041216380911836 0.22480909326622955
398 0.029970400244152984 0.5636511275625761
399 0.5559160388982155 0.9345182672918445
400 0.40659909439360764 0.38692877681723103
401 0.5841868775063533 0.9086447251052043
402 0.8217275050659446 0.9468387641616495
403 0.12776322824533226 0.5802787925495239
404 0.841904961735545 0.17732361142194175
405 0.1458778618307751 0.8618057284689581
406 0.327473286418852 0.00652356374184293
407 0.7416164378490538 0.5762493605685552
408 0.36589863697214975 0.10554212558336817
409 0.40536553779891205 0.013784912335518928
410 0.5567717890686532 0.9187898326845699
411 0.9844663612459369 0.2501969527198231
412 0.9702055626550367 0.8015177551253018
413 0.020789857231699904 0.4925460270390547
414 0.9704523533243038 0.7302639584219093
415 0.8283142117129564 0.4032634597093606
416 0.8755760862861753 0.09999121355156382
417 0.0809277450560536 0.6849211502108702
418 0.073172075530483 0.5854285989506649
419 0.46039022568056864 0.713241623923531
420 0.012481142233517262 0.63957321502077
421 0.7593031226530782 0.04054817327556004
422 0.848361624864666 0.22605505983063445
423 0.26213293642188473 0.9254608133234506
424 0.5420039254578599 0.9838092151770295
425 0.903538707353907 0.4445450395690377
426 0.46381747198214884 0.21511871823599016
427 0.9016833897899117 0.25444095245138854
428 0.9722731455268189 0.3561152135649269
429 0.7467359412821515 0.9054552318247822
430 0.5117582162946024 0.44663376984025416
431 0.017984830513664618 0.5415711049394005
432 0.9412133470344007 0.4503191543974291
433 0.45303566577216736 0.9370281686882225
434 0.06304682707871301 0.9918902238298625
435 0.2012899211792495 0.5366645772166337
436 0.6693807631321432 0.6659838986089385
437 0.7616877591104833 0.838976486151829
438 0.39366265141057766 0.7090915225121467
439 0.7301292701865213 0.5218171966565816
440 0.5141560047194272 0.1722910487500533
441 0.5537089149326125 0.7117772556862335
442 0.09663902414566172 0.25083635237459
443 0.313611286679641 0.40955451222626593
444 0.6511523859645012 0.7303804600317371
445 0.36082870659226984 0.5939359940594202
446 0.8076492036550127 0.7035895884293971
447 0.46201757709208124 0.7059753889120041
448 0.3447128686549642 0.7104457782506913
449 0.9127040406021621 0.3267985719097465
450 0.6620709627992014 0.5080515817380552
451 0.4458591108103076 0.9414583518813222
452 0.48783812580962416 0.3235763226166267
453 0.9905599533424094 0.002048987103244082
454 0.20387718296394663 0.5459194333205387
455 0.8903369205808274 0.8997616453834334
456 0.3085192308387422 0.9183590851338475
457 0.5823542491418822 0.04944381725052316
458 0.03266140157175179 0.4942688399261127
459 0.6807115508583145 0.5437575307893846
460 0.36318912364194555 0.79279907977858
461 0.4596390448273421 0.5217461488913857
462 0.1368832315769115 0.6475828198698573
463 0.5069901847296442 0.39542210446051296
464 0.5026393334953903 0.5362217656251432
465 0.40313557875016126 0.30537996671325296
466 0.9602390670099498 0.2706267348924086
467 0.9042437161025029 0.86896343445876
468 0.06991211118918628 0.5761716243459136
469 0.5177314185789057 0.8034582912707003
470 0.93975560768438 0.5755024354652805
471 0.1881225256065815 0.4702286117469012
472 0.8395723802573878 0.7188214784222386
473 0.3130526234199511 0.24110135442049563
474 0.664891079353386 0.1743507260326912
475 0.7538266474688814 0.5450104393309647
476 0.6325114539554741 0.4264277189322937
477 0.0105553365498956 0.7622195979124327
478 0.7322012026854878 0.6311526489820427
479 0.9291090340430698 0.03912661942856355
480 0.3499074248107459 0.9118304894438369
481 0.45483972169856646 0.47613625575811536
482 0.5773345728169899 0.6005476900551906
483 0.2210164220607571 0.6713274467738375
484 0.6709815102563528 0.4522882851340819
485 0.4121916234185854 0.6359503158477874
486 0.6826389989837705 0.4672492931106331
487 0.12538695472942496 0.6662110852837525
488 0.5694008381048029 0.4506337303710194
489 0.7744860937952527 0.0009843807009851657
490 0.14937346486679148 0.5905316038062474
491 0.9732958254639815 0.734544494357103
492 0.33380098233151656 0.8722696523693311
493 0.3126048335466084 0.24531007658907333
494 0.5541734354963478 0.3946509992720675
495 0.723931457128192 0.5953886171188174
496 0.9254619406144756 0.056750554893318594
497 0.45641454326737063 0.055305770996193826
498 0.781913202423316 0.06333678471690485
499 0.8728451556291094 0.7165739206552938
500 0.9324022129836438 0.14246060899432966
501 0.7436367298583079 0.14215554973067834
DEMAND_SECTION
1 0
2 9
3 1
4 8
5 5
6 8
7 1
8 6
9 1
10 5
11 2
12 6
13 8
14 2
15 7
16 4
17 1
18 4
19 7
20 3
21 5
22 3
23 1
24 1
25 7
26 2
27 3
28 7
29 2
30 8
31 7
32 6
33 7
34 2
35 5
36 9
37 6
38 7
39 6
40 4
41 8
42 8
43 7
44 7
45 3
46 9
47 4
48 2
49 6
50 6
51 3
52 5
53 7
54 9
55 5
56 9
57 9
58 4
59 8
60 2
61 6
62 9
63 9
64 1
65 4
66 9
67 9
68 7
69 5
70 1
71 2
72 8
73 8
74 5
75 6
76 3
77 3
78 5
79 3
80 8
81 7
82 1
83 1
84 8
85 9
86 1
87 2
88 1
89 1
90 7
91 3
92 6
93 3
94 8
95 1
96 8
97 2
98 9
99 4
100 5
101 6
102 1
103 4
104 5
105 3
106 5
107 8
108 9
109 8
110 4
111 4
112 2
113 8
114 6
115 4
116 1
117 1
118 1
119 6
120 6
121 7
122 8
123 5
124 8
125 3
126 7
127 1
128 4
129 4
130 2
131 5
132 3
133 2
134 8
135 6
136 6
137 9
138 9
139 2
140 2
141 2
142 9
143 3
144 1
145 4
146 2
147 9
148 1
149 6
150 3
151 7
152 6
153 6
154 5
155 7
156 2
157 6
158 7
159 9
160 2
161 9
162 3
163 4
164 6
165 7
166 5
167 7
168 8
169 1
170 1
171 4
172 1
173 9
174 8
175 7
176 6
177 4
178 6
179 3
180 7
181 8
182 1
183 4
184 1
185 2
186 3
187 7
188 5
189 7
190 7
191 8
192 2
193 7
194 6
195 9
196 6
197 1
198 3
199 3
200 1
201 3
202 5
203 1
204 9
205 8
206 4
207 2
208 1
209 6
210 7
211 4
212 1
213 6
214 7
215 9
216 4
217 6
218 6
219 6
220 3
221 1
222 9
223 9
224 7
225 7
226 6
227 6
228 4
229 3
230 7
231 5
232 8
233 5
234 4
235 1
236 7
237 7
238 9
239 6
240 8
241 2
242 7
243 9
244 9
245 1
246 8
247 4
248 6
249 5
250 5
251 6
252 8
253 2
254 8
255 6
256 6
257 1
258 4
259 4
260 7
261 3
262 3
263 6
264 9
265 2
266 4
267 4
268 1
269 3
270 2
271 4
272 4
273 1
274 5
275 2
276 8
277 8
278 3
279 6
280 6
281 6
282 8
283 7
284 7
285 1
286 9
287 8
288 8
289 9
290 7
291 7
292 2
293 4
294 7
295 3
296 2
297 1
298 3
299 9
300 7
301 6
302 1
303 9
304 2
305 4
306 3
307 1
308 9
309 6
310 9
311 2
312 4
313 3
314 1
315 6
316 3
317 9
318 4
319 2
320 2
321 4
322 3
323 2
324 1
325 4
326 7
327 7
328 1
329 5
330 4
331 3
332 4
333 7
334 5
335 6
336 3
337 3
338 9
339 9
340 2
341 8
342 5
343 5
344 2
345 4
346 6
347 1
348 3
349 5
350 9
351 5
352 6
353 1
354 8
355 3
356 9
357 5
358 5
359 6
360 5
361 8
362 8
363 1
364 9
365 5
366 7
367 5
368 3
369 7
370 9
371 7
372 4
373 2
374 6
375 5
376 7
377 7
378 1
379 1
380 2
381 2
382 9
383 7
384 4
385 2
386 6
387 3
388 4
389 4
390 4
391 7
392 3
393 1
394 8
395 1
396 5
397 3
398 6
399 5
400 7
401 7
402 7
403 7
404 3
405 1
406 6
407 6
408 7
409 3
410 9
411 7
412 7
413 7
414 3
415 4
416 3
417 8
418 6
419 4
420 1
421 9
422 7
423 5
424 3
425 8
426 1
427 5
428 6
429 2
430 4
431 7
432 8
433 7
434 9
435 9
436 5
437 6
438 1
439 7
440 7
441 8
442 1
443 3
444 6
445 6
446 9
447 5
448 2
449 3
450 3
451 6
452 8
453 8
454 6
455 8
456 9
457 9
458 9
459 6
460 2
461 4
462 3
463 7
464 6
465 7
466 1
467 4
468 8
469 2
470 1
471 4
472 1
473 7
474 1
475 3
476 8
477 1
478 8
479 4
480 7
481 4
482 5
483 9
484 2
485 1
486 9
487 7
488 1
489 9
490 2
491 1
492 2
493 4
494 4
495 3
496 1
497 6
498 5
499 2
500 2
501 2
DEPOT_SECTION
1
-1
EOF
