NAME : gen500_015
COMMENT : uniform customers, demands 1..9, generated by bench/make_tuning_set.py
TYPE : CVRP
DIMENSION : 501
EDGE_WEIGHT_TYPE : EUC_2D
CAPACITY : 100
NODE_COORD_SECTION
1 0.8790501087505389 0.5693536575137776
2 0.12950443960215385 0.6683417724026434
3 0.6411788114601622 0.6732875835322459
4 0.23122419223084945 0.5503627048429052
5 0.6222708202219646 0.8571215803940769
6 0.5515811244344206 0.3561108115827647
7 0.24500096740243815 0.9952623104354896
8 0.8760067306306696 0.3989619027863278
9 0.8009735625224614 0.09698525608139441
10 0.4767858878747696 0.45957265637328126
11 0.9913743263081768 0.18922363492670113
12 0.5235661713291251 0.847229785709824
13 0.5847420401603772 0.024828209351684505
14 0.7135074552282542 0.5029465866696433
15 0.44347784915461974 0.9867148099162564
16 0.8041302661126224 0.3631277889974235
17 0.007882925115852868 0.7039985143666083
18 0.7102730692788874 0.6196815995810531
19 0.17627678123182344 0.9835766872187851
20 0.601794517865523 0.8371836856290104
21 0.29577979522505127 0.5541325476236334
22 0.2241339847967907 0.286213988017305
23 0.8031827733951485 0.18531810409098204
24 0.47829319405962856 0.3041380632086278
25 0.9402167671373302 0.10832793655423456
26 0.2702686051518527 0.026338144910867944
27 0.26181404833756083 0.05684224703566243
28 0.0637782469328878 0.8747768133626874
29 0.1485598782914772 0.33792336019750224
30 0.8678048754772937 0.9024016389353066
31 0.16808532046566738 0.3935524040992081
32 0.39860288409972133 0.11761397263447759
33 0.6582165877010733 0.562778352906657
34 0.4529807156955372 0.8009174609631313
35 0.7021466910340113 0.19285402402983876
36 0.29324645514974657 0.6377257658258297
37 0.6954203520319159 0.8885077762155427
38 0.4905250834965239 0.12728746334746377
39 0.8461094764706192 0.4382127413829082
40 0.5923241908331506 0.25040067266083
41 0.4296659292292131 0.36492994233414844
42 0.11509505525300001 0.6962250523178007
43 0.5943396580572452 0.3090234605721026
44 0.7978034103631626 0.2647367236231424
45 0.16766602165640387 0.0356576781212804
46 0.5814545961410387 0.3055578989531075
47 0.22415087175341386 0.8630977773375105
48 0.803206160944862 0.253906822023771
49 0.8117811568598707 0.016973354127492346
50 0.38586692181721705 0.7362523083280249
51 0.15998257460534704 0.1281908336144334
52 0.646482697431142 0.4846536008282798
53 0.13623666647575972 0.31913118130341445
54 0.6468566138341779 0.3190194744338486
55 0.5492550121871367 0.8605633224011685
56 0.13436058633280745 0.1202179724573047
57 0.989783405145596 0.7198274866670255
58 0.07816387774051758 0.6126171113069451
59 0.576839633538177 0.7173491773989176
60 0.8920554339093697 0.005270237162939395
61 0.8041568772800777 0.3324237828064226
62 0.37380045462039113 0.9978901185169516
63 0.4551411570473347 0.9452243871761709
64 0.4136040106835225 0.8394095855623381
65 0.11702768772537431 0.39127226134000803
66 0.7663957946318133 0.285576281677027
67 0.828536849941649 0.8288633177638399
68 0.37033277993451874 0.8280861801799868
69 0.19889937937863544 0.7362963558833379
70 0.15571821589476653 0.14636500253437734
71 0.4624927341670102 0.4558205945182491
72 0.07198538246441022 0.4677376483390241
73 0.8453069322921722 0.5364342314423072
74 0.8267652878447319 0.11488715776854874
75 0.9236007925872503 0.2766599874263932
76 0.5459102555798856 0.10243225808645595
77 0.528674356083395 0.7666674243718052
78 0.760117534719104 0.06325703406967587
79 0.6146541417341063 0.6523309750640299
80 0.28385869631748817 0.930049251783639
81 0.28069574539156894 0.4631852789458488
82 0.921764330444785 0.4689949703815206
83 0.4118021584481526 0.8580983725448726
84 0.05393521061901396 0.3583527939932768
85 0.9442971065863042 0.4703306233434672
86 0.11445561039035279 0.20306579988061424
87 0.9661630915147826 0.8892241256225034
88 0.1582642915853424 0.8119257291757194
89 0.17125907154581566 0.8090391753193199
90 0.5637155129655229 0.06470085333966769
91 0.4853367096745581 0.1647127354840331
92 0.36788639034631043 0.48993049794759314
93 0.6876883895242917 0.8128113200722833
94 0.35937979307385204 0.2697249704627368
95 0.9763919539063353 0.12109643948396631
96 0.5049004573996199 0.24799598619484742
97 0.35948680475897554 0.9564764913610392
98 0.027682419386572343 0.6565103040198179
99 0.017377324168523334 0.8480716184219296
100 0.8416342066281606 0.9767247407974233
101 0.8644939433922447 0.7829290544595386
102 0.9365129379524993 0.4763504094193738
103 0.3912305088848581 0.18048921735615553
104 0.7102125326335463 0.7200294120638067
105 0.5109329742946539 0.37344319854212993
106 0.6857156601063829 0.018025543373651698
107 0.9026776042754794 0.7312389552930461
108 0.8450837583819236 0.05589787851940431
109 0.8375713631197335 0.50630359345894
110 0.6285301718674849 0.8632290506071639
111 0.26594352578729286 0.31853557096972307
112 0.915544478820918 0.5345489288264171
113 0.7369681681457848 0.9155757776361382
114 0.17022695403071475 0.22137065481137996
115 0.4356658853203892 0.3770480145093167
116 0.2929542475483373 0.8036912711417444
117 0.1259530289041102 0.6221288816741487
118 0.8318564922797923 0.553510625014037
119 0.07513819325381133 0.5359402010180158
120 0.26304405811771636 0.39483373204105743
121 0.8838860350480366 0.7848469748161868
122 0.9247587394030635 0.8445772902840015
123 0.08535608729700783 0.5754799314805045
124 0.8219666776465613 0.9309031856074146
125 0.18103295758198135 0.3567364646386929
126 0.38925293617529777 0.6572175883931506
127 0.5117389459022788 0.9215770731265561
128 0.3144157168427386 0.15913694140017798
129 0.6884685610251418 0.2159118240758897
130 0.04661663738823818 0.1170660542691132
131 0.349723089391334 0.18489784128559272
132 0.6213475214752817 0.9246218939763476
133 0.9169373434632249 0.7587488357716381
134 0.45411933618490496 0.4197913688528446
135 0.7326520762577831 0.5422829626307012
136 0.04514930941634099 0.08993033632966252
137 0.8563446725970758 0.744084091400891
138 0.6577603986589489 0.7588146990349944
139 0.7199251868636359 0.10789041199028315
140 0.20538351032779723 0.7962934178488653
141 0.6426857780403821 0.8546367298011348
142 0.8766640834862917 0.29109318590785815
143 0.6766176728457564 0.8184616593658539
144 0.8513024891361151 0.5373107742045613
145 0.33554420463664913 0.7113332225411834
146 0.8989293323280818 0.8365692397882906
147 0.4529648483305607 0.9109238606257514
148 0.17995430181804872 0.29180092198296936
149 0.7307432109598255 0.029982541932417228
150 0.5985065970406159 0.8677279016916379
151 0.3664369736429274 0.11816961136986903
152 0.12654024987302837 0.6088716947655897
153 0.7059966413089086 0.25239487014985507
154 0.6103610530245546 0.4742302106512948
155 0.7796935386479334 0.392382305196306
156 0.9348370346353795 0.2702581405887631
157 0.370862668123509 0.4195494127475322
158 0.6223233114794225 0.8009088186394671
159 0.5053023059423909 0.4654338825558637
160 0.8162069481962667 0.9118631486639143
161 0.36549897266027176 0.8172241325032283
162 0.3219203877416603 0.8866143314106955
163 0.9774478822795134 0.6993288470631106
164 0.5009131000346716 0.5819835606704484
165 0.5633978586741454 0.14555414043061643
166 0.7908368303256673 0.3275386487089097
167 0.8454105154129072 0.10618202249504383
168 0.0004939221330945154 0.6708364992195074
169 0.9526463618951994 0.6152867969953412
170 0.13182681975635357 0.396361641254834
171 0.5022825528038138 0.6972463071016329
172 0.4919766581637962 0.7676440724876216
173 0.8161335763274439 0.3911684943480941
174 0.8516320315575902 0.7956336700106471
175 0.6212977870050782 0.9069192344811724
176 0.11585691976544832 0.4110720814588259
177 0.03066889794030725 0.18898121496386766
178 0.21950930301872607 0.17929316143334761
179 0.48450580001528676 0.8985323729366135
180 0.13703840400476075 0.19962538033670418
181 0.15295615558790743 0.023785543620226335
182 0.5662814014474896 0.08566903173211982
183 0.546414524681846 0.8403069193928089
184 0.315140586997381 0.5356428735394544
185 0.08662119913423638 0.4511551286095301
186 0.343334521901273 0.40161539828928483
187 0.05343012728126406 0.7440912841832034
188 0.1625066455763854 0.03774049499707455
189 0.9455817065831701 0.8035626062462851
190 0.8037957168047024 0.3853389286970399
191 0.6793998194581017 0.9952633539930573
192 0.7989552374296711 0.12089042094593183
193 0.13208954923492122 0.514360093846162
194 0.9885306608204739 0.6152185444952277
195 0.4163026008036588 0.6140797867091171
196 0.9165793555493491 0.7907864235437843
197 0.6983742238058507 0.7199119867386162
198 0.011247552291609786 0.1834871306589574
199 0.5717127837291155 0.32574222327761726
200 0.383966310531374 0.21672786961445767
201 0.5996976560140183 0.4223452747699802
202 0.4655809325400653 0.11099036123525119
203 0.2669288724095359 0.9207801061114179
204 0.9405339341895823 0.08881315862142813
205 0.6798879020699525 0.8691075627523989
206 0.38182027875329705 0.02490390595209202
207 0.5322274245322838 0.1303453021373705
208 0.427285898544992 0.17760514617204504
209 0.2146240269562283 0.1841422810187835
210 0.7046090895697554 0.7987180813880904
211 0.0716415326907125 0.6585827522511265
212 0.12684374346257332 0.6994060880542676
213 0.9613463070341237 0.41214359909802056
214 0.9203213410320589 0.7596012674035071
215 0.8482431249764953 0.48795359046217346
216 0.8073379677375409 0.8170811187779103
217 0.9602482002966302 0.3113563501307053
218 0.40434317178699597 0.020720945103589572
219 0.21030606820922626 0.017498663053874708
220 0.2809892101192908 0.7476795153018475
221 0.8758317180296807 0.16888939578668338
222 0.22249141612133283 0.18895475747851564
223 0.21710734298272782 0.17258412540374557
224 0.18832337127083199 0.9635431858570291
225 0.7825937028934266 0.9761189107417979
226 0.5127963144673298 0.3155857603834471
227 0.5228758890711913 0.5909087768262421
228 0.9445576156120306 0.04959177085947997
229 0.2623852414310779 0.6230450133309935
230 0.43786593685263253 0.7357771725262086
231 0.8266801594041869 0.5922941009969721
232 0.39375165136840484 0.9656456836121041
233 0.1348408083817889 0.9092474133463931
234 0.9231373674028136 0.3230185192919207
235 0.11531988486346834 0.3553897078351337
236 0.2237162928573584 0.645975435798046
237 0.11480232891362852 0.28545111031518355
238 0.7738065638170996 0.8003892589922839
239 0.678810296386704 0.07015957739438139
240 0.9214781380353617 0.02161967330836656
241 0.5896447731921836 0.5264323457859837
242 0.3501609479334641 0.09133199998331021
243 0.8233697480930697 0.23840477421537976
244 0.47904015063755534 0.3354796807006599
245 0.02106328579974459 0.44612645541058116
246 0.8450569182460598 0.9135967424300545
247 0.11565585705316916 0.24648476457281432
248 0.9081561199063717 0.6073087055379962
249 0.06874121094709784 0.06039277285867384
250 0.3624688267215267 0.016505891774690307
251 0.9655082333386716 0.7867098208587269
252 0.9060187356959226 0.5643742665896544
253 0.37585594216175544 0.34152094686772494
254 0.03399569007261871 0.1385928708572548
255 0.22351295323253628 0.2577371540017913
256 0.47890928452724824 0.5144074106050828
257 0.9958115640113936 0.5503391870521228
258 0.8406049417132365 0.8196860694965871
259 0.2604044544332219 0.5129386889907996
260 0.3872389718565118 0.5641447617333402
261 0.538163410348063 0.10557674811245088
262 0.3385277389051805 0.09674975377152739
263 0.8869321051550731 0.7152845907129715
264 0.198324284308262 0.9717762115589011
265 0.03267761204666575 0.6072222580564424
266 0.7507574982871644 0.0669839736209552
267 0.8873652894889714 0.21085642746026767
268 0.7420044638688919 0.07529180959666093
269 0.4771924369834426 0.2216279833300494
270 0.31545019439139566 0.026473320405288714
271 0.00895841110207185 0.7680369586994515
272 0.900834031598837 0.838937245804905
273 0.5312931625599977 0.0661580687213833
274 0.5606141239182659 0.5519891773662444
275 0.07500348136495372 0.2264832287803511
276 0.7480117585713343 0.44475679405290824
277 0.60612940939738 0.13868753727482164
278 0.15923697477939625 0.7421851615015708
279 0.9268770378145841 0.6976743326582614
280 0.24561102035051718 0.6073439972676786
281 0.5325172080268253 0.04442814340927381
282 0.7522954497825439 0.4742155777153868
283 0.9681993986109598 0.3688369953704447
284 0.7278661002377205 0.15309658048983577
285 0.028377934835365104 0.22472897666821012
286 0.7764514131508881 0.09124716004241851
287 0.21763433306548763 0.20043953223809496
288 0.8267703609539325 0.674168591231474
289 0.01323189594337948 0.5363890555545324
290 0.9863970155580741 0.6302871750481788
291 0.2365184830929743 0.25158618044799996
292 0.6620369080812719 0.3284152749656981
293 0.6924712976700681 0.5159768622046943
294 0.9643553733733652 0.40585214941414227
295 0.8297317556670971 0.1291673961081493
296 0.2772100090877464 0.4830678155962942
297 0.7959047294620706 0.5941386590235042
298 0.2567161580064008 0.4580030576297015
299 0.5875080395771016 0.6537756097080519
300 0.8283159195408633 0.6109195064201416
301 0.37317129681367256 0.8006936404483915
302 0.6626170486820202 0.48212188826413727
303 0.4996944265166503 0.5931573528962858
304 0.4785360237638018 0.5020231449168052
305 0.6745885439924799 0.3892915397594173
306 0.7667190527984501 0.7771239767449243
307 0.7263258815520964 0.7872960689919192
308 0.868371459149889 0.5422011320654047
309 0.9186824455545674 0.7332986726464578
310 0.5591608805802222 0.8041271687690603
311 0.8671004281451714 0.5552437230284475
312 0.7394521993306187 0.47773348309242725
313 0.6730767998568202 0.9838461897669372
314 0.7424537459135069 0.7439862372072642
315 0.8181426921022728 0.8028738254692098
316 0.2967464467128881 0.3376748053529314
317 0.8335294217456649 0.765817856089838
318 0.016914436500610863 0.4787812369644857
319 0.6005852769307635 0.8268710791558332
320 0.964985306714597 0.49449243541723453
321 0.10387157224650456 0.8347902605909179
322 0.7059997658633023 0.18697048651102766
323 0.9978489871082092 0.7104663734602504
324 0.470832734495789 0.9844277925696409
325 0.4659340897435522 0.8945052498277397
326 0.18492174150385987 0.043802127306930894
327 0.43549177456533683 0.39631428112616707
328 0.9451801199287271 0.245685532285555
329 0.824627830626142 0.21395614666528384
330 0.9985776441901778 0.9450234772481093
331 0.4549547974844408 0.7464143230655237
332 0.7527673407640422 0.3398142154041488
333 0.0835188548122272 0.6049884486824494
334 0.8568018942580726 0.7656514593059357
335 0.84338523330122 0.8018120566946388
336 0.35014300495695116 0.5647844709526341
337 0.07154599399952088 0.12516497668106163
338 0.777640225011203 0.3052334818351108
339 0.48059025980269443 0.8934623486057615
340 0.9591934537735803 0.8787469380088732
341 0.2747555696691161 0.1652218971751589
342 0.7189392975072518 0.7647515550755232
343 0.8509412624688704 0.6629921204212312
344 0.08715218034226102 0.8681499335938688
345 0.8303904644796247 0.8050286932967152
346 0.9776296608441388 0.5980555972939077
347 0.931508552744453 0.3882999746264011
348 0.22499381408266206 0.1770403695721695
349 0.3776031110791038 0.9686673308769189
350 0.41496233520697956 0.21064514264083634
351 0.6889963353440927 0.7901416148642855
352 0.6452004623341518 0.050113442016460286
353 0.9367127283459686 0.38702540669253616
354 0.6176228332327511 0.057900534492330014
355 0.2210710183559389 0.960055816789767
356 0.3136208137819141 0.663551609701801
357 0.7545101593543403 0.6989832634665482
358 0.45434671632279056 0.07190466024250186
359 0.7499223786018842 0.2594003460522941
360 0.1557942895290797 0.6548858220256102
361 0.41334351746873965 0.3312270293693408
362 0.366293377912419 0.20256807505283192
363 0.3958420481762317 0.2221751689204361
364 0.3862118878507509 0.7740312722618328
365 0.3214995048983288 0.9184638264754634
366 0.2908288434054971 0.5840505740093336
367 0.43901900862123466 0.7685431619832657
368 0.23022621339553717 0.791958318568544
369 0.9281298709051661 0.663789884737858
370 0.4288330584463592 0.4277117145466234
371 0.6289757696411041 0.4728073896616083
372 0.7474077637234416 0.19626515780885234
373 0.9718117750501865 0.9676451914188371
374 0.4738382623476556 0.42333871773636533
375 0.08403540274470467 0.22596573601979875
376 0.8033329574908042 0.09203997188789625
377 0.09135566391654115 0.5961087797161722
378 0.045317350189353345 0.07217931282462742
379 0.5546659547279907 0.7143194925106724
380 0.8678442835490081 0.716608660334812
381 0.885227345518889 0.6105877721298825
382 0.9479991470084463 0.12559839626243563
383 0.08366312256308917 0.8171475856848209
384 0.8004071129703964 0.9761306668881986
385 0.7668546698704144 0.3306348873107362
386 0.9687021850617035 0.4147863348729678
387 0.27176804697246904 0.7391660997929249
388 0.6188912001247652 0.8582611286327014
389 0.10196358797277316 0.2732892002900753
390 0.9516054028021148 0.21963624703325813
391 0.12230413014313712 0.01556028681131727
392 0.18355527483909595 0.5257113426625206
393 0.5883727458781473 0.45969694392163285
394 0.6810465165178003 0.7293780941001344
395 0.3508822303942475 0.26887888744058985
396 0.27849341014353823 0.866241965316525
397 0.839945462861738 0.7944666920213338
398 0.4231097522591589 0.8885315294381021
399 0.694576823660192 0.8662202960832904
400 0.3380736287864087 0.9684718313651907
401 0.7938968834549903 0.5944401424812971
402 0.10201800689722451 0.20187005537519176
403 0.7605667953816161 0.2775615264144937
404 0.7114333747030104 0.5325625285561888
405 0.3417959785462492 0.5340201341527598
406 0.9238173457819052 0.10037984575192171
407 0.45730904029230157 0.9247659737545085
408 0.1333120622541486 0.4038028166468418
409 0.8043422970822788 0.13957434499505772
410 0.4893110109402323 0.37476184092528386
411 0.8718355333773767 0.612628077053953
412 0.6564986985578919 0.5793022136786335
413 0.43701116833864107 0.7562581167876067
414 0.15145734173054093 0.8099936114150189
415 0.7654965278003858 0.6270936219519877
416 0.9875055782574366 0.06118897351170671
417 0.315883877795872 0.7637482963605539
418 0.27259625832873147 0.22867950964026085
419 0.7453546467768178 0.9799132357674871
420 0.5911751557964515 0.7992110601586744
421 0.8290630225788036 0.6225654478637148
422 0.8096509471158985 0.9944082799872015
423 0.23377218901351282 0.8913373865426865
424 0.9086905739925645 0.1481430382529737
425 0.3887737683126047 0.8979446097062094
426 0.08028371150896552 0.8516349691500424
427 0.24785823230535775 0.9021785870353404
428 0.8631666847624487 0.4523557492564072
429 0.17715243603246178 0.7665696899275035
430 0.9323248163701626 0.6772816091936552
431 0.2888992706428667 0.8079329866419301
432 0.7109529899043089 0.31641474951733695
433 0.5549055343067086 0.4895678170811393
434 0.683366983355018 0.5718955403121688
435 0.4840613069201185 0.28050772138145574
436 0.1340181798091281 0.39462465484958065
437 0.34392765996575025 0.04340783499375578
438 0.5047566296649528 0.09994498925089235
439 0.00507209098185768 0.5119387197483493
440 0.763386868264909 0.6385454851387722
441 0.23559891084426288 0.04707634849786324
442 0.8743702210179846 0.22859221986584355
443 0.8711707016001474 0.28595721834385246
444 0.6736418325291997 0.9194577316316013
445 0.5174508688268772 0.16629664496450514
446 0.379485738429851 0.6635323701193714
447 0.8789539636137614 0.7486155789096282
448 0.9051594858465505 0.8763709884064358
449 0.8383462755798372 0.10893327966788457
450 0.18150122813268454 0.16810688458330758
451 0.38542755934152595 0.31685302299943474
452 0.6296172827995888 0.2136767772257523
453 0.8333887454792571 0.03353409088564707
454 0.43582573984138195 0.7282608205991807
455 0.39378715594007674 0.9172361945403166
456 0.20126435912471152 0.6575769488967572
457 0.3634900198369997 0.26720670201228824
458 0.5884012477385465 0.780304441710213
459 0.8830660750531301 0.5723371245854101
460 0.09316727124430335 0.43371462490843615
461 0.35094412819676035 0.07614101366147297
462 0.5164346698953146 0.20793466182243536
463 0.010314921190853199 0.47789745540035866
464 0.25577691053968943 0.39933759889501264
465 0.04951776137881114 0.5805933937110463
466 0.10351729136855004 0.030539863686690816
467 0.7777475004916249 0.08953903985551759
468 0.9574838842955092 0.2033470949478665
469 0.05104713644339032 0.242747000515258
470 0.01841857235864197 0.3708102154875773
471 0.9016874431450557 0.13863868950008407
472 0.06655815699159529 0.9738831998886515
473 0.5679493034327852 0.7188941635756633
474 0.2978732195203856 0.24105085206977073
475 0.2527941253865602 0.6872684135373719
476 0.09623696700452589 0.7225057104025719
477 0.03720103230718008 0.8754182955041642
478 0.7649858427916733 0.43150083491064517
479 0.5290250761375748 0.7834314817601352
480 0.1961180427828405 0.1375983698415678
481 0.1620024932371279 0.8292936734906894
482 0.26910911337710797 0.796332697839301
483 0.9646289787332053 0.2759563112025891
484 0.17875840148525324 0.4427153604795956
485 0.4537671927384811 0.3996809561129593
486 0.6115914208697072 0.21403945358883458
487 0.1536142778509394 0.6365236669648482
488 0.8959878303671256 0.3261488492442235
489 0.8620454866609436 0.24506152925383573
490 0.5323350824723391 0.7707323730777733
491 0.498659175006383 0.4792270055108746
492 0.10163092493713277 0.6596910945965245
493 0.9302625320166217 0.3129173755294439
494 0.9771898664143805 0.8101867292954977
495 0.22046508807109821 0.244683141754659
496 0.6372880535926427 0.1863337608621145
497 0.42059865585385503 0.7721330001909156
498 0.4367597335488924 0.14539990505781486
499 0.04990905536440238 0.4404101764022986
500 0.9180121757313797 0.7674600203260102
501 0.4248209388969648 0.652949608411658
DEMAND_SECTION
1 0
2 3
3 7
4 7
5 8
6 7
7 7
8 8
9 7
10 2
11 4
12 6
13 2
14 5
15 1
16 1
17 2
18 1
19 8
20 7
21 8
22 8
23 9
24 2
25 9
26 4
27 1
28 5
29 5
30 9
31 3
32 4
33 6
34 6
35 1
36 7
37 7
38 5
39 7
40 6
41 8
42 8
43 6
44 3
45 5
46 5
47 1
48 4
49 8
50 9
51 6
52 7
53 8
54 5
55 5
56 5
57 8
58 5
59 6
60 4
61 3
62 5
63 3
64 8
65 9
66 5
67 3
68 6
69 9
70 3
71 9
72 7
73 5
74 7
75 2
76 8
77 5
78 3
79 2
80 8
81 3
82 9
83 6
84 2
85 2
86 4
87 6
88 6
89 3
90 4
91 4
92 3
93 3
94 2
95 5
96 8
97 1
98 2
99 6
100 7
101 1
102 8
103 2
104 5
105 6
106 3
107 1
108 8
109 3
110 3
111 6
112 2
113 5
114 6
115 6
116 9
117 7
118 9
119 7
120 5
121 6
122 8
123 7
124 8
125 7
126 6
127 4
128 8
129 6
130 8
131 6
132 2
133 4
134 3
135 6
136 7
137 4
138 3
139 9
140 5
141 9
142 6
143 5
144 6
145 3
146 6
147 9
148 1
149 9
150 8
151 1
152 1
153 7
154 3
155 6
156 5
157 7
158 2
159 5
160 3
161 6
162 3
163 3
164 8
165 9
166 1
167 5
168 4
169 2
170 1
171 3
172 9
173 4
174 2
175 8
176 3
177 2
178 9
179 4
180 7
181 4
182 4
183 3
184 3
185 3
186 1
187 7
188 2
189 9
190 1
191 5
192 2
193 2
194 8
195 1
196 8
197 8
198 6
199 6
200 5
201 2
202 2
203 6
204 1
205 1
206 6
207 9
208 8
209 7
210 9
211 4
212 1
213 9
214 4
215 2
216 8
217 3
218 7
219 4
220 7
221 9
222 9
223 9
224 4
225 9
226 3
227 6
228 6
229 3
230 5
231 2
232 5
233 3
234 5
235 9
236 4
237 8
238 6
239 6
240 2
241 9
242 9
243 9
244 1
245 4
246 9
247 2
248 3
249 4
250 9
251 5
252 6
253 8
254 8
255 1
256 5
257 7
258 4
259 6
260 4
261 7
262 8
263 9
264 8
265 1
266 6
267 7
268 9
269 8
270 1
271 1
272 9
273 5
274 4
275 5
276 3
277 2
278 9
279 4
280 4
281 1
282 8
283 9
284 7
285 2
286 8
287 1
288 2
289 2
290 4
291 3
292 6
293 6
294 6
295 7
296 2
297 8
298 6
299 9
300 4
301 3
302 5
303 2
304 3
305 9
306 1
307 7
308 1
309 3
310 4
311 6
312 5
313 7
314 6
315 1
316 1
317 4
318 4
319 1
320 2
321 1
322 8
323 5
324 9
325 8
326 5
327 8
328 6
329 6
330 7
331 3
332 9
333 5
334 5
335 6
336 9
337 4
338 8
339 5
340 8
341 2
342 5
343 1
344 5
345 2
346 2
347 6
348 2
349 2
350 6
351 4
352 3
353 5
354 6
355 2
356 3
357 4
358 5
359 4
360 5
361 9
362 3
363 8
364 7
365 1
366 1
367 8
368 7
369 6
370 1
371 1
372 5
373 5
374 4
375 5
376 8
377 8
378 5
379 5
380 8
381 4
382 3
383 7
384 8
385 9
386 4
387 7
388 4
389 3
390 1
391 9
392 9
393 8
394 2
395 9
396 9
397 6
398 3
399 7
400 2
401 8
402 3
403 1
404 2
405 6
406 5
407 3
408 2
409 3
410 1
411 8
412 2
413 1
414 2
415 3
416 2
417 3
418 8
419 2
420 4
421 3
422 3
423 4
424 6
425 3
426 7
427 2
428 2
429 8
430 5
431 5
432 1
433 3
434 1
435 6
436 3
437 8
438 1
439 9
440 3
441 8
442 3
443 4
444 3
445 7
446 6
447 5
448 7
449 1
450 3
451 6
452 5
453 7
454 2
455 5
456 1
457 1
458 2
459 3
460 8
461 6
462 5
463 5
464 8
465 2
466 4
467 9
468 6
469 4
470 4
471 2
472 8
473 4
474 8
475 5
476 8
477 3
478 1
479 4
480 5
481 8
482 5
483 5
484 8
485 2
486 3
487 2
488 1
489 1
490 2
491 5
492 4
493 5
494 2
495 9
496 6
497 8
498 7
499 7
500 4
501 5
DEPOT_SECTION
1
-1
EOF
