NAME : gen500_006
COMMENT : uniform customers, demands 1..9, generated by bench/make_tuning_set.py
TYPE : CVRP
DIMENSION : 501
EDGE_WEIGHT_TYPE : EUC_2D
CAPACITY : 100
NODE_COORD_SECTION
1 0.9501697008764775 0.9728085394635614
2 0.730019495509887 0.38268577695866624
3 0.45125869818072006 0.06356778639393501
4 0.22656058205903684 0.31830804584821737
5 0.4481253408183504 0.8431280714243942
6 0.8004196313879786 0.11790179877762441
7 0.575584987478707 0.5880870725923559
8 0.6955597084793474 0.33314017197120116
9 0.5731209115504423 0.08867594731336115
10 0.31724559619073345 0.537246784678215
11 0.7164348510945345 0.7496101630887584
12 0.9480842796236422 0.011346500629586198
13 0.20909596990045531 0.29106591793854464
14 0.9785428836535291 0.8743456098454857
15 0.3311650586820083 0.7931895825961847
16 0.5355440978525294 0.35697474218603
17 0.14207488288137593 0.9199910969140219
18 0.5972380867790936 0.15006091366670427
19 0.9181355293678308 0.30013311018989575
20 0.06423213054738297 0.810539866281098
21 0.9592437989869338 0.8183564238208266
22 0.5683618079567506 0.2878289875054848
23 0.1385856221979066 0.6739996127323302
24 0.28750076801645175 0.15723722665988193
25 0.0166028545487078 0.9707082078569511
26 0.05361045981419987 0.5734146305885924
27 0.11651318612664097 0.5004893451490069
28 0.3926230555958129 0.6958711563588454
29 0.08957855389089886 0.9219556036321601
30 0.7099751479583184 0.9239178203986937
31 0.9914401437917341 0.045154458014231236
32 0.3488932869010397 0.9057540858079979
33 0.6034896937313018 0.54324086122168
34 0.674117473599844 0.9981729511091187
35 0.9309635407718997 0.20787919352342799
36 0.8175900426007481 0.0869984360655508
37 0.21307283308759672 0.2238465143616568
38 0.5390516916238952 0.7884430003947589
39 0.14289313167806095 0.3776706075158286
40 0.0666972217794558 0.9407049805149144
41 0.8614789001332164 0.33238597617807897
42 0.8274498043669196 0.09753929441978726
43 0.5718418636270146 0.9673795658418637
44 0.48680498160717345 0.9663166840579299
45 0.46883218920730174 0.957421909065151
46 0.8478139818378297 0.6607338961996317
47 0.2595874469419175 0.44410514504707355
48 0.9084673167007202 0.0666343857923678
49 0.9590415254012405 0.0182454600141585
50 0.027120446677115106 0.3501792156390213
51 0.6531448246720328 0.6911536899733339
52 0.5859834193235299 0.720005924480647
53 0.616361708906042 0.14519723304269772
54 0.4368349116934831 0.3970722447014847
55 0.9921075412607819 0.9299888239225926
56 0.053380665878736355 0.5166140063508801
57 0.2209210158368472 0.6175505478859871
58 0.4629776595400603 0.5540093016043798
59 0.9456279064167098 0.14711643839481325
60 0.6783693350356399 0.37637577666758615
61 0.8699663119290654 0.8106150944416877
62 0.205046324328076 0.8467668721767246
63 0.21408483592809568 0.6984410516562336
64 0.5449515159931259 0.5457611383980859
65 0.049179350120629683 0.07448824720283265
66 0.08767894650621588 0.7308830662551078
67 0.4234319853373728 0.5778925264434839
68 0.535283735529222 0.2932610315155151
69 0.6183064756261712 0.601923933060731
70 0.6736037932092961 0.7273965154543971
71 0.24648484629357426 0.4958649122906754
72 0.6135979962376025 0.5315606387413236
73 0.8353153480577912 0.8938708034568231
74 0.10689022722200059 0.649674926847893
75 0.5729606037196799 0.7049678719419802
76 0.5293422060469978 0.9082318416932529
77 0.2202752598182468 0.13845864456090162
78 0.9808617091536629 0.13797853364053192
79 0.13510230017387714 0.7752136651531147
80 0.5447058976918282 0.217468107381375
81 0.5898283576977035 0.630610824672883
82 0.09599654918353906 0.4142461439036105
83 0.8723963961038758 0.9389251808500962
84 0.5468394736621659 0.5143519137453296
85 0.6801016486483392 0.014940711802038042
86 0.04173419353062824 0.32497190723682723
87 0.3459530967852029 0.9778528611912888
88 0.5003180295814702 0.39367239730103776
89 0.1831649582389927 0.9631407822341205
90 0.8589521603195924 0.9121572600492971
91 0.995164725477428 0.14202585345040408
92 0.236730923904926 0.016697964463541326
93 0.9226734548763664 0.8347747348509544
94 0.7699219620302038 0.04348009693118904
95 0.6133851978531052 0.39769224258766067
96 0.40164458563496575 0.11233522967738319
97 0.6701424452007518 0.5740604397915956
98 0.41912891478451264 0.11344207171255305
99 0.30449992091382916 0.6184361210450844
100 0.9513867995658409 0.9005886738294175
101 0.8537502287251792 0.2590978379188209
102 0.12412185701738998 0.7824711246614414
103 0.5464979935073699 0.0979579949106143
104 0.25564495115854946 0.2104783785369958
105 0.7794967236144517 0.3138100919197667
106 0.8760107642839673 0.41020447969454177
107 0.8163558377691469 0.9372472069215675
108 0.6258911736725996 0.7499807516800507
109 0.17355024427513122 0.71155958911318
110 0.5444620105785674 0.8067829198858875
111 0.46302203154484844 0.9861505734087862
112 0.36000748825860185 0.3555699550219068
113 0.5095521597047582 0.7758278168419479
114 0.21222083003363312 0.14436321736830415
115 0.1516496311470209 0.3195987203484494
116 0.6524152413986827 0.22867703694273211
117 0.5733745745904164 0.3733015244889373
118 0.025577631078335217 0.2082000902493747
119 0.006667024152643197 0.5784544076554355
120 0.8999717111519588 0.5374435661976121
121 0.39216383530980337 0.04842517012062464
122 0.9385696433447116 0.6052762352546914
123 0.10278181633214623 0.9344118876481533
124 0.2982515824978581 0.8908416615979557
125 0.17057378086767616 0.9752858830963858
126 0.23134358335790994 0.08795611983760476
127 0.7671529300438109 0.8099187411252227
128 0.5633493323479278 0.3451589526607586
129 0.44538892051510215 0.6267746216377461
130 0.07451723035457969 0.9631867956198891
131 0.10424932508341966 0.2582665186922324
132 0.8485398323271158 0.22347769250526917
133 0.224089849508734 0.9418108720215604
134 0.9124895525330023 0.6804148224096577
135 0.13023549553741043 0.8435015554993447
136 0.8110732377845614 0.5359809230082453
137 0.1468791596655623 0.3136073583411795
138 0.898399730446497 0.08506551664413375
139 0.6579085446892826 0.041010799852718494
140 0.24614193629226833 0.7065623161923203
141 0.295211061767642 0.8638570552998183
142 0.04387630303832313 0.6342068009198983
143 0.8126563168632218 0.8697885217626163
144 0.8527246590672937 0.6883376767474197
145 0.8604861486262027 0.9146848407563739
146 0.7258307413035344 0.2720239786224645
147 0.6130639978198513 0.9886283084589387
148 0.13542882666503653 0.19894866851414683
149 0.5635736820935567 0.04985252718583255
150 0.4777999956880271 0.4396615744793112
151 0.9173020089206436 0.40460991194019
152 0.7302503342576288 0.9967569431501092
153 0.8385053322032507 0.5637102279388497
154 0.7024791282397564 0.60671581875894
155 0.2925493858462115 0.7368110681946792
156 0.1841913923935976 0.28432458195304966
157 0.287891670106182 0.9254267277023484
158 0.017184573352789334 0.6535194331943331
159 0.7982835175665631 0.5935941120756195
160 0.7949986709470335 0.23463956568040134
161 0.5099884793055868 0.667835088373832
162 0.09220433058931266 0.09444393912638893
163 0.9591737224527511 0.2158195890858905
164 0.4529143342703459 0.12385997637700996
165 0.14509516105024434 0.5684172070720813
166 0.3444142748043638 0.725360310136753
167 0.42810880995098055 0.9376331484156992
168 0.6489050745311392 0.3414603412316747
169 0.9127980991205825 0.5659929895665109
170 0.9552358985359642 0.023998500414418422
171 0.8430174228773285 0.9351733918121755
172 0.6671877898213847 0.7229329851092602
173 0.28017601731449226 0.7721998032604569
174 0.6041824759637966 0.7616993952653228
175 0.5763291575873332 0.7831942766047076
176 0.6976614680652936 0.7310087067266062
177 0.27090576205027217 0.5111280779557006
178 0.24737657003158964 0.3493475587592073
179 0.15575115934237693 0.951809569705613
180 0.027375051245980275 0.14192955258819184
181 0.15029992570234918 0.6838886257748966
182 0.2922142829235198 0.09661215633623521
183 0.45532035315312724 0.9818037189612049
184 0.17122930412866966 0.048248579778399914
185 0.8394309072108627 0.06171446547040749
186 0.17547899844052917 0.7810041432533451
187 0.8363115877802667 0.6035002332665648
188 0.9803685945858974 0.6239364102119221
189 0.09789522642876869 0.13516986442934087
190 0.31202627164388974 0.13344763549096272
191 0.8021972726267486 0.9748895555615829
192 0.6455671629202834 0.10782881032027769
193 0.6944548603499933 0.08785089086939601
194 0.1546299879023768 0.2119167959650068
195 0.4493536240995064 0.7063544659567145
196 0.9677784527843819 0.4343988193094843
197 0.9489796171922995 0.9857440198897506
198 0.861059553635871 0.242738222248565
199 0.6975202701540518 0.4182748644461677
200 0.626965873048071 0.8267794493621635
201 0.9460859300898269 0.2002547092601955
202 0.5347513295251864 0.02375862923953498
203 0.2686068878849932 0.340499109819575
204 0.24760041994938364 0.1999117980506876
205 0.7432389886046191 0.11923167682038938
206 0.617257270148356 0.39162250928212106
207 0.5074232183759276 0.5865169462904082
208 0.8947588969876711 0.02432161037113978
209 0.19281122524746408 0.4463183585425895
210 0.5431078306651669 0.24825288120430655
211 0.8518319605350902 0.747745257426783
212 0.7633807137858841 0.11991011555430586
213 0.947230573278097 0.18313578182972212
214 0.9048920935132012 0.5421705395399067
215 0.8263918660097066 0.6310911304113351
216 0.3467503930838055 0.23825998378254987
217 0.2979903868825078 0.6130384777794602
218 0.3464004931125937 0.2794071593030528
219 0.19125457691662084 0.8439877482346615
220 0.6537119898905918 0.3339476358608642
221 0.5705727523942797 0.3927492605551576
222 0.9265838731098858 0.18392655853070083
223 0.31363063208524344 0.36348566155715156
224 0.30978595507147877 0.4105579310918156
225 0.8972890402807491 0.4312062739625122
226 0.3725524561865907 0.061189601022754614
227 0.016136253394115396 0.8884745604818373
228 0.1384706407038927 0.5594935506612528
229 0.07738055244594488 0.04183321722275357
230 0.7676181360309221 0.07089591345961788
231 0.9584715439008383 0.5459111332056472
232 0.47768304576510734 0.24339863881719503
233 0.285362657333851 0.034638660663381615
234 0.8105952778244115 0.9133211304778647
235 0.42447476853073685 0.4328856167726808
236 0.0956982157966032 0.33194800265585755
237 0.06591844901158528 0.9771639120193202
238 0.39978086628189624 0.9841351238251086
239 0.7099088176590603 0.8487067768139477
240 0.722624666801508 0.42462038211339104
241 0.4949513057895668 0.590320976196876
242 0.6771642047856811 0.7340327595998783
243 0.4473733303964441 0.6634974561031621
244 0.5692016822917337 0.3451617121649281
245 0.8444810879162559 0.5035052808270727
246 0.9825521415347221 0.9132516338280953
247 0.8746243233131213 0.09274659480557046
248 0.9438772248384796 0.8911487515472988
249 0.09964317647764487 0.33551744597853583
250 0.8576371423977055 0.8599265531371985
251 0.664513973886299 0.7795344635103751
252 0.6998531659446756 0.35933705640164093
253 0.9400293313052168 0.839366350380356
254 0.034686486917487436 0.927754235542212
255 0.7593933505500711 0.914869320321205
256 0.977449850769085 0.961684121640981
257 0.5585458722623391 0.05386005219307499
258 0.43659900615788083 0.14549394691991469
259 0.1916153660641292 0.8778845686440829
260 0.17855004525793283 0.5172770401805603
261 0.6555138444635719 0.6319845399683567
262 0.848793098195504 0.3980658829830439
263 0.1858514336022905 0.5762028619974802
264 0.2812324048655901 0.4185254114618939
265 0.42202761590356186 0.32526617369460753
266 0.21364869796129526 0.5334298783227261
267 0.871654421733724 0.11048699051801614
268 0.9951157364022186 0.8596303135856037
269 0.5225667817926185 0.7176151904166749
270 0.31152726824318444 0.4525730783610784
271 0.6614138051474524 0.7475621244948245
272 0.053219677682767585 0.06537371170308592
273 0.5556641388473723 0.2998552939007071
274 0.6086264624041683 0.16473511798068396
275 0.8339761673919717 0.9596880963039708
276 0.9498333690487011 0.7441652639075452
277 0.40185934816171776 0.8718259173016722
278 0.3444393215402587 0.9480791053023082
279 0.25370951377614004 0.14036828683018265
280 0.5879512224607515 0.20297392566082018
281 0.15070796152970656 0.7069639420041645
282 0.23523379959812596 0.33411330580528986
283 0.9381229785263341 0.8322423379337333
284 0.9591644401544249 0.30032978680893274
285 0.6990864062868056 0.6950446847344958
286 0.9609244405541293 0.3655575223939851
287 0.9130131134624244 0.04274831163309567
288 0.15400487039418376 0.8984551291560462
289 0.9034365251402796 0.6666016541542908
290 0.06383430577817562 0.7240643097604009
291 0.26650608518996677 0.7943257146212955
292 0.34683959838277667 0.8573002461330927
293 0.9093575382965942 0.766765842131037
294 0.21099565557628852 0.2472240777444893
295 0.46517939037418143 0.20716866496523212
296 0.07192067925105416 0.7938575391326962
297 0.6380265997111385 0.6854664490018759
298 0.4302825917273987 0.43240375610911885
299 0.7393139587168269 0.582514421538712
300 0.816271208617543 0.849335379951785
301 0.976221826144855 0.19837142866738766
302 0.478082708379747 0.9955293321003142
303 0.25305263295645675 0.8626270082827304
304 0.35359882227469097 0.7024738777709899
305 0.9571864384713576 0.5511700822257708
306 0.03996597197892915 0.8377517101008286
307 0.8182751755473939 0.029272074701753747
308 0.9899588756116007 0.6355624416222998
309 0.4570550205378222 0.21129794260038504
310 0.3374368322918174 0.5115160603285435
311 0.5313479602689412 0.07554695609929907
312 0.7514482525096366 0.7403354388223508
313 0.43138970193575943 0.8143899819957441
314 0.2970979405794887 0.734641128025243
315 0.34866838432227676 0.5366792026336678
316 0.3248190550834491 0.5406517763055352
317 0.2698173572165632 0.4118215287433856
318 0.19393919952220584 0.09074250257088345
319 0.8163258905023406 0.9405043984776266
320 0.7347762939112649 0.6520342793427881
321 0.3042879523046138 0.38441618136292266
322 0.14356014275817808 0.48049357138049587
323 0.6529651381808707 0.6484377627840117
324 0.6540784955941794 0.20181934036217075
325 0.4090221931751328 0.9680605597067918
326 0.47774395918357493 0.36916976839702775
327 0.5788362097827654 0.17749004736924057
328 0.6357413570463925 0.9846693058587053
329 0.2686831971272172 0.8182448265189282
330 0.560162315853117 0.35072868023232984
331 0.2616963110185595 0.3132945190392925
332 0.26735160366184163 0.2033509430345889
333 0.12311114521201982 0.928581481004039
334 0.8113934712731109 0.6627428632952594
335 0.7455338778235772 0.6122487504957683
336 0.23279662958718828 0.11114378276818782
337 0.5708125960002539 0.6555149522495617
338 0.20883623074754087 0.466464407159329
339 0.8749046183763822 0.6661200647941287
340 0.34519734940591507 0.9816818821230803
341 0.9677359698730744 0.057976555183507306
342 0.7921528020146669 0.6274958573706834
343 0.36854894078145195 0.7309136616219796
344 0.40641182629053807 0.09782625436662584
345 0.07403088100176103 0.024689444207280253
346 0.670450920915731 0.6274300724245743
347 0.12194284769988961 0.32161933923483477
348 0.09512995129631385 0.38506047154071543
349 0.24730146548368337 0.676513759604725
350 0.7716375948686641 0.4202332753818784
351 0.24709037412199475 0.19108864377531887
352 0.3898843624173759 0.7556333618224007
353 0.5681214151692587 0.42842967647252306
354 0.6353640176416071 0.6051903977858348
355 0.7868698556271995 0.2896305395601183
356 0.07125885901127227 0.2713627667383518
357 0.9853939367884393 0.7253610867549132
358 0.1515850518940386 0.08286292442034382
359 0.2467043149505046 0.88510869984021
360 0.38253626895535475 0.1580581498924588
361 0.06039043244512776 0.6309245867581136
362 0.8183442899215089 0.9270435297082249
363 0.02425232411173006 0.2599112771678077
364 0.24961712545242154 0.6923666967968582
365 0.766273677555126 0.05480948681059106
366 0.32378672417466314 0.743859849520392
367 0.6216733516586364 0.18483778911259485
368 0.2653475707989894 0.4991059176782038
369 0.1208129489856602 0.04403308991187194
370 0.8917580380953674 0.45577431405105506
371 0.8160636355499492 0.1399203883662966
372 0.04381856985530097 0.9901075130565586
373 0.5879105774692834 0.46818310125458673
374 0.025740598187872665 0.8669194022393801
375 0.6571068250580435 0.3561764256137625
376 0.17624888364068736 0.8387088141040218
377 0.3718183095379126 0.2691631745975932
378 0.8101914653515472 0.16801754184582318
379 0.6820756768241895 0.6821292495985969
380 0.08639114160337058 0.9392496858620124
381 0.03914990331237023 0.30891686389970474
382 0.46713060792008054 0.6777409049357219
383 0.4601234735026929 0.9451923729200903
384 0.2346289687455888 0.9851936598124581
385 0.21019217277557 0.887053437366503
386 0.35404713108828223 0.4108838705361486
387 0.6625960909201944 0.32500485713372607
388 0.2766252190499393 0.32628357405241903
389 0.41660352350462326 0.03190172365466404
390 0.044704204703112094 0.11729675931473393
391 0.7067948148694777 0.029990007186359136
392 0.050294205296045114 0.033279217553688345
393 0.31276616095110976 0.5385022061522676
394 0.8555022637240051 0.24924860963381168
395 0.1934790186825417 0.9302769074417915
396 0.08357451572313135 0.07648377052863164
397 0.5016114619413948 0.38737526746354545
398 0.30198740702267857 0.9473845359836635
399 0.9667115294960609 0.5666391913863168
400 0.23612745494223863 0.5936062611293511
401 0.463493721378647 0.041300807269247564
402 0.21962006034311066 0.840914874348028
403 0.8973916202608897 0.8827810179444645
404 0.8568939242318372 0.7949908298735091
405 0.2767875834732706 0.4159892679637921
406 0.73449628829972 0.7238157162187167
407 0.5199731274298627 0.8240803648351018
408 0.5221241672922029 0.8432161069621376
409 0.608006372155276 0.5797333920336167
410 0.8010322841183308 0.11820206647135512
411 0.29573291367567234 0.44316705005115464
412 0.014286593335261055 0.3372510576125558
413 0.08973909663084112 0.2191568189071441
414 0.7760706842630789 0.8235498584787058
415 0.10538601021749028 0.9359096881885627
416 0.17309104731621716 0.17392385293405366
417 0.40532304033048616 0.9467827984423677
418 0.8594242074319882 0.39225681595719564
419 0.9548479132546219 0.2910355930455907
420 0.6792195732553893 0.9104949299713982
421 0.004763626777086971 0.9318806059365543
422 0.13537270614292807 0.007948356194602213
423 0.5232297065008903 0.1847346459731818
424 0.7462631460451497 0.19453584134896473
425 0.9032792244370615 0.48835538890832564
426 0.09022993861556228 0.02816645888526148
427 0.4489161766970856 0.9458819589388502
428 0.04684800073724782 0.6329714706791119
429 0.6462651935298311 0.08853035790316965
430 0.13631330164050715 0.38372792611136053
431 0.813692790189355 0.8116173670414254
432 0.23399941995440265 0.6244583647347586
433 0.48928008511883625 0.3697649560876328
434 0.11780998768763462 0.29696390604570966
435 0.9688215501682479 0.6097441025480336
436 0.6796377059194036 0.4818793446863161
437 0.2915597848213882 0.5952533093485162
438 0.6351745660523517 0.9486639906035148
439 0.7476893121140448 0.9548937364848884
440 0.9906303882944875 0.08325503957689395
441 0.5108779243759144 0.6445522619652824
442 0.793673455570379 0.06834125043391415
443 0.24249275104348278 0.6675288329097964
444 0.32798029821524266 0.30851659024137246
445 0.8263922587476689 0.8728250989163261
446 0.6497305642338885 0.9034611741290293
447 0.4742366142037817 0.7548581165428944
448 0.8879988334223704 0.34905921390002426
449 0.9406231822348066 0.6645587290077206
450 0.3007327462784384 0.4385123387075197
451 0.24694776030484156 0.7894803814622748
452 0.5043462597086092 0.5041200982140167
453 0.09551650210817086 0.7864825447761163
454 0.17439609839856896 0.7011306784772968
455 0.17507962095080143 0.8677819477647964
456 0.11810420047061176 0.3951159147347101
457 0.6948205159730839 0.4871071539133094
458 0.2234529313810215 0.941847490151609
459 0.5617751905198858 0.6117236011940993
460 0.056851353082259304 0.863162935451373
461 0.32065760548983935 0.7886398762839901
462 0.7363446971970459 0.09008669104305267
463 0.14185160877899394 0.7590908065736357
464 0.1886628108361018 0.5979523253612989
465 0.6743997495421609 0.9731852655221224
466 0.1579777322485152 0.948345620852616
467 0.4735649654554428 0.9660689415978843
468 0.47133175805086036 0.7401492788153414
469 0.6527604500561205 0.32339000989043554
470 0.618091357326286 0.9769302273106822
471 0.8565468887638391 0.07751001148493297
472 0.7811007956686579 0.4010796584946743
473 0.3475730474795027 0.18526669180712074
474 0.5722508665743505 0.010987658432488057
475 0.30125535913150014 0.11277773727012463
476 0.8008332280821128 0.6300932428206898
477 0.3636127504244787 0.060671809736706384
478 0.9612114350456447 0.5682340164602553
479 0.136407868552321 0.8355351283075035
480 0.9892760768012132 0.15747445020591666
481 0.6261119349666164 0.22703764816461136
482 0.7021707576631118 0.8070810166582426
483 0.39468000173310236 0.8825772182161403
484 0.3524270521952241 0.2503857652954323
485 0.3698354354260339 0.038221037778995215
486 0.015487544747305071 0.9924651910565799
487 0.7151971716418818 0.9694742519619566
488 0.029966442872411236 0.8198153466063745
489 0.4364609106044969 0.9565745525596961
490 0.2783853924830231 0.4131608114408136
491 0.8409938989116298 0.41525024309188574
492 0.13763688135744412 0.9097833255706043
493 0.191438856200431 0.2741106128304145
494 0.5928311958668072 0.19911142552145888
495 0.9255149540958225 0.6939454185385194
496 0.754964116201538 0.020823422263487323
497 0.07894117797469336 0.8529374013859284
498 0.3931207659036964 0.4542944969066215
499 0.09112254167446099 0.7878257961937524
500 0.27081593135231097 0.11004353000300526
501 0.05380447885662487 0.6014720015794465
DEMAND_SECTION
1 0
2 6
3 6
4 1
5 4
6 6
7 5
8 4
9 8
10 9
11 2
12 9
13 3
14 8
15 9
16 2
17 7
18 7
19 2
20 2
21 2
22 4
23 5
24 5
25 4
26 2
27 5
28 2
29 1
30 1
31 1
32 7
33 1
34 1
35 3
36 9
37 2
38 1
39 3
40 2
41 5
42 8
43 8
44 7
45 1
46 6
47 9
48 9
49 6
50 7
51 8
52 2
53 1
54 5
55 5
56 4
57 1
58 7
59 3
60 4
61 1
62 1
63 1
64 5
65 6
66 3
67 6
68 3
69 6
70 8
71 6
72 2
73 8
74 1
75 6
76 4
77 9
78 5
79 2
80 2
81 3
82 2
83 7
84 2
85 2
86 3
87 6
88 2
89 1
90 5
91 7
92 5
93 9
94 4
95 4
96 6
97 6
98 9
99 9
100 3
101 3
102 5
103 4
104 2
105 7
106 4
107 1
108 3
109 4
110 4
111 7
112 4
113 9
114 9
115 9
116 3
117 9
118 3
119 4
120 4
121 7
122 8
123 6
124 9
125 9
126 6
127 7
128 9
129 2
130 3
131 4
132 6
133 1
134 1
135 1
136 6
137 9
138 6
139 3
140 4
141 6
142 3
143 7
144 2
145 5
146 7
147 1
148 5
149 7
150 5
151 7
152 9
153 5
154 3
155 8
156 2
157 7
158 4
159 2
160 4
161 2
162 7
163 1
164 1
165 5
166 3
167 8
168 6
169 7
170 7
171 5
172 1
173 1
174 3
175 8
176 2
177 7
178 8
179 6
180 9
181 2
182 6
183 5
184 5
185 2
186 2
187 4
188 1
189 8
190 1
191 3
192 8
193 7
194 2
195 9
196 8
197 7
198 3
199 9
200 5
201 5
202 8
203 7
204 9
205 5
206 5
207 1
208 4
209 9
210 4
211 9
212 8
213 3
214 5
215 4
216 3
217 5
218 4
219 9
220 3
221 8
222 8
223 7
224 9
225 8
226 1
227 1
228 8
229 4
230 1
231 3
232 2
233 1
234 2
235 7
236 7
237 7
238 7
239 5
240 9
241 9
242 8
243 5
244 4
245 2
246 4
247 6
248 7
249 6
250 3
251 4
252 5
253 9
254 5
255 6
256 8
257 8
258 7
259 9
260 5
261 2
262 4
263 9
264 3
265 2
266 1
267 4
268 3
269 2
270 7
271 9
272 4
273 5
274 1
275 5
276 8
277 3
278 7
279 7
280 1
281 7
282 5
283 7
284 8
285 7
286 7
287 3
288 2
289 7
290 9
291 1
292 8
293 7
294 7
295 2
296 2
297 2
298 8
299 8
300 3
301 5
302 8
303 4
304 7
305 3
306 5
307 4
308 9
309 2
310 3
311 4
312 8
313 4
314 4
315 4
316 6
317 8
318 1
319 2
320 6
321 4
322 5
323 8
324 4
325 5
326 3
327 7
328 2
329 9
330 4
331 2
332 8
333 6
334 4
335 5
336 6
337 1
338 3
339 8
340 3
341 2
342 3
343 6
344 8
345 8
346 6
347 7
348 7
349 8
350 3
351 9
352 6
353 4
354 6
355 6
356 4
357 5
358 5
359 9
360 1
361 3
362 6
363 1
364 9
365 7
366 6
367 1
368 2
369 2
370 4
371 2
372 5
373 8
374 2
375 5
376 1
377 2
378 3
379 4
380 4
381 2
382 6
383 1
384 4
385 8
386 2
387 2
388 7
389 6
390 2
391 1
392 4
393 7
394 4
395 3
396 1
397 5
398 2
399 1
400 7
401 4
402 5
403 8
404 3
405 8
406 8
407 2
408 5
409 9
410 9
411 1
412 5
413 5
414 4
415 6
416 9
417 3
418 9
419 6
420 2
421 1
422 3
423 7
424 9
425 3
426 9
427 7
428 8
429 5
430 3
431 6
432 5
433 7
434 1
435 8
436 8
437 4
438 3
439 2
440 6
441 8
442 2
443 6
444 1
445 8
446 8
447 4
448 5
449 3
450 9
451 2
452 7
453 6
454 1
455 4
456 8
457 1
458 1
459 7
460 1
461 7
462 3
463 2
464 5
465 4
466 1
467 2
468 1
469 8
470 1
471 3
472 5
473 3
474 5
475 4
476 4
477 1
478 9
479 6
480 7
481 4
482 4
483 2
484 5
485 5
486 6
487 4
488 6
489 7
490 2
491 5
492 2
493 2
494 8
495 7
496 5
497 7
498 3
499 5
500 7
501 8
DEPOT_SECTION
1
-1
EOF
