NAME : gen500_003
COMMENT : uniform customers, demands 1..9, generated by bench/make_tuning_set.py
TYPE : CVRP
DIMENSION : 501
EDGE_WEIGHT_TYPE : EUC_2D
CAPACITY : 100
NODE_COORD_SECTION
1 0.9008328822932131 0.7166831012063208
2 0.8775825271854778 0.44482108413337496
3 0.41891883665837715 0.18347694308522167
4 0.2957923595479852 0.36495393053910397
5 0.8399613844394238 0.9186295741589525
6 0.8760938132269468 0.8902234660557334
7 0.5000278436294303 0.9510836638297345
8 0.5017288008067143 0.5950674606810633
9 0.3632800710418276 0.9532297636566569
10 0.1263685122106727 0.9632371634867632
11 0.04442517774452226 0.8563614817008033
12 0.954415344872407 0.8481404163640132
13 0.5494550197827092 0.21804838830478546
14 0.22013537067995448 0.921962666244984
15 0.2206838426097728 0.18471600406256783
16 0.9185896032094039 0.9079246463727018
17 0.9198414157545676 0.36497789948019754
18 0.8776087555674684 0.2263732291390015
19 0.6578639383557131 0.009926832932424245
20 0.5935710451665327 0.9927738601020123
21 0.0827571713978491 0.49037308997044404
22 0.8952551384225219 0.4101225547376114
23 0.5966160167575394 0.5658753010472581
24 0.0074227258336162505 0.7037695862134505
25 0.6110596322327492 0.24331215830101005
26 0.2265662060134468 0.6382962241449233
27 0.4194477770788526 0.19547219603585586
28 0.9434617178384052 0.9873606940771236
29 0.0005481760145632508 0.4071476652151582
30 0.5416566941757505 0.6967471436096542
31 0.944621686335453 0.9693005888562158
32 0.7345669337948503 0.15772139246389882
33 0.16054761039525955 0.676914077563489
34 0.10765976421534118 0.09056824509512473
35 0.5348756521841006 0.21170645840363567
36 0.4794577669616319 0.7546069007159155
37 0.5703075696657565 0.5311915307446105
38 0.34834070250759086 0.1029359560312143
39 0.5362791160500204 0.675880248029842
40 0.002329103643255226 0.7422157736469553
41 0.14433899567723207 0.4950586125799692
42 0.1386159825328882 0.12549804538085896
43 0.1495633627166858 0.8776067195253353
44 0.6997325637895354 0.2804137507793959
45 0.9297448230799285 0.2709453118158345
46 0.5362153477876589 0.37789401814490464
47 0.8841220337766685 0.4124385183026539
48 0.10692445855962596 0.8156697333753888
49 0.3009650404906684 0.31899475779474906
50 0.5936936642113128 0.718263002657156
51 0.9249999886156253 0.28126689612050715
52 0.7063155267652281 0.6738315528554818
53 0.6565452264036259 0.3701209937102822
54 0.11228319944044396 0.05621142273151891
55 0.46905695657132407 0.9728485818598395
56 0.734195545078392 0.585627198906181
57 0.10450397317169713 0.2977801538318652
58 0.4847320647753801 0.018353516636334777
59 0.1793378115822729 0.10051959791729936
60 0.4962819307966926 0.8963598269923253
61 0.833182210073206 0.6871511326474551
62 0.6417497524748478 0.30890510847806085
63 0.9447414629813676 0.7220377440232608
64 0.7083761580847661 0.46334738781751983
65 0.05984384524638331 0.8957161720322011
66 0.4981360004774201 0.4138143644344535
67 0.2933527351153309 0.18476390223582706
68 0.39866665941616997 0.14173847273228357
69 0.6939098445196621 0.028719933936207864
70 0.7807665339208444 0.9498883642703669
71 0.25185433848432315 0.6450021463960924
72 0.3551269112970298 0.24421511674623075
73 0.9581297975550663 0.04182970875531655
74 0.7066333585958395 0.3777653201322757
75 0.7200142129667726 0.7636435236736404
76 0.521003768683393 0.2355025297685156
77 0.9130840050574438 0.45602753258560713
78 0.3238399384209566 0.8006686503802509
79 0.3119221308826172 0.6136471667117581
80 0.9853583877998621 0.7664130005829346
81 0.389608073353937 0.6875219299051829
82 0.3898489836152239 0.04865912038689335
83 0.44898420289120633 0.31328670049933716
84 0.3712581919663035 0.2722775264058388
85 0.733336429432808 0.37795139872426475
86 0.7375097480533838 0.5132265979351863
87 0.5823417283731116 0.33558751686039634
88 0.22614391428698677 0.881111193766654
89 0.35258267998624704 0.5812709460080849
90 0.2788549431014218 0.13588671543185105
91 0.6932915353085616 0.5919034430813761
92 0.9046835136960643 0.48745540925298947
93 0.7019948767920541 0.04622824339466736
94 0.17100519794555868 0.030854908229502986
95 0.9196388087603308 0.08768468794275941
96 0.18694837340524695 0.7474605186033232
97 0.08326074718658372 0.23455123974143743
98 0.9177431718328366 0.11089411897462831
99 0.8557894351826868 0.7180264082904393
100 0.3173700481029793 0.32521377183875044
101 0.5900386959380516 0.673115309553019
102 0.7925692932643424 0.4091558195709486
103 0.9245978691564217 0.016857835023918577
104 0.18838255779475388 0.7421716109285016
105 0.6194728014012933 0.418989032097976
106 0.782266508092128 0.2954117109033987
107 0.948016508819779 0.08420223555458595
108 0.885650344893842 0.43113819311690793
109 0.6602487761774295 0.6921176977575118
110 0.8842664940959293 0.766681833188136
111 0.3627128218998349 0.9244677815988769
112 0.2687207813724105 0.054137934770403184
113 0.4074587620951957 0.6501783271999224
114 0.7190900014830071 0.7921652338222729
115 0.26629107548700626 0.37453384421920377
116 0.7680420942716717 0.4000561559356547
117 0.35335607869416286 0.7582377191123774
118 0.4705552476285817 0.3490862759490294
119 0.19569942886151515 0.6132926588312554
120 0.9278068865628903 0.7355836351033929
121 0.2407676886877479 0.07813674054594111
122 0.3040913389306146 0.5131151748331664
123 0.3836358807145752 0.5161908238531082
124 0.870276582453108 0.33074610959744466
125 0.44355554513298545 0.35115873314658463
126 0.6767137131964414 0.8657180802610787
127 0.18453472166125529 0.7277396867603446
128 0.21270314264028045 0.45591096683670795
129 0.13274059532152316 0.09518600910793384
130 0.26447823382694413 0.5727603984210241
131 0.9316346224519165 0.8806691518801638
132 0.9407521215618432 0.389807820674964
133 0.6691429242768122 0.7400212299523383
134 0.17803514527470687 0.5914326693399488
135 0.6029437654371594 0.8313793080728511
136 0.07502229809915939 0.6052513187106946
137 0.09006660729913052 0.6423260219549672
138 0.7812939111989265 0.8746705471770309
139 0.38531132755439734 0.9964289695143534
140 0.4108026445319376 0.0049976668955886705
141 0.19659682839047166 0.3600212066069467
142 0.24578613317026565 0.9908693021463469
143 0.387581807484368 0.5829526973081806
144 0.3040945779131051 0.8034259041209282
145 0.96525695108614 0.5305679606702096
146 0.8040255635409955 0.8290805908355996
147 0.8043500318644106 0.40708199315802585
148 0.9165754606943649 0.5530048834229269
149 0.6069137233976378 0.3801044066913045
150 0.7582361421855501 0.3558273173686941
151 0.7259315974477728 0.5179906195550051
152 0.25733538396599753 0.9136652062831221
153 0.7719246567437491 0.17069165670539688
154 0.6262247140143826 0.5077144894749398
155 0.050697203544034175 0.4406680516597583
156 0.9629635564474739 0.4477757176011946
157 0.3277431641894347 0.8580081098520047
158 0.8934737355439453 0.5034843345881637
159 0.6079840323124184 0.18579142438062102
160 0.34821718923808875 0.10305352782306432
161 0.9008836909633757 0.2523195385400028
162 0.3479681528151335 0.4065789406840542
163 0.3121247418145894 0.7507913310898021
164 0.8322935852603486 0.12089884752643132
165 0.47334406890074965 0.17990432591294314
166 0.9598036022951423 0.7583565347500701
167 0.4870140070724114 0.7186931390249
168 0.6097362281062002 0.09926886933285117
169 0.6878182998072 0.09129544741292961
170 0.5638168586916654 0.37572078264366104
171 0.45696418423421903 0.0406492413599715
172 0.7895170808020816 0.0624537821522535
173 0.757255318495011 0.4350516054846798
174 0.10640858340194048 0.9955130222198492
175 0.9687870460923901 0.4039927135737855
176 0.5715590832681892 0.3336958676590768
177 0.5989265220698563 0.9628372667672629
178 0.4138750930637932 0.987668188754322
179 0.22450065105208594 0.16779300110611228
180 0.29631078782836306 0.7024110377897729
181 0.39585551587913415 0.6252329300320753
182 0.5751006892612637 0.24867982221662088
183 0.8062430676832968 0.24458002621203034
184 0.09208186570760091 0.362184865244081
185 0.7740136759881786 0.41287509587566285
186 0.28922638269452994 0.8273983387461972
187 0.09534802765063932 0.5641266998414396
188 0.1941767777748099 0.9572529466321663
189 0.25772306658891264 0.04167809265311084
190 0.0036356087529111347 0.14668316020914007
191 0.7717012281519511 0.13488519828934542
192 0.08418932063446449 0.8761533243784961
193 0.8019764885021116 0.6862739428590582
194 0.011350217980471755 0.05839070265682045
195 0.6167092107429917 0.7156577694467895
196 0.46142705849482435 0.3925459449358799
197 0.8308793574669802 0.696469720597738
198 0.5255834069610511 0.8347616179996536
199 0.8868232504790682 0.9825436388126798
200 0.3597979379793048 0.9627900043550489
201 0.005509304269418092 0.26024062190698716
202 0.15720582841448705 0.23588952810867925
203 0.7851386457470182 0.1274935162307308
204 0.8863628400659993 0.33901820524545934
205 0.1315775081183802 0.8224845294217781
206 0.22279335537345246 0.0023681188951971688
207 0.6623340434408514 0.8248530259867195
208 0.6225210412167994 0.10648746567556044
209 0.5836326872419253 0.474815534975946
210 0.041247904595661744 0.5042768780374619
211 0.8397065131824419 0.021844744072117006
212 0.24851856911071668 0.9632742401870881
213 0.34679176860918937 0.8394497498901013
214 0.6108556994490182 0.24620044868159996
215 0.3640849166520572 0.1477790550598388
216 0.5399515862775075 0.4273245754827748
217 0.5175850790455758 0.4350336163322853
218 0.17275821621643161 0.2090196962437897
219 0.7838476179007532 0.7934919611620511
220 0.47456870650534755 0.3060182912880067
221 0.36004107222366866 0.8396086791551806
222 0.5813012143591336 0.01164917396693399
223 0.1224945132649009 0.703069253474829
224 0.6243143192989635 0.45399930682204936
225 0.46531584508943624 0.4094613815714475
226 0.7397538964850071 0.7134612289618404
227 0.7784220336872768 0.9404045147005923
228 0.39175755734334006 0.5754536519887804
229 0.8020701065683781 0.8769957559020579
230 0.424160658053537 0.6150226330784284
231 0.7682340086494133 0.17014950306154764
232 0.13779120978940373 0.8649142951420826
233 0.38202587370221275 0.8289205249932814
234 0.0748584330836245 0.743773690858968
235 0.9602441690898644 0.9372385796198663
236 0.6865496494172821 0.8722351406340394
237 0.2613219191323882 0.5086766031885294
238 0.30182796866342565 0.38505958132503304
239 0.3533125976967155 0.8661012095978763
240 0.5394333510095921 0.3831365119164596
241 0.02663522367689186 0.275740397871861
242 0.7585844504830722 0.3483799298467686
243 0.1544291331987715 0.8591536077707388
244 0.5674687980369981 0.4153680093488735
245 0.30743411370530016 0.43491640905906737
246 0.03755175032710567 0.38591665260235875
247 0.8262236593542968 0.42353589473255504
248 0.35595160037439333 0.9516234977106635
249 0.8337394520622012 0.8226678764053884
250 0.07882921581168034 0.9613021597490693
251 0.684153874343259 0.8038230261527358
252 0.5567160249264919 0.22181217136960096
253 0.4471460700725378 0.7960723932219221
254 0.11496256692456419 0.13521688597443626
255 0.7953493710283732 0.6120037510521424
256 0.7407887631239005 0.45984770571436884
257 0.2257199447043351 0.8237088139500214
258 0.016142203028405966 0.18403451322252995
259 0.5556791722169299 0.09310079794357529
260 0.6980733680870671 0.8972874523866636
261 0.552919915701678 0.16971446513579325
262 0.7529081634400924 0.9079472145501327
263 0.9563929452285578 0.3445694161770486
264 0.9367953607325264 0.38652454702575323
265 0.26071604888154687 0.9605491349345971
266 0.4675797672998807 0.22435335772026654
267 0.33389668700030606 0.5200039896448603
268 0.18124663871707136 0.9438045188738136
269 0.8605614856719337 0.3393876090361335
270 0.9389503186836872 0.6609140371264481
271 0.5085502406576191 0.7522071411800925
272 0.6259235481779901 0.06253877512150419
273 0.8826716480727399 0.3395255943215342
274 0.7550358479430203 0.8530591686873926
275 0.3437090512168971 0.7109464632534521
276 0.3126728067853648 0.422122097203119
277 0.09157141032840244 0.8760422352160374
278 0.9271064725044944 0.6214636724649865
279 0.44382309869235104 0.8180287620926041
280 0.06650462386940681 0.062010584535789226
281 0.22415181693383868 0.6930495135629896
282 0.6548985458762235 0.7727023354118466
283 0.6312835098488369 0.2455136042325079
284 0.9300951709760029 0.34370482885533704
285 0.5955745434817592 0.745404114105715
286 0.8436638952221096 0.7485314993311568
287 0.0478692592785821 0.2364560968112488
288 0.5218163515179495 0.5567674550102586
289 0.6930096691178922 0.22609718562640935
290 0.9270655525480385 0.8327692188525474
291 0.020481213852269975 0.614205896381698
292 0.9293259309078691 0.007023914569116219
293 0.3862343869658147 0.52606110056311
294 0.8237025630816219 0.44013112365774776
295 0.24283723421243797 0.7525983927380976
296 0.5299676854287474 0.06486319894191961
297 0.38625761401113257 0.6587885055509322
298 0.7709585466551109 0.7196591416008177
299 0.210533005574692 0.42637612269794056
300 0.4035857381481017 0.21535591071367632
301 0.5260178049691728 0.5141325685325127
302 0.6342528684579253 0.6323542630266649
303 0.8183432604163842 0.9635492000690112
304 0.8067274022741735 0.1753460348504028
305 0.18378428480437614 0.6398401728271904
306 0.9732648896269068 0.5108458852031373
307 0.8939320490523226 0.017849179577808405
308 0.5790221869091294 0.2716555623023642
309 0.19470324607200507 0.021265250745659214
310 0.14896625715646206 0.49532096423192806
311 0.42672666542907756 0.6782189801414195
312 0.613208436535786 0.5604140239657398
313 0.9907672780588346 0.8698874267087255
314 0.08908158472902827 0.3261464243117077
315 0.18065319026551208 0.39867703910451013
316 0.6447697225325636 0.973797446345137
317 0.3984539879392168 0.9192369067913337
318 0.386768325474828 0.43142318642582933
319 0.8367515789120622 0.04857258178279167
320 0.3407644905692405 0.9888562408919058
321 0.41019017351795195 0.26582562411701804
322 0.7106582823682023 0.9926974440970485
323 0.21194511189347287 0.6817848660193921
324 0.8191190623751483 0.43790041606876073
325 0.6588600138950143 0.6966338035710362
326 0.5524765312033219 0.07261807261462883
327 0.7345680502288096 0.7962903030254859
328 0.3278891046500151 0.5441797882238847
329 0.10678720546927278 0.47719427281309457
330 0.13723034539926693 0.9100425422501353
331 0.7785358297978707 0.7704247224930726
332 0.8423225874650562 0.8751397157344335
333 0.4678869413553507 0.5287080603008792
334 0.24492588259319947 0.05932780871625054
335 0.7524955891026878 0.7739276590100864
336 0.7672334985696841 0.8464875533081484
337 0.18337225502221888 0.6302684241195028
338 0.5755518721509997 0.6026147781550695
339 0.7553117827145976 0.8093936258711238
340 0.7723983807916581 0.4764547238558162
341 0.30804656836417554 0.7227585048048304
342 0.23135588867939139 0.9382607054458993
343 0.6131775691634815 0.7462194681270129
344 0.8649506469821057 0.4092411445956907
345 0.8683146040656554 0.32995666715298755
346 0.9116452884744907 0.20375531958445292
347 0.2586184227008016 0.0937823420290902
348 0.10533404152921055 0.13009114807069144
349 0.44279020837756045 0.8757759149596492
350 0.061293436767185794 0.737462129139508
351 0.6670842330310663 0.46868329315860124
352 0.6026480403196005 0.8673892865048533
353 0.9804076551074823 0.8791986267845777
354 0.4418979471242166 0.31810176439046267
355 0.978929663264284 0.48707333891801785
356 0.08848580738576461 0.41044939664517455
357 0.12242048749774115 0.08084227225206897
358 0.28963442510097626 0.05319579123056739
359 0.5636293977283032 0.3621267249490978
360 0.10997862259771951 0.9614673323321005
361 0.9710322803939951 0.44503172891840637
362 0.4327787812966709 0.07480305541088983
363 0.4601592426837543 0.036946314734551344
364 0.9859237483178952 0.911056059780815
365 0.33999427277217564 0.5359415871496783
366 0.5844126879478537 0.5026933348301592
367 0.3327785453701434 0.09716841440867241
368 0.05514462862071512 0.08575879208119608
369 0.18155251271064143 0.1895663473991035
370 0.8042338207461187 0.3039406488646337
371 0.06966560839954283 0.882853536454375
372 0.7675285234631696 0.16120033059365713
373 0.12884461530765734 0.8330833588057397
374 0.9648851019527962 0.29792971307541727
375 0.9954461444810218 0.6799342802965029
376 0.08152219624406876 0.560869630115615
377 0.5922697177832663 0.5252856149502901
378 0.8179909783488024 0.7277697176104183
379 0.014386792078505795 0.5991717218938922
380 0.29675954263693183 0.035794082720269516
381 0.42347691579369495 0.8270797968286219
382 0.6205201069907129 0.4547004506018607
383 0.40901318612782833 0.05104775689468277
384 0.6701758225619983 0.6800527010247531
385 0.6908596843556187 0.4668719561758541
386 0.9529738165973807 0.507182974344324
387 0.5836803274655112 0.07118177048925345
388 0.054591127121961014 0.7429493671714624
389 0.028556773352287013 0.25561115549676694
390 0.9219534601969546 0.08447934898174203
391 0.17737514139711708 0.1451910746233288
392 0.7786031276410164 0.5965172870317632
393 0.10593659372063269 0.6428535516296379
394 0.3348476660724867 0.3127865217310559
395 0.299299566799907 0.9915389772036257
396 0.08006586471876842 0.9240556092541667
397 0.6630376315782343 0.825924184271941
398 0.7212337173126909 0.19191316801381786
399 0.7761882596497159 0.9179525677511725
400 0.8843846331234223 0.2225676583229812
401 0.9639438224204229 0.9478606630970379
402 0.4061796883414416 0.16673616187849039
403 0.20171443617382778 0.22557319109801377
404 0.14954514236984773 0.21048606518531154
405 0.12786400623052008 0.133183283270771
406 0.7517543943774402 0.998818127581954
407 0.6069363260264324 0.6084411054907133
408 0.06466773128776138 0.5933059929921983
409 0.2675684585864053 0.2713900353775647
410 0.5524187700313115 0.706753828771302
411 0.45200641721638324 0.2595382659765445
412 0.7634910318471548 0.9486671773481848
413 0.8045041108957337 0.8302893129152842
414 0.2443405343059898 0.5913364757339473
415 0.726883232526032 0.6562285036780854
416 0.674800404047219 0.7650347016906865
417 0.44227346664031497 0.8703691219125317
418 0.4693940212279979 0.9243807114451297
419 0.919065312177051 0.5095699310126103
420 0.8367182352758913 0.2899727240492248
421 0.17993091431333608 0.2953961933877247
422 0.7113910170635055 0.8449444970517425
423 0.7133773697044586 0.7858769308881753
424 0.0698398394416001 0.06661581274806438
425 0.14334264805619834 0.3635200529227569
426 0.06285565156027284 0.5296268238980564
427 0.3452915608590238 0.4906997450098942
428 0.9810295948881463 0.8592868648949057
429 0.252275753366314 0.6523347872359844
430 0.43248556579323283 0.2598487744984791
431 0.8044089198544501 0.6111084233476952
432 0.813866606133652 0.3298182889190061
433 0.788400042373223 0.9075480614219062
434 0.49886842646308505 0.9348179408704441
435 0.7218016705904925 0.2866023348892873
436 0.7329383961388943 0.15386372827220918
437 0.542347169399209 0.7259340912932454
438 0.36092989430358 0.6439965724003136
439 0.5458806421272941 0.3150055205348694
440 0.11040071427268783 0.7479753945942407
441 0.3498782147397339 0.3584392995631792
442 0.064012174742751 0.30804361905730304
443 0.409314694545718 0.534057418289835
444 0.5451037515797683 0.12927745013026604
445 0.006578884881381919 0.6381091254196117
446 0.9717712776364712 0.8485234936538851
447 0.3303436912015735 0.2746811625048369
448 0.6383274487763484 0.9912969396538454
449 0.8205454028483427 0.9607383597161053
450 0.1437571652757973 0.8863299487235213
451 0.6856923143865128 0.8571791272731633
452 0.6917669332056993 0.5430700882123702
453 0.4214942783875165 0.6400958960819166
454 0.368439355879956 0.7621504290934469
455 0.6753962924814877 0.8722380138674674
456 0.8258856833977027 0.20352468473451069
457 0.16720440231756828 0.5062668850914234
458 0.08821517844620341 0.23072089271655638
459 0.5468663153477844 0.47345637597216195
460 0.5814370308160234 0.8572329060106416
461 0.5638606975539359 0.10220145671541847
462 0.8176774063425755 0.8978270509227921
463 0.9468788175506617 0.31693037518422085
464 0.46759987128463554 0.25778582934158134
465 0.2795995466917165 0.9155328445306631
466 0.33566962097881026 0.9027451788988683
467 0.6916692294192367 0.13037449376048338
468 0.008138944755762378 0.22549661168264312
469 0.28329272292504215 0.27410327829929626
470 0.08209450600272317 0.41307247882888176
471 0.7131348900795771 0.010288664624687693
472 0.27316619713227597 0.1133660045609397
473 0.4921315985183238 0.7853699546173217
474 0.988546344250044 0.337914610824971
475 0.6056506221455525 0.00033207059911333214
476 0.9428506598472712 0.47056644814276094
477 0.4110198710701175 0.40824798877598234
478 0.11870031551664273 0.22228569809095233
479 0.329743683444765 0.7792002550743251
480 0.005252221285805603 0.35815881065006105
481 0.08936497183989378 0.5697587435175737
482 0.529612119215039 0.3800567219736053
483 0.3808073374868235 0.7419222370296404
484 0.3971320138239406 0.5486453557584933
485 0.34428434316793066 0.26403907706427476
486 0.14965436072440697 0.412140625411765
487 0.8437046811237616 0.3764976141671472
488 0.886191105699033 0.7031235565066026
489 0.101355040877247 0.3358235124367863
490 0.0912285909745405 0.7172302996001493
491 0.03009824069310485 0.47944445734472174
492 0.6976323310511793 0.26358866528293046
493 0.6913891948782647 0.16271037687637202
494 0.7560810058414223 0.21815109578081304
495 0.08763211681387795 0.10311568185320819
496 0.250698149310416 0.13022257883570187
497 0.2096259639899799 0.5447165609318397
498 0.9670035108915238 0.7843047700259391
499 0.10196587148528169 0.24461164391910728
500 0.30002521153809913 0.7015058030639953
501 0.10655071402614968 0.36533701975162036
DEMAND_SECTION
1 0
2 8
3 8
4 2
5 5
6 6
7 8
8 9
9 3
10 9
11 2
12 9
13 7
14 1
15 2
16 7
17 9
18 1
19 9
20 5
21 1
22 7
23 6
24 5
25 5
26 3
27 2
28 8
29 7
30 4
31 8
32 8
33 9
34 8
35 3
36 2
37 5
38 9
39 7
40 5
41 4
42 2
43 2
44 5
45 2
46 6
47 9
48 9
49 8
50 3
51 1
52 2
53 6
54 9
55 2
56 9
57 2
58 6
59 4
60 5
61 6
62 5
63 6
64 3
65 2
66 4
67 7
68 7
69 6
70 7
71 8
72 4
73 9
74 9
75 6
76 5
77 2
78 1
79 5
80 4
81 7
82 9
83 4
84 6
85 8
86 8
87 1
88 2
89 1
90 9
91 8
92 7
93 8
94 1
95 4
96 5
97 8
98 4
99 1
100 1
101 1
102 7
103 9
104 2
105 1
106 8
107 8
108 1
109 5
110 6
111 5
112 9
113 4
114 1
115 9
116 9
117 8
118 4
119 5
120 2
121 9
122 1
123 2
124 4
125 4
126 9
127 9
128 4
129 3
130 2
131 8
132 2
133 1
134 4
135 1
136 2
137 7
138 8
139 6
140 1
141 9
142 5
143 7
144 2
145 2
146 5
147 1
148 8
149 5
150 7
151 9
152 7
153 2
154 4
155 6
156 3
157 4
158 1
159 8
160 2
161 6
162 4
163 6
164 6
165 1
166 3
167 9
168 2
169 4
170 4
171 6
172 1
173 8
174 3
175 1
176 9
177 5
178 6
179 9
180 3
181 2
182 9
183 5
184 1
185 6
186 8
187 5
188 9
189 7
190 7
191 7
192 4
193 8
194 2
195 6
196 7
197 6
198 4
199 6
200 9
201 2
202 6
203 1
204 6
205 5
206 9
207 5
208 4
209 7
210 9
211 1
212 7
213 7
214 3
215 2
216 3
217 6
218 9
219 7
220 4
221 5
222 7
223 3
224 4
225 6
226 1
227 2
228 7
229 5
230 2
231 9
232 5
233 2
234 4
235 2
236 7
237 6
238 9
239 3
240 3
241 7
242 6
243 5
244 4
245 2
246 2
247 3
248 4
249 3
250 2
251 5
252 5
253 7
254 7
255 8
256 9
257 2
258 9
259 2
260 7
261 4
262 6
263 3
264 5
265 3
266 5
267 8
268 8
269 1
270 7
271 7
272 9
273 6
274 9
275 7
276 6
277 1
278 3
279 5
280 1
281 5
282 1
283 9
284 3
285 1
286 9
287 9
288 6
289 5
290 4
291 8
292 9
293 7
294 2
295 6
296 8
297 9
298 1
299 5
300 3
301 7
302 3
303 2
304 7
305 3
306 9
307 2
308 9
309 9
310 6
311 9
312 6
313 8
314 3
315 3
316 5
317 7
318 7
319 1
320 9
321 6
322 6
323 6
324 6
325 6
326 5
327 7
328 5
329 3
330 3
331 4
332 8
333 1
334 7
335 6
336 5
337 4
338 9
339 7
340 4
341 3
342 7
343 6
344 1
345 7
346 9
347 9
348 2
349 8
350 4
351 7
352 1
353 9
354 5
355 8
356 1
357 6
358 2
359 6
360 5
361 1
362 8
363 2
364 5
365 5
366 2
367 6
368 4
369 1
370 5
371 9
372 7
373 7
374 7
375 2
376 8
377 4
378 9
379 3
380 3
381 4
382 2
383 9
384 8
385 1
386 4
387 9
388 3
389 4
390 4
391 6
392 3
393 1
394 1
395 9
396 1
397 4
398 8
399 3
400 7
401 6
402 5
403 4
404 2
405 3
406 9
407 8
408 9
409 9
410 7
411 1
412 9
413 6
414 7
415 6
416 3
417 2
418 5
419 5
420 9
421 7
422 2
423 5
424 3
425 2
426 8
427 9
428 9
429 1
430 8
431 4
432 9
433 2
434 9
435 4
436 8
437 2
438 5
439 9
440 2
441 3
442 5
443 1
444 3
445 4
446 7
447 8
448 8
449 2
450 2
451 5
452 6
453 7
454 8
455 6
456 7
457 8
458 3
459 9
460 9
461 1
462 4
463 7
464 9
465 4
466 9
467 9
468 3
469 8
470 9
471 1
472 1
473 3
474 8
475 9
476 6
477 4
478 7
479 6
480 1
481 5
482 8
483 2
484 1
485 2
486 2
487 1
488 3
489 3
490 1
491 3
492 7
493 9
494 7
495 9
496 5
497 3
498 4
499 1
500 2
501 2
DEPOT_SECTION
1
-1
EOF
