NAME : gen500_000
COMMENT : uniform customers, demands 1..9, generated by bench/make_tuning_set.py
TYPE : CVRP
DIMENSION : 501
EDGE_WEIGHT_TYPE : EUC_2D
CAPACITY : 100
NODE_COORD_SECTION
1 0.5649814601026543 0.6280111041454395
2 0.5122886624547102 0.23237107822348735
3 0.9353033783059135 0.03006068369315451
4 0.0019887131797811097 0.25495157589959894
5 0.3990023036616781 0.002954393418505008
6 0.9151022276020502 0.6695232881220883
7 0.482077173549159 0.6556806296852498
8 0.6841670759727825 0.032045383348591305
9 0.15822035344372365 0.9072316977385487
10 0.8059485279022094 0.5358301110549809
11 0.07364580139112353 0.7526318592484145
12 0.06364135017610839 0.20250804075626405
13 0.08455246810985428 0.40648226774657104
14 0.48962065003508914 0.9240121968229947
15 0.4143157370547126 0.9095128049373659
16 0.8351214125252624 0.6014972286231242
17 0.046513690980786726 0.2752821575521627
18 0.939281752890495 0.4300551314099357
19 0.39349441464676993 0.09113795674507152
20 0.052201462549736344 0.943750552107155
21 0.31914885231676327 0.7032880369998393
22 0.8639290684903492 0.9393349543312219
23 0.5881080808971815 0.8152882637402835
24 0.7747909971094877 0.829762240728678
25 0.850223041547419 0.6137192874021337
26 0.875848037330538 0.6019320871246119
27 0.5094969353877373 0.7939882758897628
28 0.8309845494583062 0.6443212351850521
29 0.7148115733563801 0.43224468185105025
30 0.09941492561237653 0.5359474043709618
31 0.5105933203887106 0.535964154206977
32 0.6969898319816885 0.07032427010903042
33 0.6205498390348121 0.8472381083338649
34 0.4599168521195417 0.22964924609838677
35 0.03307018182828536 0.9704150535243455
36 0.1010422792430643 0.37748300486946496
37 0.4906597674037124 0.5711624189966366
38 0.5683962133672871 0.303124099274826
39 0.7008391005198995 0.08777495258852863
40 0.8809982852389686 0.48098975890708073
41 0.4170398819106367 0.33461607899257284
42 0.9067330256712979 0.5478941975882153
43 0.01640099256098848 0.02205900310140818
44 0.0912429941573002 0.8862987236944044
45 0.04398066690648217 0.7655413708289082
46 0.048507991373084924 0.6627247671975112
47 0.7832957894788835 0.22199615972472075
48 0.4173901764269936 0.7987968439495312
49 0.6985675326511653 0.6569599444951009
50 0.795977855651171 0.13366593758080836
51 0.39230458665081347 0.08672145550555321
52 0.7500458189708678 0.861985926416963
53 0.9998950302806348 0.9817442095993756
54 0.9315876791859062 0.5845515561981125
55 0.928151759824037 0.3787675116239164
56 0.08358535688582236 0.46132275281019874
57 0.3404337913281663 0.8387941024578148
58 0.2977154912863872 0.966753297664448
59 0.9656328783805969 0.15803548661998645
60 0.3016310108621316 0.1917205316546602
61 0.2745419332298754 0.5262019049466085
62 0.79109038585755 0.395744667209754
63 0.4128354253862495 0.9735880407815889
64 0.6275602426851868 0.7937947923696097
65 0.4078025441238795 0.055686031520964296
66 0.47415158297704274 0.46433222053301915
67 0.44169591177584056 0.814296199706361
68 0.6040436380997659 0.574184198018939
69 0.6261823565131117 0.47418882288674025
70 0.6874532222877805 0.03803649327766889
71 0.23925257555552404 0.42710187702262026
72 0.8594465538226121 0.46465857664623256
73 0.3814382395259056 0.7732382130036457
74 0.9971140298926345 0.6209588819848244
75 0.014985161715490691 0.6962273415792994
76 0.13831805488483484 0.8146793858030109
77 0.5409238864407153 0.5189704548915988
78 0.6306717095162776 0.5640429624962868
79 0.23662598425441994 0.046540440859152876
80 0.9089557917501798 0.47195599860124193
81 0.19787002899791084 0.6891449809801001
82 0.128117839610718 0.6349923471404806
83 0.2784216749764411 0.004503691072743066
84 0.4688894158942256 0.6923860459973111
85 0.9833590799326105 0.9730270533410267
86 0.20375947724833365 0.027306485001181713
87 0.3635904735287625 0.14249969886424385
88 0.07450365184751129 0.9436354083718621
89 0.27050377005637394 0.7305035764833668
90 0.8269876554093932 0.5145169577802842
91 0.9935341203508906 0.879749157173256
92 0.3920170268691354 0.7877138765831515
93 0.3326310148737771 0.9418815475303208
94 0.885197935756213 0.2576435175938385
95 0.06900594881298494 0.9464130790128246
96 0.6366357869221032 0.45623439970732504
97 0.8154401934956058 0.05061188364888847
98 0.4924695885406546 0.4369069406898938
99 0.003887818485090011 0.7884740532547524
100 0.4294320490989516 0.7172187543342264
101 0.05843947784916348 0.7098710682806102
102 0.8988632521307983 0.8109267385390069
103 0.1909841322281386 0.2268274596291261
104 0.6778928291766225 0.6770523538164708
105 0.26129510137835654 0.4912852628015766
106 0.5682724460197652 0.18474863363460858
107 0.31055443138856764 0.6178743505704605
108 0.4398243112841712 0.5791409230550889
109 0.877651936135219 0.9891452337398229
110 0.4863626162497433 0.44543370562410045
111 0.7240866902403686 0.4448746624113705
112 0.39575447416163356 0.4317936202440089
113 0.40233014875649453 0.45190772665774637
114 0.33554344093970745 0.6249467338262757
115 0.030031528706912725 0.8314232473036375
116 0.8390663731717941 0.9878895521664125
117 0.5004058167449688 0.02689153994856519
118 0.07067152977413005 0.5828140074055531
119 0.28700799851983605 0.2349664130709327
120 0.5926944888853689 0.21873330853500283
121 0.46536694953494484 0.22825089222841477
122 0.4263815554658832 0.5782816868905349
123 0.41011328349627196 0.43379839118258345
124 0.724734400775926 0.6658438186881648
125 0.20715129651178543 0.47266461690597006
126 0.36600850981123834 0.6438138385654842
127 0.7202913557200108 0.06437528597311382
128 0.5116140350925172 0.2684102084431801
129 0.5208083338339591 0.472030424730719
130 0.9652881939842907 0.7716914270761522
131 0.3340111189753434 0.014816105621506703
132 0.8340654396907672 0.07178188190303014
133 0.5027742735589862 0.2630742788784094
134 0.20062712539293048 0.40285206721895406
135 0.2689517982367329 0.5163653267092829
136 0.05798329699297822 0.655747868686769
137 0.8747177238779585 0.22028672722616505
138 0.5147853155244937 0.9796144336273916
139 0.3309699251336973 0.8054062319453612
140 0.6640746163654944 0.5329182936059048
141 0.720635611341809 0.22563262168034226
142 0.16159920171190356 0.1173251422203101
143 0.5947249787102619 0.6555768606292716
144 0.8748415285290934 0.8960835188745776
145 0.3770913435059542 0.5847495548580931
146 0.3671221608662658 0.5818087545236384
147 0.5763424055325019 0.5117981134990516
148 0.39487087117804154 0.2708169024257038
149 0.4658512114247838 0.32303820944928685
150 0.9725573371877262 0.5960628255377785
151 0.08034964798792665 0.5910735064081093
152 0.37927297166353 0.5474126926699612
153 0.17943891701429127 0.825320149597903
154 0.7399204845898626 0.2713126680287481
155 0.122428043235555 0.4188810195891216
156 0.35495517431099943 0.5795108274615606
157 0.5976932753914682 0.03553331747310373
158 0.980692059924423 0.01730395993945899
159 0.1519162258186233 0.08049299106912688
160 0.5666881596065836 0.3864472652711495
161 0.15700330635903825 0.3856743742183494
162 0.23106376482582736 0.6199570796822086
163 0.5746549163231729 0.024981762661639872
164 0.05941595629742591 0.18095670317496548
165 0.1212559794269924 0.3788366697052843
166 0.9589647169709625 0.9409059907557888
167 0.7404576644617197 0.45369751193654273
168 0.3969726790629431 0.002427050102333239
169 0.3166214551164397 0.40304814875397244
170 0.6251801345845146 0.007921905048739242
171 0.6703372499313519 0.2730532863092797
172 0.4232466367508928 0.2549439587297814
173 0.018715715944000677 0.2545222203463734
174 0.9011399717040208 0.6822422105354976
175 0.7160653135661998 0.29356417219169617
176 0.8855685436528219 0.6047435289701519
177 0.5000596498532448 0.4030541951199579
178 0.740091732005558 0.5351892196942852
179 0.4531481976333188 0.010231959197990581
180 0.7185374848650561 0.0676368010553301
181 0.9179771196202947 0.9095893623727568
182 0.5940660737941851 0.3384649857480285
183 0.3953568524660601 0.5409473111602141
184 0.3023940000615184 0.6742333280369414
185 0.9601151106608894 0.6305465358744602
186 0.03482195703204871 0.5373490658889228
187 0.8527009169556641 0.28076069876466425
188 0.17122472387523668 0.728916193154781
189 0.3281628918419487 0.9897826438647421
190 0.05124555066516867 0.9785837393799326
191 0.8139564351708392 0.22295406507398496
192 0.6604514886577425 0.4462116830650824
193 0.925119753059161 0.5284635161669543
194 0.26030507967544403 0.9059759015500027
195 0.4830108260768068 0.4260587847814039
196 0.42988661923189697 0.10179122808805563
197 0.0026100504934569724 0.9218425044743411
198 0.6811030391883955 0.3894466738596638
199 0.5658007507208942 0.5650049710108915
200 0.5577157171067791 0.4247057034136761
201 0.04549735103243935 0.17258033776307125
202 0.07654115112655524 0.5079276814997156
203 0.8355751602801781 0.5164769774209942
204 0.6152211818437885 0.2553576476960294
205 0.6873917189373345 0.6511751101113099
206 0.0014131804225911981 0.43658565869577304
207 0.6124391639348941 0.8062123547185384
208 0.7561223406249306 0.8393039167966964
209 0.8251075977411315 0.059810612693946164
210 0.44001093386969814 0.20548357683562257
211 0.3390633519512982 0.5029451495123315
212 0.6035005827939762 0.5925182668064896
213 0.5802317863755376 0.8425936536969966
214 0.5046519598250849 0.6303299795251507
215 0.24631188432732898 0.1306944222523373
216 0.5130612795452263 0.3980719021931438
217 0.3848530158961946 0.42728085859333464
218 0.17189133824009817 0.31310499073547116
219 0.6084958419828355 0.056151082481719294
220 0.7601312507136144 0.41058699071165283
221 0.938000437383132 0.9619851375714766
222 0.3465336430384487 0.7395820642378794
223 0.3691243412120485 0.14841438678491203
224 0.9924995165853978 0.02787053600862277
225 0.08377023250248261 0.7240914643063913
226 0.8340048275091433 0.857111244663313
227 0.8437605120914566 0.444344347765976
228 0.33353302735684875 0.5443485331687017
229 0.4596037135526273 0.575860592894773
230 0.3491029402220772 0.5825156399966661
231 0.7948660746483655 0.11575812310940825
232 0.1888292701897477 0.4348130306851754
233 0.4189140533228667 0.19899774394076175
234 0.7225741258358589 0.56725486766567
235 0.3881313629568842 0.5498108216295114
236 0.9102162025534666 0.12442698630126525
237 0.10490067933261416 0.4860954782627013
238 0.8233828765346526 0.761608719862358
239 0.310341625743642 0.5283574617461443
240 0.5765662821562108 0.8609784178076436
241 0.7890616875609561 0.4799888739312109
242 0.8055797530010771 0.5628311898427893
243 0.9698084187461975 0.6411414322066484
244 0.14685404918171063 0.6401155204583968
245 0.4593337488570277 0.9382536121071479
246 0.5975708161264498 0.7476943117147065
247 0.9105339702619074 0.07256269538444349
248 0.6450994926046452 0.07054664649699915
249 0.3515946112395101 0.722789220973471
250 0.937169483540954 0.9525541082955915
251 0.7586863447828319 0.06685393361877123
252 0.5201034515062876 0.6390470593823154
253 0.38732576464834756 0.4681955075920371
254 0.08852122324887013 0.5231113202855541
255 0.09036901578950873 0.8032617108850789
256 0.09904654074233321 0.24446279971910323
257 0.34150029228990353 0.06158405239798659
258 0.8222062016642999 0.5384232611339287
259 0.09480917071177364 0.6820294391477513
260 0.5346174940939605 0.8183495574133103
261 0.1867480304790745 0.5125960640685737
262 0.6108126933717154 0.5590381440870943
263 0.2608611085520982 0.29706104094589547
264 0.47036323520770185 0.441875140387468
265 0.028518825923330327 0.4753696758946965
266 0.6326916000059274 0.04562097867922155
267 0.9172239017599745 0.9236349770763315
268 0.2544777569980271 0.022746906876309647
269 0.9031778206194699 0.0274756563470131
270 0.33438555290995886 0.09417847708698535
271 0.5241674710765272 0.06216959459314564
272 0.767682593337621 0.04215152422429169
273 0.24134662150432362 0.6470650392173977
274 0.880367524992612 0.08767000045180773
275 0.06573321351015393 0.9510301328354532
276 0.9318884017049597 0.492330437951243
277 0.2028401149102117 0.6719392778498837
278 0.2552110128551873 0.22589789985586128
279 0.22702091070645258 0.15283233297332122
280 0.9027364270710695 0.8359238043691638
281 0.09708553551071697 0.3566363122539381
282 0.258366239784409 0.7995684804607965
283 0.17462632152307855 0.8790985594342174
284 0.7597142346800616 0.9205396990856958
285 0.3393426566412445 0.060540335091501585
286 0.663219048042933 0.4447843604360736
287 0.7772806236118261 0.6138807502247338
288 0.0887363930248356 0.24868616785054554
289 0.37825351101196714 0.5653075023268932
290 0.327795619977453 0.49084621987913546
291 0.7303615546283775 0.5560892911163487
292 0.6713350374682886 0.31034962264758903
293 0.6087832999689861 0.701490040643046
294 0.04674573761499301 0.8237588314693969
295 0.5063970448819269 0.20564681116515038
296 0.18953541024038334 0.3567168009693775
297 0.0936202874610389 0.7419499603003903
298 0.10720758917620588 0.5924022213857918
299 0.1939436898873581 0.5459078575982388
300 0.7952821820137312 0.9949227422581806
301 0.6618132487445867 0.33382093408599944
302 0.6020333028590197 0.1404270815185682
303 0.3682007589049372 0.5075236024890056
304 0.3999483539843657 0.6178270258434043
305 0.1780314923697105 0.26231916991807225
306 0.24468352561662599 0.6978910139441593
307 0.38113064504175387 0.641768693666283
308 0.2912067037465689 0.8934881570499948
309 0.4525306564217857 0.788372101796117
310 0.008780213334482756 0.09098013392537552
311 0.0339848957328881 0.6062061270377416
312 0.06718901385928355 0.9225339804399532
313 0.4896869433074208 0.12652859126509186
314 0.8826880126761963 0.6315210741734204
315 0.7207288270849107 0.6769364802662369
316 0.5656385611432574 0.7396689603139147
317 0.8965727755833619 0.486035050803004
318 0.4983402794466898 0.1399653147834603
319 0.8709658490042466 0.3154622941558156
320 0.8696024527818625 0.16351018414549467
321 0.7700084164105263 0.27014776071694524
322 0.0045495975011343726 0.367055610174551
323 0.3159191016809081 0.8549453159662102
324 0.6256916352948673 0.8030340025406295
325 0.10409678802380906 0.45546984224982
326 0.0752945281482188 0.3100342748300712
327 0.9087320901986028 0.1513347328562834
328 0.13917413973071147 0.7684856460303873
329 0.22780376617032072 0.5759497161283331
330 0.9788803468515708 0.6682071846794723
331 0.1337538923576418 0.8049564526809789
332 0.30202424204661416 0.9862817090591253
333 0.9951758037473517 0.2455528912007211
334 0.3247980300524087 0.4743391027067886
335 0.2847976884351514 0.4242890921567676
336 0.6736592525025917 0.18818050982760304
337 0.016959776858094022 0.3771560052010765
338 0.5789541990258615 0.7788489693358945
339 0.5917243305764119 0.5258352832393509
340 0.4066872828041157 0.22529334276891688
341 0.5246661035698977 0.3639109965586367
342 0.14974645836013267 0.2781020486942596
343 0.10667077691634408 0.281871567910014
344 0.7999973701459472 0.7941263430622454
345 0.023806939030349028 0.7868609049917099
346 0.9638712237758688 0.1306210164545889
347 0.15240088970946053 0.19663606458754757
348 0.9284101438264672 0.8518412933012229
349 0.523917419668896 0.7029816661689802
350 0.592036596935968 0.08732974402706917
351 0.5465015161932845 0.9557387028460753
352 0.9634306690502944 0.10223654249648373
353 0.7917713019604535 0.2845902396290577
354 0.26789631807095426 0.6929175036104775
355 0.3740805800476008 0.49738683007197193
356 0.5821414005308571 0.1897423953670614
357 0.13611210811082108 0.6182050285353746
358 0.48496490633426326 0.31368273905732347
359 0.7040055794974233 0.5226588509553829
360 0.7214590218213349 0.7764962798834005
361 0.4886870260789167 0.3164303034356315
362 0.2697401123538541 0.7143582965790308
363 0.9028598730505438 0.4732332507567514
364 0.7519774280224051 0.5509473805360695
365 0.7286596485518598 0.1633111542426452
366 0.8959967945502282 0.39301203900898174
367 0.39983749713719285 0.8243992180143437
368 0.9522703304562313 0.16758164075880455
369 0.3296529662985407 0.8875955802251985
370 0.18846094494450605 0.13282290727311152
371 0.6044695672481815 0.6447718260641724
372 0.1525814387919282 0.12417830913833527
373 0.6404354319796643 0.20721059986238288
374 0.4313611619700155 0.6962808115559539
375 0.36059264682100334 0.2109044430306929
376 0.9537304766854673 0.8819180766749806
377 0.5196719186375164 0.7530338533380212
378 0.9927945085387531 0.26981311952670706
379 0.4338144249639928 0.2314753945313266
380 0.24450912863319318 0.23288614953857978
381 0.02409260724454443 0.43984199368867716
382 0.6387621215606906 0.5899578119666637
383 0.34190664769525303 0.6558031412577331
384 0.8579863939193179 0.35487741267728656
385 0.844277426958721 0.06446842623800975
386 0.3401687072772076 0.5011558306851378
387 0.9649629569361476 0.43157958281307385
388 0.0992619812700305 0.685647309833921
389 0.2444305471350391 0.36358454729030953
390 0.939022023672234 0.035087485111445105
391 0.7616459284224187 0.5632342577080524
392 0.38019769010447 0.38287800999592103
393 0.457085401480703 0.4480742340745649
394 0.9359209891142415 0.2283588582246222
395 0.8947217109639453 0.8744676563352682
396 0.8340306662875713 0.34676914930664937
397 0.3525335085420399 0.8965198590110341
398 0.9648365578650823 0.30400657713378054
399 0.42799030524854875 0.6119030624309038
400 0.7615893701792412 0.059648782969328074
401 0.9750432857757557 0.9556734172292576
402 0.23669920049210846 0.6338332832680934
403 0.3997253173411599 0.531210242067282
404 0.17791669095836227 0.8811923125505621
405 0.7704889034188206 0.913976069475411
406 0.4394491967806895 0.6763356041827786
407 0.6678642302973632 0.3873321247132233
408 0.4209136766308026 0.4990935130911941
409 0.9833404241996789 0.7617939424615763
410 0.5748319633696383 0.8740976125794625
411 0.825741016674497 0.6710989301896426
412 0.7659945883731102 0.5529440540522224
413 0.9874016102487977 0.8894815689922856
414 0.8232515962039694 0.9727167515988896
415 0.5398883140118057 0.35764595337512517
416 0.3323596031484214 0.13239687719382054
417 0.6383872756069265 0.782395861861854
418 0.7128758292056018 0.5271320660230616
419 0.5108859691622702 0.4170775086320242
420 0.29033315334410803 0.7628545940511745
421 0.347539164512925 0.3375350712466527
422 0.5226240042328854 0.7514641476098056
423 0.35656535924307475 0.0847435418366268
424 0.09258680171496325 0.9522169051613992
425 0.8518883994350525 0.20573236291964025
426 0.4209649712075987 0.25163794755871427
427 0.3682762318381506 0.7124455871249471
428 0.18847109839115483 0.7983602000449456
429 0.13371800508369014 0.29569048139862364
430 0.4214856509514394 0.39861198931023356
431 0.1561705836141959 0.16537191893867698
432 0.25764906131890297 0.05792940335847163
433 0.7235839424023335 0.5526663092169589
434 0.17466732628774295 0.3223160097604426
435 0.30402914536894965 0.7487619132262682
436 0.14992899008143767 0.05541703879248483
437 0.23648362021051572 0.07870069571237637
438 0.8311359894342567 0.5850857122793566
439 0.6447886390444963 0.37279501250591895
440 0.6666079684802829 0.8087090663540657
441 0.02806254219719928 0.9109189883652524
442 0.26937500881252674 0.35171734938698096
443 0.7213868704778783 0.3013168374737576
444 0.2508376720151715 0.41747499672840016
445 0.24589951462090132 0.24375701194174082
446 0.006270052518917324 0.48233840393536387
447 0.5699694881698645 0.0667277599350905
448 0.29690189123293154 0.44325252789647485
449 0.6029546008890758 0.27574449975407334
450 0.8881109725882703 0.10398858418685097
451 0.7825069540820365 0.899429304376962
452 0.9226589956040913 0.7696276946374778
453 0.5978780939280132 0.3102908252664882
454 0.171362409166676 0.06621391718256808
455 0.29652483795576956 0.6335536687820668
456 0.6254996471057791 0.4924731965319822
457 0.5647233518710043 0.1640923205226309
458 0.05619759376014699 0.7012192442271701
459 0.7931753542774175 0.25660734205857305
460 0.08029695405968318 0.7042933692480762
461 0.1787343121996119 0.8608614703081218
462 0.12474161520446958 0.9062944126580019
463 0.2369593488413091 0.13451537561865057
464 0.46689973476990965 0.6150911989507428
465 0.9573451343237949 0.07606684474463044
466 0.9651653303416591 0.4479956214600379
467 0.2739472745773245 0.24380736251030855
468 0.18255098480716814 0.10668809931990364
469 0.2382129942397082 0.1174689675051016
470 0.14923840956957402 0.09611247977292914
471 0.07043869031301575 0.6874513837604829
472 0.8590937519774278 0.7462479964943194
473 0.6650696605354985 0.534877372731644
474 0.7868307740426248 0.07203415964885218
475 0.7059741566027604 0.8648489169552124
476 0.8492326784681107 0.8023290401387327
477 0.7126589100124274 0.8447808843311576
478 0.9893778773871202 0.6168044280488563
479 0.39395888565005655 0.31927513975744803
480 0.8429357213372621 0.014481767716764127
481 0.5729932934087595 0.6809650410103121
482 0.1716772336241511 0.7947574109592682
483 0.9778225846250039 0.6798713450455368
484 0.24565796696714703 0.6941613601518569
485 0.7898040793177413 0.5163250963907811
486 0.08536149607869936 0.9384129906844363
487 0.8697401829026161 0.7313767609489078
488 0.7658900175999063 0.931225148365443
489 0.277632826952915 0.7452415527196838
490 0.9881412654406525 0.23319238483642157
491 0.9310023301029597 0.5868583814557572
492 0.9450901118678036 0.009644087461447848
493 0.7341411810338934 0.9953783977776863
494 0.745971855010605 0.9467438346002277
495 0.40213537118923703 0.5132005486019383
496 0.8291326553266362 0.1788557729572231
497 0.26300786171834867 0.12844334638063415
498 0.4980684446787257 0.7915674763304935
499 0.5731326249796748 0.3449123992131764
500 0.8506331150937114 0.1380489993891726
501 0.7245203679494612 0.6636427713158308
DEMAND_SECTION
1 0
2 4
3 9
4 7
5 4
6 7
7 1
8 3
9 5
10 4
11 2
12 5
13 7
14 6
15 6
16 3
17 5
18 2
19 1
20 8
21 9
22 2
23 2
24 5
25 5
26 4
27 5
28 9
29 8
30 8
31 8
32 6
33 6
34 5
35 1
36 5
37 9
38 3
39 4
40 2
41 6
42 8
43 1
44 3
45 9
46 4
47 7
48 4
49 5
50 4
51 2
52 6
53 9
54 2
55 4
56 2
57 4
58 3
59 3
60 6
61 4
62 3
63 8
64 8
65 4
66 6
67 4
68 8
69 8
70 2
71 1
72 4
73 4
74 9
75 1
76 2
77 6
78 5
79 1
80 3
81 4
82 7
83 5
84 8
85 8
86 7
87 1
88 1
89 5
90 2
91 1
92 6
93 5
94 7
95 5
96 1
97 5
98 2
99 5
100 6
101 2
102 1
103 5
104 8
105 9
106 5
107 2
108 6
109 4
110 8
111 4
112 5
113 2
114 3
115 6
116 7
117 8
118 5
119 6
120 6
121 1
122 6
123 5
124 7
125 7
126 3
127 1
128 3
129 7
130 2
131 2
132 2
133 4
134 7
135 9
136 1
137 1
138 3
139 8
140 2
141 4
142 7
143 9
144 1
145 6
146 8
147 4
148 9
149 7
150 3
151 5
152 3
153 9
154 5
155 4
156 6
157 6
158 3
159 9
160 5
161 2
162 8
163 3
164 7
165 8
166 6
167 8
168 8
169 4
170 3
171 7
172 6
173 4
174 2
175 4
176 8
177 9
178 2
179 5
180 1
181 4
182 9
183 6
184 2
185 8
186 9
187 1
188 3
189 9
190 9
191 7
192 3
193 5
194 7
195 3
196 2
197 2
198 4
199 9
200 5
201 2
202 5
203 8
204 7
205 9
206 3
207 1
208 6
209 2
210 1
211 5
212 2
213 5
214 8
215 9
216 7
217 4
218 7
219 7
220 3
221 5
222 5
223 8
224 7
225 4
226 5
227 1
228 8
229 4
230 4
231 6
232 9
233 3
234 4
235 7
236 7
237 1
238 5
239 9
240 4
241 1
242 4
243 8
244 6
245 7
246 3
247 6
248 4
249 5
250 8
251 3
252 1
253 5
254 1
255 4
256 2
257 1
258 1
259 5
260 3
261 8
262 9
263 2
264 2
265 1
266 2
267 6
268 4
269 7
270 8
271 6
272 8
273 2
274 9
275 3
276 7
277 3
278 6
279 7
280 3
281 1
282 7
283 9
284 7
285 7
286 3
287 6
288 8
289 9
290 1
291 1
292 5
293 7
294 2
295 1
296 6
297 3
298 4
299 7
300 3
301 8
302 4
303 2
304 5
305 3
306 7
307 9
308 7
309 9
310 6
311 1
312 7
313 9
314 8
315 6
316 3
317 4
318 1
319 6
320 3
321 6
322 2
323 7
324 9
325 2
326 6
327 2
328 3
329 4
330 7
331 8
332 7
333 4
334 4
335 2
336 7
337 3
338 4
339 7
340 2
341 6
342 2
343 3
344 3
345 7
346 9
347 2
348 7
349 8
350 8
351 5
352 5
353 9
354 6
355 1
356 4
357 8
358 1
359 3
360 9
361 1
362 9
363 9
364 4
365 9
366 8
367 9
368 7
369 5
370 4
371 3
372 9
373 6
374 6
375 6
376 7
377 8
378 7
379 3
380 4
381 2
382 1
383 3
384 1
385 9
386 1
387 7
388 6
389 3
390 3
391 6
392 6
393 1
394 1
395 3
396 9
397 9
398 7
399 5
400 3
401 7
402 3
403 1
404 7
405 7
406 5
407 6
408 2
409 8
410 9
411 6
412 4
413 9
414 8
415 3
416 2
417 6
418 7
419 9
420 8
421 1
422 1
423 2
424 9
425 8
426 7
427 9
428 2
429 8
430 1
431 5
432 6
433 5
434 2
435 9
436 7
437 5
438 8
439 8
440 3
441 3
442 3
443 7
444 7
445 1
446 2
447 9
448 4
449 7
450 8
451 9
452 8
453 2
454 2
455 7
456 7
457 2
458 8
459 4
460 1
461 5
462 4
463 2
464 3
465 3
466 1
467 9
468 7
469 1
470 1
471 7
472 6
473 7
474 1
475 3
476 4
477 8
478 7
479 5
480 4
481 4
482 7
483 3
484 4
485 2
486 6
487 7
488 1
489 5
490 1
491 6
492 8
493 8
494 8
495 7
496 5
497 1
498 2
499 7
500 3
501 9
DEPOT_SECTION
1
-1
EOF
