NAME : gen500_012
COMMENT : uniform customers, demands 1..9, generated by bench/make_tuning_set.py
TYPE : CVRP
DIMENSION : 501
EDGE_WEIGHT_TYPE : EUC_2D
CAPACITY : 100
NODE_COORD_SECTION
1 0.8007341654075245 0.8071433670966478
2 0.9472980677700743 0.7998436846695115
3 0.6500132427763113 0.5529633107064031
4 0.43383723313236877 0.9463823578766077
5 0.2779784345468509 0.152770223924242
6 0.28575100325994784 0.4956188846759476
7 0.5115419938535287 0.2441441631266842
8 0.05384146864837169 0.20883251733561603
9 0.07403674050612075 0.5679376549874364
10 0.47968634352367934 0.6311485235250134
11 0.49028014046492274 0.9992061261489144
12 0.3743068254589986 0.7340247749845282
13 0.6303332398226721 0.39724699797034047
14 0.46495798386711706 0.18560026528379503
15 0.906023734387958 0.5562380447760404
16 0.6465566718602147 0.7493960778094302
17 0.4768628494796382 0.3854524354444514
18 0.8707612868295503 0.3115481296013123
19 0.13940344066701438 0.2848174771065002
20 0.017605829087851133 0.28509276128780037
21 0.8176998694898112 0.7041377530479195
22 0.1516076314188689 0.10511901812233537
23 0.45999110461755366 0.0381335903085237
24 0.3001534245433086 0.037741586677462746
25 0.7276236821844508 0.5372219403062612
26 0.8210374597091746 0.4184009193552999
27 0.7099982430742864 0.845681016481142
28 0.7578081664565843 0.18345271137234298
29 0.2802309166187803 0.5914839666376368
30 0.6649307230952693 0.6121964047564808
31 0.6801923888736958 0.6025783851979173
32 0.3547888744085711 0.9198922042183292
33 0.9448741325128267 0.3403123851737293
34 0.07338901670695841 0.5369110791239906
35 0.9674154087955202 0.4372326864157847
36 0.6446290595102614 0.6717070473846116
37 0.08542573934319109 0.24468488681498668
38 0.7029869865239777 0.3875269166084745
39 0.2402741830540417 0.09083541947796647
40 0.9518766922223281 0.9010660526230724
41 0.8232271438014944 0.41764668038055974
42 0.2744626907024589 0.2857023780206486
43 0.952156083979494 0.3653018581153764
44 0.7274085780855463 0.07639304424880544
45 0.32523845777840266 0.7133328327462188
46 0.3437097987892719 0.2133169056511559
47 0.7768879919947486 0.5632868390385432
48 0.22455941936760382 0.9733343620123592
49 0.32944610248918416 0.8333253277072357
50 0.8075967230458586 0.7980237453651094
51 0.621143484290355 0.152260231110125
52 0.30919748028773875 0.2416804336214491
53 0.8647087093438632 0.649910205364251
54 0.4679753401074025 0.5439031000377481
55 0.9196721477226816 0.5725774439845709
56 0.3746668378193003 0.03670868907989844
57 0.7421515070189151 0.9474196433598986
58 0.2806893836614709 0.3452850229525304
59 0.7212502336578173 0.6451557074541749
60 0.4827151676970747 0.9124936563227786
61 0.8755999493117557 0.767901164462184
62 0.3964705574487457 0.8069697042982911
63 0.4045532323009211 0.41836973635581987
64 0.002553867437952051 0.08026901214921522
65 0.684280029067617 0.7120680826658544
66 0.1323798000265678 0.6412513990556309
67 0.32037717029309054 0.4898943872853433
68 0.09974644611098016 0.7919114343579549
69 0.3410428159110358 0.2656859229515428
70 0.22114981102565967 0.5604505382641314
71 0.603170296740025 0.30346740001462325
72 0.5474883124405168 0.4551908124557943
73 0.5587783360567772 0.48694911705947175
74 0.5075652714867517 0.7352361337160764
75 0.01695327059829299 0.6957461133610379
76 0.273951852543281 0.6838978770456431
77 0.8927880269046694 0.4973536379046971
78 0.19812226033202796 0.0031349670616801495
79 0.9965934766544989 0.905509789276454
80 0.7436828729845689 0.2704607681408979
81 0.21669462838297016 0.9527739112722259
82 0.9923057527390697 0.09980411465179662
83 0.8250802713106187 0.9712168527378728
84 0.6192006294391751 0.07994463803326135
85 0.6576934271474074 0.45682708707388664
86 0.8916851094922484 0.9792301600790828
87 0.12115948599109927 0.4429107733798694
88 0.6676086773636296 0.0778856878941202
89 0.49265472087078843 0.44034782100758296
90 0.8835066177788672 0.17872017046834776
91 0.9637259869091978 0.255802662913737
92 0.46268004290388154 0.17043994644154403
93 0.8562685808260951 0.5485442075373153
94 0.15123961108531703 0.7219389905800437
95 0.7960042007096466 0.008907121611815838
96 0.3521038516571132 0.6299354514099517
97 0.7680489049896819 0.060570909958977404
98 0.6680924031239249 0.036117771880393335
99 0.6079935536297236 0.5171606486347174
100 0.3856107531837889 0.4938618467607504
101 0.5147045968402967 0.7679580698594527
102 0.02968797054761707 0.3160350941452371
103 0.657804859145386 0.41168562767146966
104 0.16600516173664548 0.09427961659560091
105 0.16782061467023224 0.3430221172678013
106 0.30896171233896474 0.7739796941946019
107 0.9424034476373652 0.21925636894539913
108 0.5215626800153773 0.9900699115330537
109 0.7280276773454961 0.2735867341401337
110 0.9883701607416485 0.07107208919055263
111 0.8218985700223285 0.8699886410646431
112 0.6168499702173972 0.8129862050849015
113 0.6486016063712933 0.8579803492679925
114 0.7857330654773856 0.9714813738659337
115 0.9515180378315363 0.4544741652241535
116 0.32208671374367903 0.7484035123799049
117 0.40574619335333806 0.8799979556802383
118 0.11483176076115353 0.5454252518199125
119 0.8105253077280524 0.1364610235128899
120 0.7518358216208578 0.3025231913770745
121 0.531720028295876 0.3384794103887644
122 0.9476240610961809 0.08777547873525127
123 0.3849725264073961 0.34739432671611814
124 0.5817981751045168 0.7850909415118814
125 0.27925735272924634 0.6535949556212273
126 0.03485197945033536 0.6901811551313549
127 0.3700411274886437 0.7010111643823739
128 0.9182182891032867 0.18657482866673747
129 0.7362595044179931 0.4162659531133265
130 0.5521154006861079 0.650819677326303
131 0.65780222194353 0.6429062735142905
132 0.32431503773083603 0.4867082039554157
133 0.30777270622743746 0.5748084332406932
134 0.23987714121142423 0.4499397379839426
135 0.47674823460168847 0.15366996328052762
136 0.3595330012937954 0.46310988345151916
137 0.5806483631289389 0.2294228894574527
138 0.3088717501529693 0.6925112218113434
139 0.02252933308687899 0.03253070814298564
140 0.6004239169926472 0.8583060363930313
141 0.49111454117778053 0.3473344495849925
142 0.870360749049286 0.2985758070293545
143 0.8588901835291921 0.620356382531618
144 0.518838849839418 0.45614901370536043
145 0.9156568780613893 0.247981007520785
146 0.9090513789742676 0.6674348745248008
147 0.9847637067548997 0.39530150678973186
148 0.3555699595223685 0.9811274507566161
149 0.6079347867465281 0.8975134148258159
150 0.49562032667241585 0.35301196204293117
151 0.3216486778735619 0.7649310256660613
152 0.3967293395169237 0.6784741738920155
153 0.7334281660280468 0.7190907143574442
154 0.485888077753275 0.24665562545190034
155 0.6885653020624796 0.7932994701763725
156 0.21530859453869156 0.15553660954573567
157 0.3243877273881832 0.6858330322901275
158 0.8029457152229618 0.637713641178885
159 0.18067756149505843 0.786595340956809
160 0.15010708972524023 0.6305688938651874
161 0.4732050398554274 0.47855698303759286
162 0.9175370108597687 0.4508987757642041
163 0.2181848669446882 0.8345676474146605
164 0.6295472943939124 0.4572707178143205
165 0.782430895611223 0.5911108703949344
166 0.9916732268764398 0.5830153348098249
167 0.1240219636232821 0.8110631538893541
168 0.4108818704829915 0.762672388496092
169 0.7671420948685144 0.8658800865662937
170 0.9469427417376116 0.044902757972250074
171 0.8666375107269175 0.6467415977651951
172 0.20380414494228383 0.4447267621834632
173 0.06304207379989257 0.40887086460981936
174 0.6905557630284935 0.39141777501053066
175 0.7748016997044168 0.0835564598633648
176 0.19993578392321143 0.4084149829657018
177 0.8103453487578749 0.803846697143303
178 0.38840978505631807 0.15990043038583057
179 0.02964858479520871 0.3502311905178205
180 0.023888667490038706 0.14331771667820903
181 0.5027140702419766 0.246832586680383
182 0.09392141352794614 0.9875733829482987
183 0.1345926448264485 0.7959073738474969
184 0.9144995989250295 0.6736281306462258
185 0.19600010731044626 0.7641545991894262
186 0.3536015065994168 0.7630850438214893
187 0.6278581005261493 0.3630022756884964
188 0.7139771076467003 0.4217984619990506
189 0.7351286274415758 0.9604257552512941
190 0.3746085445114573 0.6707275892206074
191 0.04681590881723119 0.3387099457581655
192 0.2937365953144304 0.16987832970829997
193 0.8597071417412381 0.517250085224965
194 0.4848635867727835 0.005229658950565708
195 0.4377431485322537 0.7859839921808842
196 0.3643957278128853 0.2595579156520734
197 0.25396955010938016 0.0073586250408819165
198 0.1359434494457139 0.4828389597360129
199 0.45029599292337696 0.8948113010299661
200 0.648882941629275 0.16154368886688497
201 0.7501896708847383 0.19626756092862796
202 0.21710113980235057 0.42467666683995964
203 0.35950027001551554 0.6569596084323845
204 0.6804811149482577 0.4738164480357282
205 0.5193736809644169 0.42383432733907456
206 0.8248918719408467 0.17873033815002926
207 0.9714847717201966 0.3711070278543154
208 0.17060830493969015 0.1704220688314625
209 0.7082743454609708 0.4379840477899858
210 0.47714910767512775 0.32014358130999365
211 0.29315144012338945 0.21684463326259973
212 0.9924665983758472 0.9859364455408777
213 0.9802750071479072 0.43527631304815895
214 0.23420438473926497 0.06677205520069562
215 0.3193991545626923 0.6819287410230094
216 0.9982145257323339 0.6718392127550071
217 0.14824120984856903 0.0495873382449572
218 0.38852940675169556 0.2813564464221635
219 0.5460382543910237 0.8031359994950775
220 0.12635569252944 0.48467878015530874
221 0.968444629837637 0.9821732661961697
222 0.4842816888781454 0.452208683209132
223 0.196712109106576 0.005628364786092077
224 0.5045206039967108 0.9313114590005643
225 0.9032906672620028 0.2927151841862362
226 0.8578236489886092 0.5736361244904067
227 0.24697170266741997 0.9286825172772807
228 0.29549983098379207 0.07531478281265791
229 0.24340329144576522 0.9341260104811915
230 0.8360246643641136 0.9854923370164498
231 0.83258925759358 0.7377894210771105
232 0.36094241835983565 0.0030329537421147634
233 0.17113756128775437 0.5000814208965464
234 0.7427427786678726 0.6104929410626699
235 0.25195150342327544 0.01380791167790274
236 0.8570386543794956 0.9448993899891156
237 0.7742760274731904 0.8722344840344313
238 0.38643885998028926 0.37922924951549253
239 0.7139110982588655 0.2712055678067673
240 0.8025540754812981 0.849342261737164
241 0.04851380223928303 0.554212393275198
242 0.522897277010679 0.8409590509396959
243 0.17034792310223068 0.8573519694219821
244 0.5082918846641193 0.20314050398620376
245 0.8351788576278615 0.704109077902171
246 0.22299840427537942 0.977019232440258
247 0.7450681628876209 0.9227067892194029
248 0.8936757235416465 0.8910456022512283
249 0.24592171164227394 0.4063912280738994
250 0.5575584743582686 0.5322615861087628
251 0.28801598440609955 0.18185364265226622
252 0.3024880420177868 0.937649519467589
253 0.7720846070556054 0.653335044317161
254 0.6665694707645892 0.9175952778177598
255 0.21821539861860384 0.21914414943230542
256 0.832777218964137 0.646947521103959
257 0.23635341436074975 0.046801294193497656
258 0.4559558915385793 0.10011266735565594
259 0.48691971711228466 0.1442413304595208
260 0.374584823701389 0.4133029796744345
261 0.03160869066876726 0.9610888689742616
262 0.8585542130088342 0.24993218626767388
263 0.8421539698557042 0.058165872836166144
264 0.3536180500695364 0.8283285428569731
265 0.053402786831481586 0.47216146555801686
266 0.2789982693707391 0.36927398882977835
267 0.7188557639950776 0.7643025875981633
268 0.8747046133831511 0.4401735995720938
269 0.7197333082166807 0.037593270539854506
270 0.2974119956159166 0.9483996813419129
271 0.9465715143161427 0.5202202745199482
272 0.6873180659068675 0.8610247615490697
273 0.868031736658302 0.15248465212927542
274 0.30364523675192145 0.2501406417021086
275 0.701162375497509 0.04220020711888306
276 0.47485108725683634 0.8072829180224883
277 0.9571536946486633 0.7909414902901075
278 0.5606134422309194 0.8004476960348255
279 0.9171301538268916 0.8693898642841634
280 0.9005982984916004 0.2744390933819312
281 0.22898735114551017 0.2403894554044913
282 0.44037101236203 0.36935750747041374
283 0.2608746483703277 0.13667854245521804
284 0.32876947335240125 0.6904161174208686
285 0.7349056243412866 0.3191937044438047
286 0.44095117066185496 0.7124303550093395
287 0.3483262847338515 0.7575379721368272
288 0.5119004050236836 0.2221030907068584
289 0.5029958063296223 0.73917327962707
290 0.24329026939873832 0.6388653452617411
291 0.6948607108280134 0.17372688490596266
292 0.36503072694191985 0.22643666829569553
293 0.9379130425786852 0.22589126567475482
294 0.8526933246024936 0.9293266645037693
295 0.4374183678921416 0.25306764357861544
296 0.8053464197857387 0.49073844620194573
297 0.14278525652077678 0.0026690073547830373
298 0.000583585325246716 0.20496714803039762
299 0.8013544502928865 0.5726478304423
300 0.8095515911964052 0.4091805204265392
301 0.9941625151639308 0.62931228006415
302 0.45149920403434507 0.3719328914087794
303 0.13509736191774147 0.6841801529886151
304 0.09728499067442753 0.8422541300732745
305 0.561315592330551 0.8332940889261671
306 0.8027065481339782 0.08548161989617309
307 0.6715279806892883 0.34866765708897685
308 0.7237870916331245 0.5702597914625339
309 0.43015572464987895 0.6333599452739029
310 0.6780419344290245 0.35872942720914736
311 0.34091697262374565 0.8731401963664042
312 0.06733031027252079 0.3051253408588508
313 0.9245486025213863 0.5199162314554391
314 0.7856450430994055 0.4509202578927154
315 0.6830846431599344 0.8546600627459029
316 0.9908181111541291 0.022387662399665498
317 0.9695661218382341 0.6819201175433834
318 0.4285989277992983 0.03050749035180289
319 0.9563259781875055 0.046631119071316895
320 0.9805077571562183 0.4239233752886591
321 0.870538503514029 0.5351997117791221
322 0.1107976742961202 0.5798243659087161
323 0.35536008483861725 0.44809371420008226
324 0.9220402449216164 0.09356298044964306
325 0.6985761033541862 0.800661078698405
326 0.01807122173977549 0.9760039465872747
327 0.46804243062613793 0.15015376479946574
328 0.22179140027525557 0.07193027566029919
329 0.9818894092029381 0.49736046043266824
330 0.040526290786298436 0.2351637967579029
331 0.06061345262982487 0.5596491598471541
332 0.2604128417369963 0.24328402180214492
333 0.8238639629219938 0.5650855961996247
334 0.5806878186118478 0.19546130829407382
335 0.26752952469545555 0.0015485514592535887
336 0.5889128550280527 0.5017098475703669
337 0.1768384992213744 0.42145884129510325
338 0.8506937542077438 0.40739259337640477
339 0.6301936942871393 0.5508139070175351
340 0.24468006802011488 0.49289548886862933
341 0.4304445523692476 0.8787019185899968
342 0.06059232300526851 0.8078048805752348
343 0.9591770180709257 0.1786277881208992
344 0.6239867878614395 0.777838690950292
345 0.6711635266120591 0.3717620835236418
346 0.8678254676816037 0.25047485381386636
347 0.3942622155660851 0.9952470935479057
348 0.027526295961969205 0.24477436845367762
349 0.48871831477266303 0.06168678072252065
350 0.5979619798901857 0.46386569803955935
351 0.9346318989476528 0.5153808812683796
352 0.7085553498869667 0.9212016087925927
353 0.9554527949082186 0.36960146131928573
354 0.6632740983129726 0.94719732523924
355 0.4163161887928053 0.9662204437499742
356 0.17708709979345338 0.7529043901574769
357 0.29036226688009303 0.659193582994712
358 0.7213623521467258 0.15487525796836277
359 0.20129289496733171 0.7271368527487863
360 0.9195865212626327 0.3175280841756798
361 0.15154562539024607 0.13323507089042008
362 0.09477471794942716 0.769215584897584
363 0.16664331520075681 0.5041981264973694
364 0.9693346143184279 0.15230087230647038
365 0.6514462489423521 0.11232754771437359
366 0.598402322065139 0.7048685911591074
367 0.5244176754937098 0.8872638442740539
368 0.8314492752666972 0.8779190645735127
369 0.4824833692748556 0.1677853274014709
370 0.8843021195341917 0.37886088606533264
371 0.10811079432630444 0.23824001390325444
372 0.6008747468273895 0.31767935371031375
373 0.7820547861035753 0.6158951200740298
374 0.932931221805541 0.6243952315708813
375 0.9089951754658645 0.10330695676305446
376 0.15979402651952712 0.46662517304060847
377 0.8187459592438755 0.23724379895843373
378 0.07937382764322876 0.2635923262850367
379 0.998602255604611 0.6054097134369978
380 0.03460712657625831 0.18243414362972532
381 0.8839589269098177 0.6101651949430219
382 0.8816682022758948 0.6910308475175418
383 0.2198504191738967 0.6075756908905405
384 0.7121776336911424 0.4059427854964127
385 0.37805254822132417 0.7545713595644795
386 0.3789413045510409 0.007848884241395515
387 0.6186482155876667 0.9698678696650075
388 0.921134892721418 0.21570954749525062
389 0.16370408609086018 0.20713400503218293
390 0.18907633493058817 0.7074392897990082
391 0.5633208427359705 0.2995028007336098
392 0.6460317904056917 0.09714504295869664
393 0.371825104604283 0.3190933025658762
394 0.026958871857311162 0.3979439995639127
395 0.612185037808042 0.6463436943648492
396 0.6561685772946215 0.6777505525688579
397 0.5805687105777387 0.23201855369028113
398 0.5862808903390065 0.6606719399840885
399 0.21614299950085725 0.5069594312283393
400 0.46936007708631866 0.8072471268575105
401 0.5879777616788974 0.7252657935591815
402 0.7626737506814569 0.49411612001663097
403 0.5706588844674177 0.9371604880925775
404 0.18304861833983388 0.0620361138913762
405 0.7813668828848788 0.855788787151388
406 0.36993793012836995 0.5793345165200817
407 0.10621622589299518 0.9569331320048038
408 0.9161429415408708 0.5691660398660623
409 0.5550631654851857 0.2710675661376888
410 0.4969767109363912 0.765626769147816
411 0.9149120103147447 0.2039628643083854
412 0.5572624761991328 0.024993272647057974
413 0.07115190646034053 0.004983171330687486
414 0.9527935732768531 0.9085628887920545
415 0.7371425091829348 0.20291390922660546
416 0.2533101656414004 0.4474810680337178
417 0.2509459173132116 0.6594886160382927
418 0.38173359227792836 0.7114314073907344
419 0.6831827538306136 0.6956233997808463
420 0.6873010886622215 0.052876803523546734
421 0.607158742629312 0.3055898196582221
422 0.6362467660438059 0.6727781001450791
423 0.6927151221767255 0.25570350759772487
424 0.287902065249402 0.9192689711755265
425 0.2675039628452125 0.6352425588738406
426 0.054688462889438516 0.982364692061205
427 0.06771414536837828 0.5685342752876974
428 0.08593883547951997 0.05036070584144514
429 0.8970013755258501 0.5779665757251444
430 0.21199198132714725 0.8711297580770728
431 0.1134860996708088 0.3259282506737946
432 0.5877629223983802 0.592673759201465
433 0.31353104556392175 0.8374408061846137
434 0.24402221569433769 0.16873865376720043
435 0.06103948071278553 0.6026008751352514
436 0.511749957971025 0.9460043008816963
437 0.43348357411429717 0.12828304206739827
438 0.33421746936285024 0.6132803095995415
439 0.005331841561477257 0.18229104609523372
440 0.4311933541919224 0.041268672144036955
441 0.6602030143291999 0.30027060227157554
442 0.12423746825388682 0.4968877212447217
443 0.4031107405701052 0.7146137019603179
444 0.091452186819863 0.8904387372297374
445 0.6602349878328361 0.5617933197219375
446 0.9199272741100692 0.003757472334314227
447 0.6015714713184278 0.8395810079544523
448 0.18264416641917203 0.9224452431106525
449 0.5369045982092695 0.32931783113952195
450 0.9108910261197505 0.8743208541569832
451 0.4156921984832296 0.6314753542819307
452 0.9988649013548038 0.13155231803550804
453 0.4862214120707017 0.9523570530130671
454 0.2610197223940328 0.41698949031500576
455 0.6154470671810351 0.44318884595414854
456 0.33280700264722807 0.4205429193956439
457 0.5037111945672016 0.255261869483715
458 0.15749376409781968 0.5960598706153547
459 0.22408149184822967 0.040835554043555655
460 0.538346208593113 0.9564495308832747
461 0.9891156660236401 0.15126834212409423
462 0.9476789960139732 0.6429649978472082
463 0.9346027107793146 0.2647608769240004
464 0.7241157783930744 0.2820224016305094
465 0.14085140737610347 0.9470514708170926
466 0.173281697330965 0.575522088385629
467 0.011495648043164386 0.8160168532766323
468 0.4310103184279218 0.43299361918293855
469 0.45698660817772463 0.8189982457899425
470 0.8912552570809789 0.8254737133725236
471 0.8653771672330832 0.6363809453243356
472 0.8447116775281714 0.3536587654190586
473 0.7211859819595723 0.5383843717714676
474 0.773748735244991 0.31142024093038634
475 0.14263492721662752 0.8047910162782591
476 0.6306253620331854 0.2667224444250572
477 0.01778617504449398 0.7968398361659349
478 0.573831034814668 0.11609200972430667
479 0.026268152508008846 0.3588839729162059
480 0.3180754020542369 0.24008155152768873
481 0.5151656675985352 0.37465013242618994
482 0.9252134906132237 0.1205213722869527
483 0.6076730896754918 0.020258913343894625
484 0.3817869710878572 0.16606562528268975
485 0.33585906987933645 0.4436458736755131
486 0.990331065915654 0.02466601288749526
487 0.0468213592161737 0.31989532664317544
488 0.8396556721309161 0.9217311756748768
489 0.10580448390714003 0.822548178618923
490 0.5226036849027947 0.387832996387489
491 0.6280105245528279 0.42516969121244796
492 0.4458535448630514 0.9520674532428602
493 0.16763421377480325 0.20634896043150408
494 0.7517160664833814 0.033588193179287296
495 0.22331954357391326 0.7244595727093668
496 0.12450591490166862 0.6316897335949184
497 0.878133430412252 0.18449393092208655
498 0.9647707064881942 0.016618432071541345
499 0.7011186842764927 0.11748529544158981
500 0.8570788472384274 0.38951026097360353
501 0.8170429351002889 0.7489533078236534
DEMAND_SECTION
1 0
2 5
3 7
4 2
5 2
6 3
7 8
8 2
9 8
10 4
11 7
12 6
13 7
14 4
15 3
16 4
17 1
18 8
19 9
20 8
21 3
22 2
23 3
24 1
25 9
26 5
27 8
28 2
29 7
30 8
31 6
32 5
33 5
34 8
35 4
36 9
37 8
38 1
39 7
40 5
41 8
42 4
43 2
44 6
45 4
46 4
47 8
48 8
49 9
50 1
51 7
52 1
53 1
54 4
55 9
56 9
57 1
58 6
59 7
60 8
61 3
62 7
63 2
64 2
65 5
66 7
67 9
68 1
69 6
70 8
71 5
72 9
73 1
74 5
75 4
76 7
77 8
78 6
79 7
80 8
81 3
82 2
83 4
84 9
85 7
86 7
87 2
88 8
89 3
90 7
91 9
92 8
93 5
94 1
95 2
96 3
97 1
98 3
99 9
100 8
101 3
102 6
103 6
104 2
105 6
106 7
107 2
108 3
109 9
110 5
111 1
112 6
113 3
114 4
115 4
116 3
117 7
118 1
119 3
120 2
121 9
122 3
123 5
124 7
125 3
126 5
127 3
128 6
129 1
130 8
131 3
132 7
133 8
134 3
135 7
136 2
137 3
138 7
139 5
140 6
141 5
142 7
143 2
144 3
145 6
146 6
147 9
148 3
149 3
150 4
151 9
152 7
153 7
154 6
155 6
156 6
157 8
158 5
159 4
160 4
161 2
162 7
163 6
164 7
165 9
166 3
167 5
168 7
169 5
170 1
171 6
172 3
173 3
174 3
175 6
176 5
177 3
178 2
179 5
180 3
181 3
182 1
183 8
184 6
185 7
186 4
187 2
188 2
189 6
190 1
191 8
192 7
193 6
194 1
195 7
196 4
197 3
198 5
199 7
200 2
201 4
202 1
203 6
204 8
205 3
206 9
207 1
208 5
209 3
210 5
211 5
212 3
213 1
214 6
215 3
216 3
217 8
218 8
219 2
220 4
221 7
222 6
223 9
224 8
225 6
226 9
227 4
228 8
229 6
230 4
231 4
232 5
233 9
234 7
235 6
236 9
237 1
238 8
239 1
240 1
241 9
242 6
243 5
244 5
245 5
246 9
247 4
248 1
249 2
250 3
251 5
252 5
253 2
254 1
255 7
256 2
257 9
258 6
259 7
260 3
261 6
262 1
263 4
264 4
265 5
266 7
267 6
268 7
269 1
270 7
271 4
272 8
273 2
274 7
275 1
276 1
277 5
278 8
279 9
280 7
281 5
282 7
283 3
284 5
285 5
286 1
287 9
288 2
289 9
290 6
291 6
292 9
293 2
294 6
295 8
296 7
297 2
298 4
299 5
300 8
301 7
302 7
303 6
304 8
305 7
306 3
307 6
308 7
309 8
310 9
311 2
312 6
313 5
314 7
315 4
316 4
317 2
318 8
319 7
320 7
321 4
322 6
323 6
324 1
325 8
326 6
327 3
328 8
329 2
330 7
331 4
332 7
333 6
334 6
335 1
336 5
337 6
338 5
339 2
340 8
341 3
342 4
343 5
344 2
345 3
346 2
347 3
348 4
349 1
350 6
351 4
352 2
353 6
354 3
355 2
356 6
357 1
358 6
359 1
360 1
361 8
362 9
363 6
364 9
365 4
366 7
367 7
368 8
369 2
370 9
371 2
372 4
373 3
374 5
375 4
376 2
377 3
378 3
379 4
380 5
381 7
382 3
383 1
384 2
385 7
386 9
387 4
388 8
389 9
390 5
391 5
392 2
393 5
394 7
395 3
396 6
397 5
398 3
399 6
400 5
401 2
402 8
403 4
404 1
405 2
406 9
407 2
408 2
409 1
410 8
411 6
412 5
413 1
414 3
415 8
416 4
417 8
418 7
419 1
420 4
421 2
422 8
423 7
424 4
425 6
426 3
427 1
428 7
429 2
430 6
431 1
432 5
433 3
434 4
435 7
436 5
437 9
438 7
439 6
440 7
441 6
442 6
443 6
444 9
445 4
446 2
447 7
448 9
449 4
450 1
451 1
452 4
453 5
454 5
455 6
456 8
457 2
458 4
459 2
460 8
461 1
462 8
463 6
464 6
465 1
466 8
467 4
468 1
469 5
470 3
471 1
472 2
473 4
474 6
475 3
476 3
477 8
478 4
479 7
480 6
481 8
482 5
483 1
484 6
485 1
486 1
487 8
488 4
489 5
490 6
491 8
492 3
493 1
494 9
495 8
496 2
497 2
498 5
499 3
500 1
501 8
DEPOT_SECTION
1
-1
EOF
