NAME : gen500_005
COMMENT : uniform customers, demands 1..9, generated by bench/make_tuning_set.py
TYPE : CVRP
DIMENSION : 501
EDGE_WEIGHT_TYPE : EUC_2D
CAPACITY : 100
NODE_COORD_SECTION
1 0.05865392376682921 0.38166149842718466
2 0.2540136105639691 0.5359283333082673
3 0.1121383028548657 0.4660744366930316
4 0.49314851126544357 0.8080969531811025
5 0.19193260808839607 0.7343547106986874
6 0.9292205748815616 0.7814211104083467
7 0.5161788838118669 0.8170247337978686
8 0.3994949025828889 0.09665096863804046
9 0.8063457380978144 0.19481230067197175
10 0.11514009943907166 0.02068403555948728
11 0.03047568601930506 0.6156947280525671
12 0.17061133660205452 0.6727298198949501
13 0.07348998267069495 0.5170996753419776
14 0.6979558269153884 0.7162081551013676
15 0.5893136768790677 0.9522402329278113
16 0.5090711839585127 0.9503436191749458
17 0.5849580311308936 0.03229354951752905
18 0.9768580949370268 0.004412749692824014
19 0.8958107099148316 0.5821359232158425
20 0.5523989139304922 0.8765838435825286
21 0.9297427449956213 0.7032760887325922
22 0.1273427231091646 0.3350379766858488
23 0.21237862365664728 0.13442313612844115
24 0.4871779371137547 0.7940026880468141
25 0.6099082273838777 0.11257690564026757
26 0.549716912469568 0.1264064830001691
27 0.7888601662236218 0.8228317503176281
28 0.24159699597011086 0.08865136743560476
29 0.7254422227894157 0.9356260635093654
30 0.7323677892802088 0.7534870771682552
31 0.5277346973017388 0.6805364508536099
32 0.7589248722272817 0.3464610021773822
33 0.6139401447928244 0.7386581090669935
34 0.01586654541435184 0.010508575005406029
35 0.9051049542711179 0.6592236195952091
36 0.4153096972774346 0.9804218275075078
37 0.26743741239174357 0.48711362756671894
38 0.3701378388257959 0.9703402763295969
39 0.8010168484357308 0.5054311619692289
40 0.17518164371846845 0.8328647259763906
41 0.004968037813632864 0.22115303805395392
42 0.5137595644949341 0.2261886514487743
43 0.9283395964588464 0.826332629013048
44 0.9180933809186955 0.30346106464361
45 0.9190332259056126 0.41752826161562173
46 0.9348271327597074 0.57090272943412
47 0.45046891188620386 0.5592382061760657
48 0.8342013149736418 0.13879914899973145
49 0.8677919616512251 0.8631137618841105
50 0.38395165352256766 0.3694428219015998
51 0.24179134455468176 0.11102069882915278
52 0.9514683082226595 0.8703919335175878
53 0.39674863525392856 0.35029936321686295
54 0.5645885499038225 0.16300869331588486
55 0.7156175406699804 0.7288214929996262
56 0.6621633973787923 0.0005513182370588954
57 0.08555059691511835 0.5787698525443047
58 0.8208360018105758 0.570199539738567
59 0.7839145093166924 0.6513755649095461
60 0.8700599428064087 0.11277951834519762
61 0.6877641781551797 0.46265798147979764
62 0.8044341391963679 0.008764319518314467
63 0.9555884328329105 0.28537625634542974
64 0.5817732880446843 0.05324671052441865
65 0.44566627341302634 0.8154963857219151
66 0.571090666166175 0.9533594585043714
67 0.5740906813621647 0.8302488781164326
68 0.5844843688092249 0.8453531165876028
69 0.7204160098463351 0.12828251022343362
70 0.587102775161865 0.5297971118317332
71 0.4028255836010871 0.24902921192079397
72 0.8665829836384098 0.08054339615163009
73 0.336591492428186 0.018659108287901183
74 0.789231308956793 0.024812841481961057
75 0.18725191012705478 0.121223470530048
76 0.41113328754436274 0.7975768279325929
77 0.8816006600710754 0.29554348892640014
78 0.15570727724762434 0.840780837065409
79 0.9318169012056023 0.7530493413437841
80 0.8770752208054268 0.6827955399795721
81 0.041950136642741054 0.6422654659491761
82 0.24515376622977714 0.7744056498337017
83 0.7436506531287097 0.16548994318865273
84 0.49324983514781684 0.11425670391673837
85 0.484341974513368 0.25544128302126734
86 0.8058226391933884 0.10458080441097384
87 0.43779904013653614 0.1419765432433575
88 0.44419739496184973 0.5283062305277125
89 0.9201588039051259 0.4839682636990057
90 0.25801154852330765 0.27866421101527217
91 0.6913613449200828 0.9918210105338578
92 0.45079531163920805 0.8111466914316025
93 0.05095092847143112 0.9055127822730171
94 0.2979912060063675 0.3193082321059031
95 0.5318648191066814 0.7745699535777544
96 0.5468798395413896 0.5394967988082504
97 0.3885042454774612 0.3599322536741558
98 0.2195595738728 0.884369769534362
99 0.5447694591412943 0.43088907403370125
100 0.7922338374562101 0.9063059413415461
101 0.4424521079415782 0.615070916132578
102 0.007373060929755093 0.6556037219249382
103 0.842416385373924 0.670926222476543
104 0.4483075901525534 0.8759040749054898
105 0.23770453977413342 0.2321602951752968
106 0.38892134007365764 0.6522447851706781
107 0.3636225194181848 0.6435222040195533
108 0.07662226990548504 0.5974560971147445
109 0.5930283712511425 0.9089045016966664
110 0.7086547204914836 0.9186400752891378
111 0.9233704080933851 0.8984061774585901
112 0.3278234289786983 0.35483487263445557
113 0.8448113576741648 0.568105045676744
114 0.8179998772359537 0.6104497140674133
115 0.18377351739495384 0.4260670751166744
116 0.9167374434515922 0.9187953832977845
117 0.5993942477168053 0.14482794805705013
118 0.8199675258061949 0.09208190082781009
119 0.47567130840903327 0.7481305347667296
120 0.1891047064227971 0.2597311920860954
121 0.0918586007914497 0.19875973084387444
122 0.4211634404729687 0.7957660885842963
123 0.06828630790525747 0.26395201426726067
124 0.9920009535353641 0.8849731832788705
125 0.3486021510743247 0.5965296566629987
126 0.41450769657155173 0.3252499604978468
127 0.6918721569977332 0.3805097154091829
128 0.6419593099481627 0.2371116904142364
129 0.005551638254207902 0.6481596341572466
130 0.7479121086458572 0.12299922371478356
131 0.3321554950613772 0.28096494240867187
132 0.3642649680929325 0.6064769542700106
133 0.026784239006013677 0.5475600908060869
134 0.7405828854813267 0.7918376533726355
135 0.06616006686919762 0.1262655545633956
136 0.801376834948488 0.6214064351147288
137 0.3556317301411881 0.28654179987316675
138 0.6667569716017266 0.8350107687268559
139 0.9104301522750567 0.060939649267303886
140 0.05465772823498505 0.9315156873806556
141 0.5337306674506219 0.9340265063153037
142 0.0001105142090015443 0.6899551971788909
143 0.30727072799243416 0.6243328871939481
144 0.16467077209801695 0.05376268757074387
145 0.6855274705656587 0.6035379753220999
146 0.6839715834526258 0.7070455435658214
147 0.8515726660057348 0.9247018302438889
148 0.962130988188745 0.015078578605050907
149 0.6557885501711147 0.8993829092190306
150 0.20560985109320618 0.9493014443100902
151 0.8030363512312815 0.5042166658929117
152 0.2422005070592136 0.013030586304604519
153 0.6616655801835348 0.7934204532018182
154 0.13430884158589007 0.9726297688776587
155 0.4092543742109005 0.24777258214182551
156 0.7215684376885066 0.23036983277765422
157 0.8478746042026806 0.18646971077026753
158 0.11654511998415906 0.24302178881830272
159 0.9240528700627482 0.7081907231988083
160 0.7825835351144684 0.23073780788086895
161 0.6351475896224817 0.781432303311479
162 0.5888897778542709 0.6509581846780716
163 0.33676786098202005 0.9656482031441522
164 0.9520859395093968 0.7478129921881708
165 0.6461541316262948 0.6954387325616413
166 0.7354911929942658 0.973611220275586
167 0.10602860115667478 0.27485028238505427
168 0.9671675532723931 0.3310841141822265
169 0.684164041023897 0.23452350531169142
170 0.9303072211193386 0.0015269508266803067
171 0.23003851026022482 0.4858332636489032
172 0.025863833117272694 0.859344848100442
173 0.030798249850936932 0.26832748937206463
174 0.7968997282080251 0.3460280298234897
175 0.6111252030547765 0.6271032586632581
176 0.698057542113944 0.9418656855376263
177 0.9793494780429393 0.6088308208296741
178 0.9967532784257054 0.5542966651379453
179 0.690423426902102 0.7882012651635594
180 0.851647854837121 0.4563722848154308
181 0.3499784093322239 0.2555122824773237
182 0.9417936326393246 0.6913741250123535
183 0.4826373438389967 0.3512537201828697
184 0.492147961901227 0.15820471149350612
185 0.5061179210284845 0.11673312328255592
186 0.6105860575549599 0.06260570399330012
187 0.9309989669905536 0.49381885351246624
188 0.42815154494510743 0.3327537533364944
189 0.9472733076996108 0.7447501965226524
190 0.1873966202612034 0.5102403992893421
191 0.9591186204534955 0.07192827797287393
192 0.29023680974829 0.07321762654315389
193 0.002496177995366722 0.0455378908189118
194 0.12095374118721225 0.7932807726633662
195 0.452639401415146 0.5083388602048715
196 0.3508643301354827 0.8162028431967869
197 0.5245331709435834 0.3349988450169614
198 0.46831636025560963 0.2830272719338004
199 0.2566952968963535 0.32917132714358155
200 0.585253276735427 0.9659801888730999
201 0.9746187071485469 0.7502295134755417
202 0.04767283810824785 0.5546725193090684
203 0.38872504760872484 0.7495217291998643
204 0.19604607762433146 0.2139595697862361
205 0.2940900947428504 0.400548603457334
206 0.8867846246627396 0.8317742634741353
207 0.5018138457992704 0.898533926185535
208 0.39326471262636054 0.6828947494464057
209 0.27206881751458034 0.9051058640384607
210 0.8493447583049062 0.8399097533264377
211 0.444276372646788 0.743219028023396
212 0.23919302530264763 0.6554003876471565
213 0.20460504819564962 0.9379771798717569
214 0.6087494054550718 0.5097384538157755
215 0.05731481967417018 0.5929884514657132
216 0.6775316444274453 0.09833740633856813
217 0.49444008934592165 0.8407466465109098
218 0.5932159521841259 0.5717070874825194
219 0.2732411740691356 0.1325294684787991
220 0.9153499944869322 0.7446654611620627
221 0.5464994972392518 0.41190347813160266
222 0.9492078237276231 0.6271893937277698
223 0.29060619246697483 0.01631400608664202
224 0.9502135925593808 0.050448647731395124
225 0.1207625862459808 0.8177296213462433
226 0.7503806637240936 0.9121066068777793
227 0.4538365999655456 0.7750447246304593
228 0.6138890257486085 0.8833583600275149
229 0.16199562615768937 0.5881336624354403
230 0.6070201013372566 0.34374983521473257
231 0.2681963145990349 0.1173530229162536
232 0.0622864410899725 0.3447060351283546
233 0.6734857544829386 0.6909620094691525
234 0.34772893673253735 0.5384847007942779
235 0.14095541147564083 0.1403174872351357
236 0.39024819153018386 0.10525383090895601
237 0.13684756448855995 0.7065296875110413
238 0.5747583765133648 0.323614045301472
239 0.11312730233286605 0.22109937158623083
240 0.028206247956550357 0.1613814999120733
241 0.822656329568675 0.8527968789956721
242 0.5292372412130529 0.05836038456637482
243 0.3062902244239909 0.5217823022947455
244 0.6392800472557292 0.6755159848128889
245 0.6842968056536776 0.8839571974917738
246 0.11803000112395601 0.7311918221142865
247 0.15039379307483203 0.613892358121532
248 0.3322795169993149 0.8720023245787499
249 0.7312109708006088 0.6655053961991098
250 0.02205833112856692 0.855941251432166
251 0.9794818606708545 0.3895908263858773
252 0.81425992472093 0.16930457840853652
253 0.23390355254987294 0.7361571948864236
254 0.18469699484508084 0.8446360569907055
255 0.6118036907372246 0.6922035774744545
256 0.07249575792177365 0.12115130707685473
257 0.5689740130732791 0.4400423919768497
258 0.4357021586194638 0.517077117394867
259 0.46886815168419727 0.8875901104400343
260 0.9754228506186707 0.5088373849440737
261 0.07527304109180144 0.5880661923509407
262 0.2972640413823532 0.11507787365193245
263 0.8655884352648044 0.07513335064342097
264 0.13818469439374115 0.7241776459677569
265 0.6536379764106283 0.331061524403642
266 0.27234228968856533 0.6482259304426499
267 0.27441800856343246 0.3393867965080375
268 0.7038908335293222 0.730359097362453
269 0.1017589374550022 0.12009706000428666
270 0.8669800874405829 0.9374094147822363
271 0.3354365902526715 0.9940908881481818
272 0.687311168680342 0.6293897399986622
273 0.07925903935437273 0.4490908855437613
274 0.8835327243751436 0.09717174200236367
275 0.34392002362485286 0.032931293708096
276 0.5860196016155488 0.5933269701945644
277 0.5215770508537602 0.614636954907566
278 0.4970139530608766 0.8072232035893521
279 0.9236440440398146 0.7986880113266984
280 0.2532054678633474 0.5765050186750643
281 0.913821233975067 0.8583882458934133
282 0.31569465416629894 0.6443718666685422
283 0.8658169173921408 0.09215457498158186
284 0.16136879943190785 0.9143119425453733
285 0.5253643105107099 0.9035212115367689
286 0.8492847067444494 0.32595366627982003
287 0.7615075887951054 0.226907416983001
288 0.8969724421896919 0.03927733662712207
289 0.43693848723484296 0.7199608791908702
290 0.49446840047941376 0.41319663424764275
291 0.1687358478700599 0.14934071496969825
292 0.6321979545571509 0.5174160706820414
293 0.0770504415740294 0.5203328143404398
294 0.7116386199051082 0.6788523296743201
295 0.9857921558088009 0.9243330676154609
296 0.7144632642878807 0.6993617395176781
297 0.4904763673293554 0.04112340919469171
298 0.417869631471688 0.16419291287049986
299 0.09875895005186175 0.9459077398929376
300 0.5531234575640908 0.1433114025307639
301 0.9661129885989578 0.17605119267328773
302 0.058543601226263564 0.06579172401403555
303 0.7213528925759828 0.774210929892446
304 0.025713944625830987 0.34409493551508485
305 0.9210257794470275 0.5042610957248392
306 0.018704883426297725 0.654028089016715
307 0.15062589828999218 0.36064063631947585
308 0.31302337607144204 0.6166009734113789
309 0.27490241057440323 0.8336978037803211
310 0.9493209816423832 0.5952953170970158
311 0.005037909918310435 0.22780145865272405
312 0.7453435411446356 0.44546656381294736
313 0.426665169062421 0.8934501047326184
314 0.8116248531937359 0.45387084830433444
315 0.14116684183579686 0.7653990735154207
316 0.3706530641908826 0.3647254221304491
317 0.2779298271415549 0.9807297684936832
318 0.6001072744044766 0.9308218809031127
319 0.3707115741427175 0.11356104517640175
320 0.01832027415112658 0.47094919373391
321 0.20684571694872722 0.9693732516840009
322 0.9013788519190761 0.835658838172605
323 0.7748801268880812 0.30864211638581207
324 0.17625516289121101 0.2088627386480233
325 0.2723445157244466 0.7047196550437667
326 0.3853398851607738 0.6748709564507503
327 0.3973420887517757 0.7152360105403325
328 0.3042220273244345 0.6440721960838737
329 0.8651989670511974 0.515594815560214
330 0.08370839362752236 0.7463580397207785
331 0.47238669646948006 0.5800267652060594
332 0.7330276385109565 0.9580470985119695
333 0.108247468994641 0.02931926562006759
334 0.7902995685939108 0.8904029226144342
335 0.2197665293984601 0.23526060711901908
336 0.9404757166944059 0.9836878404305495
337 0.9063752460605395 0.6141264372523098
338 0.946983543578473 0.6074600514703884
339 0.33785248002275736 0.2748026417056777
340 0.5280208975616173 0.4997356010992826
341 0.02943999346748638 0.9636526912536055
342 0.25289856834578694 0.8049429510011883
343 0.7441229988228009 0.965784805406139
344 0.1151501424565019 0.3300791259686503
345 0.8755307590034727 0.31346756173187584
346 0.8223743172442279 0.9366402343931929
347 0.5784240582726519 0.01802024346049602
348 0.43706159944798817 0.6971138919046895
349 0.9210534211804635 0.7638741252624462
350 0.7036185928441402 0.746119888112549
351 0.8081890921273639 0.0017515249865356353
352 0.9146914040667975 0.9625151880686514
353 0.8732685188295062 0.0902709844882037
354 0.9003622659343669 0.06253904323900039
355 0.5939550308455337 0.26722352815364303
356 0.23087976857083903 0.16289030988784936
357 0.5807494044209187 0.08880707498444185
358 0.4846290085862416 0.37699992190711273
359 0.12856853687128755 0.2551945925672321
360 0.27391243773450735 0.6419810049514065
361 0.5691036619483377 0.6366112305643803
362 0.7380728698139164 0.15649229505783435
363 0.19850800259347123 0.6118171061851343
364 0.6653252374001682 0.039244751008875034
365 0.08810675585723671 0.9469284012346235
366 0.843559617765363 0.31425026640768927
367 0.14427675304191168 0.7101736200794886
368 0.16407038920536543 0.16859789681146164
369 0.5774019514313252 0.9951934033716586
370 0.7155273332996515 0.6843394494265089
371 0.7376838445284749 0.1239017339551417
372 0.7697694120107187 0.7780581624186963
373 0.3019381336449187 0.749589825827886
374 0.7172224656886569 0.2864572678581012
375 0.4016081153283273 0.3850008656548063
376 0.732751335728403 0.16550104214796313
377 0.44887782525661046 0.7896527183983622
378 0.42739122198052715 0.3137717583267695
379 0.24777737732419813 0.4309261515092907
380 0.10458918852093602 0.6275151563942685
381 0.3352474525869352 0.22847584607327232
382 0.45806237999081034 0.488302932392247
383 0.9331527000786705 0.09850544794065774
384 0.012548223151332194 0.7812252371171711
385 0.8500580991960104 0.8426073974373293
386 0.29358386673531145 0.9059228630493454
387 0.8877063283406517 0.7744242028093732
388 0.9395593221906106 0.5383625785164008
389 0.4095107749851723 0.8936616373251899
390 0.9073965836255506 0.09964329058347743
391 0.6249393442246366 0.17550058183247874
392 0.6764256208761767 0.26522488658503407
393 0.05662960609848322 0.003543526785182549
394 0.731677668771264 0.4553791571940706
395 0.8189021011705537 0.9958953598387497
396 0.26972517384105055 0.34938213436306065
397 0.1736731982628016 0.9957050088858952
398 0.14508200457142106 0.7640965212001175
399 0.14043464181068943 0.011385262598416324
400 0.12020717311875406 0.7972133906218
401 0.2987442251947803 0.7808509389410806
402 0.40329547045446157 0.9175443590565974
403 0.9172323321074816 0.528799577666119
404 0.18059760547954973 0.36127760835868217
405 0.32397715996489995 0.555416134408765
406 0.6850688868415229 0.2799571913104101
407 0.7929561014995384 0.4004587122378631
408 0.16675589321394224 0.8462238863278975
409 0.41543202675550084 0.3188179749474821
410 0.06982567056776023 0.38654317142651917
411 0.626378520853185 0.13155645206168254
412 0.4918906534603872 0.8157260332129209
413 0.8248069335802203 0.7216477446194419
414 0.6986130454501913 0.973748092150284
415 0.8846009351824998 0.45384815671073253
416 0.43109110952067786 0.20228961836726256
417 0.8245716377481312 0.021292668908327372
418 0.20085650728193694 0.22035055764248446
419 0.21631243130196998 0.14485245115299228
420 0.2348940955262543 0.9750819015816872
421 0.3730798138853971 0.9277997406843671
422 0.05436541932242844 0.7759463579364412
423 0.1705978003826195 0.03481371263486954
424 0.49744448978029154 0.16323712921344635
425 0.01943859596722497 0.47143112936747833
426 0.5236911910283808 0.42848111008545764
427 0.9432870947019191 0.14988396702683449
428 0.8158477041905917 0.478264415518738
429 0.20522678253493987 0.3164786462690743
430 0.8961303773563091 0.04510514946510402
431 0.16404882955771016 0.42561028354088515
432 0.24036340501720277 0.10812120700551331
433 0.3606923779088772 0.15840618505674353
434 0.04375264852680938 0.2493804280077171
435 0.38845314591595903 0.9412865741918509
436 0.21088366065107145 0.9366679743864353
437 0.586900997713263 0.13456979822596715
438 0.7600862851529808 0.6611111233204163
439 0.6347520206147813 0.620871839657231
440 0.9377275254463553 0.8472636816274842
441 0.35705755117124083 0.9034556034599885
442 0.35656099265526875 0.7285280431195145
443 0.534495806694243 0.5797311822350413
444 0.4752992696074203 0.45896118225009097
445 0.641615848290787 0.5385115407426406
446 0.4284696880658053 0.8727254452319237
447 0.7746508610058555 0.9069049698146936
448 0.7342352697477958 0.16103757233935534
449 0.24812599239209854 0.42226234291769804
450 0.22611498228137583 0.3058041201272014
451 0.29830116209788315 0.28080176474358187
452 0.11646814809855033 0.5309425510146026
453 0.7975366923968494 0.7375269390473818
454 0.8669672206822766 0.5488949993937418
455 0.007982806533972986 0.06302952221026148
456 0.4595128493537528 0.24044545063576905
457 0.8345448341056979 0.8298477123824348
458 0.7081142963309937 0.12354620276377093
459 0.4169968764117792 0.8871230078184212
460 0.4733493408220969 0.9758420027509779
461 0.4681133118995915 0.0862396073016084
462 0.5067006771262534 0.5450518437772371
463 0.3076425261887299 0.3379768080465432
464 0.5435349333405366 0.27669206203120533
465 0.6197917640729582 0.8529496595796823
466 0.3652465794603267 0.9151634558553553
467 0.8041925056882899 0.34925709638796754
468 0.36633584349071235 0.612769026941395
469 0.01071713987665135 0.32497000455603187
470 0.7559595891497105 0.7074420941378736
471 0.9449875646603976 0.5839808590438436
472 0.4930902988842055 0.7488046084779894
473 0.5559282165878033 0.02275084785455639
474 0.7151259478905697 0.010297775693406508
475 0.15328567259926396 0.05574948378858047
476 0.5456333331523466 0.9310543624024075
477 0.009094182416217622 0.65876301377211
478 0.31715249041397486 0.24871165399301043
479 0.22088523071683874 0.5889456711312686
480 0.7566074196351551 0.7464183939126117
481 0.5953250021310508 0.5414613445446699
482 0.7948773166860182 0.4297015872013399
483 0.1980827180619814 0.399783316085225
484 0.2892585114999844 0.13309869266434804
485 0.19645645923827426 0.4337488559470192
486 0.5537634385538102 0.13050160941713762
487 0.18517032609463158 0.17334603603568455
488 0.5794970020243356 0.764271852120664
489 0.5875048741375891 0.4580513540325565
490 0.10257386545614111 0.7844283363349325
491 0.8425885064465671 0.6719165683604483
492 0.1361424227005671 0.2699285399738953
493 0.10286825457839577 0.1187896289640551
494 0.5813080777376363 0.858247551060289
495 0.591031165512498 0.1375188643269687
496 0.5742162772284654 0.08603684759927566
497 0.1976747719986165 0.8949710506640371
498 0.24526200968600487 0.0053090503599919625
499 0.6961642672222331 0.08379139305118188
500 0.1610238361582017 0.6505088137566137
501 0.5730232385097721 0.5020326874659596
DEMAND_SECTION
1 0
2 4
3 9
4 4
5 2
6 5
7 4
8 7
9 4
10 7
11 4
12 7
13 5
14 6
15 6
16 8
17 4
18 9
19 7
20 1
21 2
22 6
23 7
24 7
25 3
26 5
27 3
28 9
29 7
30 7
31 1
32 4
33 5
34 2
35 4
36 3
37 6
38 3
39 3
40 5
41 6
42 1
43 1
44 2
45 2
46 8
47 1
48 5
49 1
50 5
51 5
52 1
53 9
54 8
55 1
56 1
57 9
58 6
59 4
60 7
61 1
62 1
63 9
64 7
65 7
66 2
67 6
68 4
69 5
70 8
71 1
72 4
73 4
74 7
75 3
76 4
77 3
78 9
79 8
80 5
81 4
82 9
83 5
84 5
85 7
86 6
87 1
88 7
89 7
90 4
91 7
92 7
93 3
94 9
95 8
96 5
97 1
98 7
99 3
100 7
101 1
102 4
103 6
104 2
105 6
106 1
107 4
108 7
109 4
110 7
111 8
112 4
113 3
114 2
115 6
116 5
117 4
118 5
119 2
120 9
121 4
122 1
123 1
124 2
125 5
126 5
127 4
128 7
129 5
130 9
131 9
132 5
133 7
134 1
135 2
136 7
137 7
138 2
139 4
140 4
141 4
142 5
143 7
144 9
145 2
146 3
147 7
148 8
149 3
150 5
151 8
152 2
153 3
154 8
155 6
156 2
157 3
158 8
159 5
160 8
161 9
162 9
163 4
164 1
165 9
166 9
167 9
168 8
169 5
170 1
171 8
172 8
173 9
174 1
175 1
176 7
177 6
178 2
179 2
180 7
181 3
182 5
183 4
184 7
185 9
186 6
187 8
188 4
189 5
190 9
191 3
192 3
193 7
194 5
195 8
196 1
197 5
198 7
199 6
200 9
201 4
202 1
203 1
204 6
205 8
206 1
207 4
208 7
209 2
210 1
211 5
212 6
213 4
214 7
215 1
216 3
217 5
218 1
219 6
220 6
221 9
222 5
223 3
224 3
225 8
226 6
227 2
228 7
229 9
230 4
231 4
232 1
233 5
234 1
235 8
236 4
237 7
238 7
239 7
240 3
241 9
242 2
243 9
244 8
245 5
246 3
247 6
248 9
249 1
250 5
251 9
252 8
253 4
254 5
255 4
256 9
257 1
258 4
259 5
260 1
261 6
262 2
263 7
264 7
265 8
266 4
267 8
268 3
269 3
270 6
271 9
272 9
273 9
274 3
275 8
276 5
277 2
278 8
279 8
280 6
281 8
282 7
283 8
284 3
285 7
286 2
287 7
288 2
289 3
290 1
291 6
292 2
293 2
294 7
295 1
296 7
297 8
298 5
299 3
300 2
301 7
302 4
303 1
304 8
305 4
306 1
307 6
308 3
309 6
310 7
311 7
312 4
313 4
314 4
315 5
316 1
317 7
318 4
319 6
320 6
321 2
322 3
323 7
324 6
325 4
326 8
327 8
328 1
329 9
330 5
331 9
332 4
333 2
334 2
335 7
336 6
337 3
338 4
339 2
340 9
341 4
342 9
343 2
344 5
345 4
346 6
347 7
348 9
349 2
350 4
351 8
352 1
353 4
354 4
355 3
356 8
357 2
358 4
359 5
360 5
361 6
362 4
363 6
364 3
365 5
366 3
367 8
368 1
369 6
370 9
371 4
372 1
373 4
374 3
375 9
376 1
377 7
378 4
379 5
380 1
381 5
382 7
383 4
384 7
385 9
386 4
387 6
388 9
389 9
390 6
391 7
392 9
393 9
394 4
395 2
396 9
397 5
398 1
399 4
400 6
401 6
402 4
403 2
404 7
405 5
406 7
407 6
408 3
409 6
410 9
411 4
412 6
413 9
414 2
415 3
416 4
417 7
418 9
419 8
420 9
421 5
422 2
423 1
424 6
425 5
426 2
427 9
428 2
429 8
430 8
431 5
432 9
433 1
434 1
435 7
436 3
437 8
438 1
439 2
440 6
441 5
442 8
443 6
444 4
445 5
446 2
447 2
448 3
449 2
450 1
451 4
452 2
453 1
454 7
455 2
456 9
457 1
458 5
459 3
460 1
461 2
462 6
463 1
464 3
465 7
466 7
467 6
468 3
469 4
470 4
471 4
472 2
473 6
474 1
475 3
476 6
477 2
478 4
479 6
480 4
481 1
482 3
483 2
484 5
485 6
486 1
487 9
488 9
489 4
490 2
491 2
492 3
493 4
494 2
495 4
496 5
497 1
498 1
499 7
500 7
501 4
DEPOT_SECTION
1
-1
EOF
