NAME : gen500_009
COMMENT : uniform customers, demands 1..9, generated by bench/make_tuning_set.py
TYPE : CVRP
DIMENSION : 501
EDGE_WEIGHT_TYPE : EUC_2D
CAPACITY : 100
NODE_COORD_SECTION
1 0.48761422989381387 0.25167796458966396
2 0.32183233382658816 0.135079959437431
3 0.5696446421667906 0.9948441373646553
4 0.40227874394548113 0.6444565006102013
5 0.2363610156808672 0.04301025137149961
6 0.8141727261388234 0.8522259081446645
7 0.18501240023792676 0.7231569641112761
8 0.21788940207206342 0.27514924858364387
9 0.2548959412789159 0.5991293456985571
10 0.45174524185562215 0.2844520928347549
11 0.5888532227763029 0.21581033364919244
12 0.5027498733006835 0.38524200297231026
13 0.2653577246108495 0.045616260423582355
14 0.816248003259936 0.32395253487515274
15 0.44898143927503875 0.7401655323234506
16 0.5593289730545159 0.21775099732659486
17 0.7222000108714823 0.16651894313038085
18 0.21375230629567699 0.7182775115870905
19 0.7761544220784994 0.7767680709846301
20 0.6801073620288589 0.9451979899086788
21 0.678525437548578 0.6644428724075173
22 0.3341165875412937 0.7140806654764354
23 0.801308110014591 0.9923136841078725
24 0.9125526053939674 0.9994476106751828
25 0.3538732078506258 0.5440483272522894
26 0.0808734964845873 0.002556261804580018
27 0.6776981686174232 0.8195769374405846
28 0.6505150140392257 0.16484879656964702
29 0.12494722608588826 0.6772609835517496
30 0.8083090562487598 0.05824144857202995
31 0.6413620828495347 0.6034931680393297
32 0.7704380962599874 0.8023901382914056
33 0.058835905517011455 0.9228499407711488
34 0.21199108248868714 0.41034137542340654
35 0.47194200009619025 0.807553690981089
36 0.40626370584491467 0.8270027109421256
37 0.6662453797842685 0.9523459944647137
38 0.7934509508376875 0.9654532085343427
39 0.36916022485269984 0.891383074546909
40 0.40899924440256097 0.3911129189307089
41 0.9720267597471022 0.8836340273127948
42 0.12534695279351404 0.4181508180647573
43 0.9136897215009389 0.40542552638250007
44 0.7641734223301783 0.3445109729698641
45 0.8702634972786757 0.8153491779402309
46 0.8173124308278273 0.1177078900284464
47 0.49120669020714414 0.6210941649029981
48 0.813675766422062 0.6344251334644835
49 0.36997527554659126 0.6633599451008999
50 0.158036187778672 0.15947072024575082
51 0.685041151882407 0.17520982272019325
52 0.379117490202054 0.9730338012625378
53 0.9705896994594143 0.2995060532307593
54 0.9581235148040919 0.7794845103118416
55 0.9424696448268545 0.8705930051296116
56 0.07086034472356151 0.02316611625101317
57 0.7849816002508301 0.996306294985197
58 0.634412140352905 0.09370060231996458
59 0.28619521893953326 0.9560828252885124
60 0.7933631520039682 0.7414108171482247
61 0.1831287791794366 0.6868242679379412
62 0.14255461636212408 0.8821130502834366
63 0.9081537676230869 0.9946898880682042
64 0.9935948972571375 0.8952873264288752
65 0.0059773926165227476 0.5776141128405977
66 0.8029786421355782 0.6705215414776846
67 0.7768285420581096 0.7612511396916442
68 0.9730758542348331 0.05580135036064726
69 0.8018066335935115 0.9981238530031802
70 0.04880942142288591 0.8026930027968292
71 0.05105853984234976 0.7785350019622357
72 0.21258583594137914 0.03310058540896055
73 0.22899566694304252 0.7727672400852488
74 0.30344988891502733 0.21381274969485475
75 0.5043160492342382 0.5413864109331058
76 0.4791689850680969 0.461710399122777
77 0.2367372491046994 0.4039791042600803
78 0.29538535594353954 0.24051372801507476
79 0.28471727411976544 0.47230200293680635
80 0.8686381684069833 0.294117595848698
81 0.10932668529300116 0.47771423948429115
82 0.0263064381440673 0.20389438464385556
83 0.8689431842396378 0.9749299343543848
84 0.1905058252441033 0.8907977305390915
85 0.28508277599030274 0.02149126290324388
86 0.4667686482977573 0.3601245407910667
87 0.679147360145549 0.6272426854955395
88 0.43097437759003887 0.6992095102942035
89 0.31896930084957265 0.6835411354912609
90 0.9306833339866588 0.789318344708904
91 0.2630787653939126 0.43729207750276367
92 0.4316594625149789 0.796873014843182
93 0.8065613635560296 0.1440361779600009
94 0.7851542446448591 0.3578146242579957
95 0.07481857179442264 0.05529507895736141
96 0.08519404857616553 0.6950346486510003
97 0.8796872244782438 0.9001217916003627
98 0.9790021904616776 0.2986464240700296
99 0.322498830779988 0.2722875909316681
100 0.24431957311606856 0.11310523105148196
101 0.9768388526257715 0.6500478923770824
102 0.29461083986595527 0.8128731393356358
103 0.6638534961614032 0.0252917456473567
104 0.8933626392543923 0.07779526369884426
105 0.974505311946422 0.33400120312017934
106 0.7225474676378532 0.01429407997825205
107 0.38824094906351103 0.3151278575383232
108 0.6107502272202983 0.8760101175018473
109 0.26805115242334243 0.33684200726827473
110 0.08339662899829892 0.29465171918117317
111 0.6134309653942474 0.7197951889008396
112 0.8289856275413341 0.41049776340487887
113 0.7183052261667773 0.9297883356248733
114 0.673496996954884 0.36819985145627054
115 0.0793791350809584 0.9739194930893579
116 0.5018049183573503 0.42019967619211185
117 0.39838729069297707 0.40299784171895603
118 0.16998555706707874 0.22288903210746636
119 0.34670529665104743 0.5556828957838202
120 0.1705355973477506 0.4423871965817401
121 0.3976153441675233 0.3669495152044022
122 0.583203663919796 0.5819264654953162
123 0.23700106605312632 0.8008136228498837
124 0.8227153731159248 0.024507661910156853
125 0.8362192781429928 0.7471865137389042
126 0.4073220285129855 0.7760289978586816
127 0.6277669419194476 0.7568774115598299
128 0.5055783321476301 0.6075135093932791
129 0.06260899310029566 0.5224862467431569
130 0.5160404493682713 0.4041915385496472
131 0.6817708626207207 0.6348749417138311
132 0.6084346131759282 0.9393629842825479
133 0.37631267334779606 0.1304718079835112
134 0.7389390432765195 0.19861121730569764
135 0.9915106455378825 0.5529903874132183
136 0.7888263827403436 0.14095508889290154
137 0.846064565842955 0.41758468308204455
138 0.4514537290377426 0.5504724574770109
139 0.3471743869226286 0.2236244740601786
140 0.11103853031782618 0.9755318422540933
141 0.15702133771270887 0.3083455253309486
142 0.7765693472678517 0.05415472695189205
143 0.7240795623697405 0.4769831668099147
144 0.8646201582564668 0.054689739274796256
145 0.6019471351898202 0.9377298466731582
146 0.21768142636387255 0.1122573905280132
147 0.7907584749459564 0.8095991250271264
148 0.03692541672441807 0.9246839552868086
149 0.464494886370037 0.5661621722576623
150 0.47045773600913865 0.2050471438158068
151 0.01522276742421158 0.059395847207751706
152 0.9865669260304728 0.2100028154588861
153 0.9949394306077026 0.7958387164316755
154 0.7181304050388815 0.4228289758082099
155 0.172701493451907 0.979993956664382
156 0.7052964439766889 0.11175653423698939
157 0.039824780533060045 0.8106566437600151
158 0.26197067754922876 0.524970485233737
159 0.1135991920140258 0.5154146376979835
160 0.8056800172547471 0.03701788261005112
161 0.3452582967919894 0.12476446543709618
162 0.24380614115391808 0.13049986583538398
163 0.358844593091154 0.35266664090853916
164 0.5247983873168258 0.07616450786184714
165 0.019457866523623135 0.05907106917550409
166 0.123341580751819 0.8195739018115934
167 0.13007417099052687 0.7126636766983243
168 0.6329109765778439 0.5937028427827044
169 0.863375070525867 0.4927612065796585
170 0.9793581422256029 0.7602100270568576
171 0.11725070343249266 0.5714155607438908
172 0.3902173762449812 0.6278509475588009
173 0.9415731203855848 0.29747031381143296
174 0.1557963496737248 0.6182568217117613
175 0.9648651669169416 0.33770833144052104
176 0.27999151236465525 0.3824751664534949
177 0.49764944672251543 0.8783615097662383
178 0.9801039562380242 0.03564782383364151
179 0.4264761452255307 0.21075880731558727
180 0.39514858599840097 0.9439994444626871
181 0.6277965391545796 0.6745401640312864
182 0.28115133244312374 0.5464226280859108
183 0.07634313154547856 0.8484135572947569
184 0.1589572512452072 0.4074060288785305
185 0.21566324976761608 0.68727247798647
186 0.6097389264589873 0.7114168675567146
187 0.9847897237868166 0.6757971642911352
188 0.2720899822092352 0.2421721292795218
189 0.3003399603013017 0.27198727805461387
190 0.7739723200568152 0.29073205653570244
191 0.622331121460795 0.8786168305594
192 0.8118253726917859 0.6668373781806287
193 0.2988682675688702 0.6660200800374614
194 0.46477407889080713 0.14621192292182306
195 0.44204402934957854 0.7913685102545492
196 0.7136946610750681 0.9763163692157042
197 0.8293340325002894 0.3628892866533684
198 0.8562361960267378 0.9726055498116281
199 0.2625322154184504 0.7832952645156739
200 0.33132345131119356 0.3789222082171976
201 0.6797154914420033 0.9910151870660856
202 0.7317305815767002 0.13115071976582438
203 0.9035063910246793 0.10642873765647531
204 0.03425576278156017 0.12917868278469902
205 0.5120032131101369 0.511534215088645
206 0.027649900082239998 0.733668350945628
207 0.39223850180528097 0.5866180771068815
208 0.39037197946237157 0.6364593720724891
209 0.4517436718328971 0.446644132276237
210 0.7021123649257364 0.7067454860178669
211 0.6998491735558786 0.07618755552515244
212 0.6923333925607278 0.2290828780265206
213 0.5672597266875906 0.5146814847138704
214 0.623110319447583 0.8388001720103019
215 0.41106929011408055 0.17642265098591436
216 0.5439904352725053 0.6311217832640077
217 0.237056420463163 0.3488141800791571
218 0.30252676560419334 0.15358278953607551
219 0.19125055103997968 0.6257746632805511
220 0.8623150546324964 0.07678584903314989
221 0.6718519150968195 0.9396552669889887
222 0.3494848566196541 0.665497006588209
223 0.6799454982702821 0.1333943750492934
224 0.6553494145388442 0.7451684348585702
225 0.9801143466015307 0.7221780065382164
226 0.34740522412645347 0.4345829833545004
227 0.5297056005338545 0.8569294612058758
228 0.688186031631138 0.4435824291229642
229 0.006982346368282211 0.10778683637876008
230 0.8658806327641724 0.16404685342882086
231 0.5525546419767048 0.5060369703520395
232 0.27106663145473064 0.1695569832645346
233 0.7362273532972776 0.4611734668562114
234 0.8713867899689793 0.5301169589955645
235 0.6372384707913709 0.18423480584370078
236 0.011505635862462227 0.7974507814158225
237 0.4231055986991753 0.7624514240871818
238 0.7010257397186618 0.855237842168355
239 0.931785561161587 0.1985858977493027
240 0.07516806697035805 0.41895855675899474
241 0.9682824929081066 0.7790080453792432
242 0.005307755877243525 0.3159061888398934
243 0.5182644861491468 0.2776240675070907
244 0.7819190598537389 0.30677447973788263
245 0.052702732250723305 0.4834490007529312
246 0.09752240219996522 0.6899632942886337
247 0.36918942765081486 0.5502870822932101
248 0.431978963326072 0.21531453501115705
249 0.36763160450979104 0.9208721938093493
250 0.5715328780176316 0.11117442728349491
251 0.4240432219465792 0.19195134821873427
252 0.35633101819062796 0.5823435280157998
253 0.6400919786381497 0.07606239877953125
254 0.23597573472114952 0.20298970737486965
255 0.30249651142434286 0.14901828140344398
256 0.1528340509341286 0.4298237506817456
257 0.9615840135469955 0.7149479222183132
258 0.8835853462372875 0.6648084368923167
259 0.6711279550882271 0.17798861552919465
260 0.8532541597783447 0.434114519847155
261 0.26934809207617627 0.5281940242366647
262 0.1352389578350719 0.01636611655053699
263 0.46903344618028076 0.15939247448377236
264 0.08762125447187685 0.06007241774270311
265 0.6777126340745048 0.3027298701504414
266 0.5340758643025155 0.5880998866596272
267 0.3920321655269561 0.5226422223739356
268 0.1752157841070453 0.7536301883551648
269 0.12301282172190064 0.5116941836204854
270 0.9009162528886527 0.10946667434599333
271 0.9919417175911082 0.3200436200179636
272 0.2098252037678493 0.214720498405513
273 0.32571478157542944 0.41532429017018724
274 0.9304229136394454 0.758390595843083
275 0.20548246844707974 0.9090460378964121
276 0.08260804543412437 0.4532876231825351
277 0.24348447894402836 0.865672845320258
278 0.9569937178062665 0.4272435201522937
279 0.7970496459446021 0.027926469070610693
280 0.2144115302887959 0.07359644948322908
281 0.20877492520984509 0.4649721646551256
282 0.12431773571936977 0.707713399499334
283 0.06427731717112972 0.30703719631599746
284 0.7524294254601935 0.9421174359608675
285 0.23890256724149683 0.2952159449230477
286 0.9546814670633993 0.7288966195380242
287 0.00512937009108827 0.9153426861504882
288 0.9330283813758803 0.644772605938681
289 0.7186017778216347 0.4558504288876004
290 0.8792282332872052 0.3582728214725305
291 0.20696859720959837 0.6369643311031754
292 0.602106582230993 0.26462656110498184
293 0.32402106974557454 0.6895358630171047
294 0.5454563416768426 0.9447542045867491
295 0.06126809483675788 0.11026883331461423
296 0.8421811119159084 0.7030492368014165
297 0.8899417564851156 0.19619788124379478
298 0.714110938551773 0.7927564323521704
299 0.6756975684826252 0.5958281370538154
300 0.9458437786589874 0.7632471606663701
301 0.3003216903483148 0.49225826512054616
302 0.46847190286564466 0.7666846880055258
303 0.7899928770700401 0.543781781643295
304 0.17255707621377347 0.20004886623831808
305 0.449959402207295 0.7785169720929899
306 0.332352923026893 0.7083570969479529
307 0.36872295645423314 0.3650971754598581
308 0.9925518790131287 0.6163263681014683
309 0.9721536840701016 0.6820218114214385
310 0.30667464287239543 0.12358980449095036
311 0.22011404783699984 0.6745075439436203
312 0.5120717559496798 0.8401310554229023
313 0.6107027632691082 0.019087224833352234
314 0.4232805214718355 0.43825780916716606
315 0.8404240743906498 0.1062479420923983
316 0.3423511070232754 0.642028279197369
317 0.8115183122831416 0.14459892722230905
318 0.7258512793595341 0.03129832527086562
319 0.7528693836663979 0.514382494585
320 0.3273738020829632 0.8421407713353395
321 0.4526557201498048 0.5881129061776224
322 0.7541013620281172 0.5873801262429499
323 0.5054766691063665 0.6076091133518635
324 0.007617535069826653 0.8201221690338257
325 0.7949692104526274 0.8951346708803185
326 0.39482615559975365 0.7431965523435633
327 0.4289439527705591 0.5598290253356786
328 0.44146704439426043 0.6284924190773754
329 0.483145898328746 0.7527062195151929
330 0.31369703485076983 0.35249130656973005
331 0.49237480701528324 0.1356985752227332
332 0.6519856704446568 0.7703775620130274
333 0.531878529515111 0.20190409792616903
334 0.14016688113819664 0.7007551622683362
335 0.7152442011426635 0.04972206751811126
336 0.5118682971007723 0.6014927445255915
337 0.7879108006567248 0.014850127784690637
338 0.6701964648283938 0.23190443774991498
339 0.7003810332711644 0.31368117061129686
340 0.4391221625872094 0.37102972382357746
341 0.6326122709553201 0.3213097940801084
342 0.35953663172567196 0.9196717167384284
343 0.4364302573455462 0.9692431775012296
344 0.2179215010977823 0.20809584843700124
345 0.0819661159567796 0.25417118217637136
346 0.16806768374892234 0.3275517999377
347 0.8716634761222131 0.9090568747666927
348 0.06484467073922784 0.9012573898456271
349 0.2083707583111719 0.5880946088837553
350 0.9094261547431322 0.04332049048684139
351 0.22867153056254796 0.7978635611102358
352 0.8834691983234119 0.2810619595063286
353 0.6288548638626421 0.8553452750404797
354 0.7132585076862692 0.6803820357079422
355 0.4899167251263743 0.5913216840331167
356 0.7534738640778897 0.6596944943540586
357 0.4045865601442309 0.35985158289560615
358 0.3307126989210064 0.3311402760823191
359 0.5355963338969726 0.27644202306540866
360 0.6566385084436173 0.3166458706826296
361 0.2582394020619513 0.6848224620893346
362 0.1835369550370446 0.18062056285247796
363 0.3113244904232907 0.688193774783427
364 0.7182024152345357 0.8228656282685679
365 0.9598608895919495 0.3451069049024247
366 0.6299223004931352 0.8206409113383267
367 0.7215772109553146 0.18031628167565938
368 0.06779973079361401 0.16820029552609383
369 0.07868608569856694 0.8001017575505853
370 0.6961103521928073 0.1965703140750189
371 0.18661601024600005 0.04321577980739966
372 0.3034313617798283 0.09532179985502454
373 0.9582128049015031 0.33256468254695815
374 0.6343424956053204 0.18306098388554726
375 0.4815001751714767 0.4654870762962148
376 0.8579868049027803 0.01273929488353076
377 0.35077658964923975 0.6463628579085595
378 0.8365696688402411 0.03205677041419708
379 0.617035012727616 0.08230208943962602
380 0.8465952554791973 0.6662611306264732
381 0.07964448804754587 0.6361292411877191
382 0.20141752534271817 0.6298423949095233
383 0.6138450480171552 0.9664647392494495
384 0.6874655079868407 0.13644711364882023
385 0.7398021803539538 0.6955269524020834
386 0.9660117892280868 0.48046131860950714
387 0.12071493623674923 0.3056498974487768
388 0.7300796252616667 0.44301570720152406
389 0.4489586366745606 0.6293258470753502
390 0.16410939303430216 0.4740999914857589
391 0.6303560252600264 0.9711102663964338
392 0.321884224396186 0.8160523913723925
393 0.3641719267000395 0.022386551611950467
394 0.9383537061579119 0.7272857917951997
395 0.3034276285899564 0.37777336934163164
396 0.8904001432056432 0.5884967482642126
397 0.1943657532779517 0.9953474447249888
398 0.7537702243291995 0.9234227060100391
399 0.9836275159160939 0.8605966515588709
400 0.6785736467086424 0.006881310116953365
401 0.2504257926183815 0.6798934559252073
402 0.7202323520288764 0.8350634407474701
403 0.11150103796723376 0.40173471824015317
404 0.4744252686764896 0.9324879165780691
405 0.5102119754799066 0.5547943986795167
406 0.36265759830929123 0.8245147489910643
407 0.4363263058633968 0.5226526090772043
408 0.2555767643459764 0.9841627756840019
409 0.18316653162706498 0.2691371561943374
410 0.8060512532182978 0.8358031787794643
411 0.583303120194997 0.318406815425624
412 0.9009210206260616 0.6941983725965779
413 0.11890476832449237 0.32727197002212294
414 0.62108260828684 0.863765524421327
415 0.7971931969534509 0.4345361269627197
416 0.46955197013950223 0.6387765257920508
417 0.9176169730070262 0.3542154035548899
418 0.040831744597462305 0.27871068746910654
419 0.9086801208005526 0.47689424993778273
420 0.6886193485966038 0.5686490746463452
421 0.9732690570543935 0.2352813488138219
422 0.505384853028152 0.8903273261119068
423 0.8792645455515852 0.2732154299074112
424 0.7103044352304398 0.3423329781753558
425 0.1835197546495171 0.31429105376545696
426 0.6525656297021556 0.9317012173919662
427 0.40562892446393595 0.2666986393858026
428 0.1766171456184884 0.19117612194233102
429 0.3223219128484356 0.4233438016777983
430 0.954166000979797 0.2157484620858402
431 0.7112514768035801 0.8029612049914722
432 0.4354174067658715 0.026282218106051802
433 0.7769760503430593 0.9576904410981355
434 0.3004512080948386 0.3962943421196494
435 0.6048219411244719 0.925762290808012
436 0.9359796443002523 0.29855785956741343
437 0.798251855110258 0.09703774975868174
438 0.4959669948912182 0.45965993511341363
439 0.895595055068177 0.5855052348470353
440 0.45062678244815324 0.5680727920816891
441 0.6573252192823957 0.4405798544962054
442 0.5694214390413604 0.04662735767275683
443 0.21091940917157914 0.7474026229821654
444 0.5590585147533905 0.11669536768813782
445 0.9042119549074306 0.005103984188774557
446 0.32737721979081646 0.5861905209836537
447 0.29348203596414935 0.3385823060907893
448 0.7360939114948395 0.7673893914508733
449 0.08994358239549716 0.8070368368568408
450 0.049007494538189755 0.6270344819767625
451 0.10700813637463336 0.38574276707498456
452 0.884127073281767 0.2741674829761759
453 0.24896502675664922 0.6809796967764179
454 0.30324840068741454 0.21758437917617612
455 0.7788370829533077 0.8576518070507148
456 0.795045369308056 0.22478299280107827
457 0.1491114931662072 0.8666702050281276
458 0.0311224137466507 0.4367701832195068
459 0.557012939033097 0.6355218038340762
460 0.5623497078819235 0.17404716343775617
461 0.3635754422481057 0.07880455205531656
462 0.8751298666636158 0.5838356097783989
463 0.8349208305720379 0.3552411567418895
464 0.5098910089909366 0.8357750266430516
465 0.8724395223454096 0.5368021321094215
466 0.4987897010810871 0.3039072100577114
467 0.9000436983985244 0.7536245069824795
468 0.6462450421399685 0.22562416657342987
469 0.3744813651432599 0.570424602106305
470 0.9058015315042627 0.4075568386904749
471 0.7631629385714257 0.04387335112952162
472 0.4161932948908348 0.7864835768520793
473 0.6169521188778009 0.5535608727895204
474 0.5756653459967211 0.02674294060663951
475 0.48963066066221705 0.19451234960599373
476 0.32929388086523337 0.11956194809699006
477 0.2284039512567606 0.8712800508105004
478 0.1901177531133561 0.5078328025431564
479 0.10272649006856516 0.6023613436966057
480 0.29314588197995595 0.6539141945624128
481 0.23641840732081798 0.7347974516553051
482 0.6242934408265955 0.672979336400564
483 0.13952057034078758 0.2057281050262545
484 0.22782445613022817 0.5189826950541399
485 0.34463914953646946 0.9799373031879567
486 0.26606578397537584 0.30815162882429326
487 0.03096592509048135 0.40564462515458866
488 0.9922425146300756 0.29477956346797296
489 0.48358814182749943 0.9257242239815575
490 0.4488802784112429 0.5759073181779736
491 0.7294377386054375 0.03292845789634269
492 0.2165206569550301 0.23495594656896968
493 0.20379883426218537 0.40195744511571607
494 0.17391016164098194 0.8738177579128795
495 0.6716380486556173 0.2236800116931691
496 0.6079558141497104 0.8150494410097363
497 0.5315352843560402 0.8640397234830011
498 0.9013646233154655 0.7406465960598346
499 0.21543117777853926 0.8445022384616729
500 0.5344215095448629 0.10928845672577103
501 0.631543143310413 0.2996069014159729
DEMAND_SECTION
1 0
2 5
3 7
4 8
5 5
6 7
7 7
8 2
9 2
10 8
11 4
12 9
13 1
14 3
15 7
16 6
17 1
18 1
19 7
20 7
21 8
22 5
23 6
24 7
25 4
26 6
27 2
28 5
29 8
30 4
31 4
32 3
33 5
34 1
35 7
36 3
37 2
38 2
39 4
40 2
41 7
42 7
43 7
44 3
45 6
46 7
47 2
48 8
49 5
50 9
51 6
52 2
53 9
54 3
55 6
56 7
57 4
58 8
59 1
60 1
61 1
62 7
63 1
64 9
65 8
66 9
67 6
68 9
69 2
70 1
71 5
72 2
73 4
74 5
75 2
76 4
77 1
78 5
79 9
80 7
81 4
82 2
83 6
84 3
85 1
86 1
87 2
88 2
89 8
90 3
91 1
92 7
93 7
94 9
95 5
96 1
97 6
98 2
99 4
100 9
101 1
102 2
103 9
104 9
105 3
106 4
107 2
108 4
109 6
110 9
111 7
112 9
113 4
114 9
115 6
116 8
117 6
118 1
119 8
120 1
121 7
122 6
123 6
124 7
125 6
126 4
127 6
128 6
129 1
130 7
131 5
132 9
133 2
134 9
135 1
136 9
137 9
138 9
139 7
140 5
141 9
142 6
143 5
144 9
145 2
146 9
147 1
148 8
149 1
150 4
151 6
152 9
153 1
154 6
155 4
156 6
157 8
158 2
159 4
160 9
161 9
162 8
163 2
164 3
165 6
166 4
167 8
168 4
169 7
170 6
171 7
172 5
173 7
174 4
175 9
176 4
177 8
178 2
179 5
180 9
181 2
182 4
183 8
184 7
185 6
186 2
187 5
188 9
189 9
190 2
191 4
192 7
193 9
194 1
195 1
196 1
197 8
198 5
199 6
200 2
201 1
202 9
203 5
204 9
205 8
206 1
207 8
208 2
209 1
210 9
211 2
212 4
213 7
214 6
215 9
216 6
217 8
218 4
219 4
220 5
221 8
222 1
223 4
224 2
225 7
226 5
227 5
228 9
229 1
230 8
231 7
232 8
233 9
234 8
235 3
236 9
237 2
238 8
239 2
240 8
241 4
242 5
243 8
244 6
245 7
246 5
247 4
248 2
249 3
250 8
251 2
252 9
253 4
254 3
255 9
256 5
257 3
258 8
259 4
260 1
261 6
262 4
263 5
264 2
265 9
266 1
267 7
268 6
269 4
270 1
271 6
272 7
273 3
274 6
275 6
276 6
277 5
278 6
279 7
280 5
281 2
282 1
283 6
284 4
285 4
286 8
287 2
288 9
289 8
290 7
291 5
292 4
293 4
294 3
295 8
296 9
297 3
298 7
299 1
300 7
301 1
302 4
303 4
304 8
305 5
306 4
307 6
308 7
309 7
310 1
311 7
312 7
313 5
314 7
315 6
316 2
317 6
318 8
319 5
320 3
321 7
322 2
323 5
324 9
325 6
326 9
327 3
328 4
329 2
330 3
331 3
332 3
333 1
334 7
335 6
336 3
337 5
338 7
339 4
340 4
341 2
342 4
343 5
344 1
345 9
346 4
347 1
348 9
349 1
350 5
351 6
352 5
353 7
354 7
355 8
356 7
357 9
358 4
359 9
360 4
361 2
362 7
363 5
364 9
365 5
366 4
367 7
368 7
369 3
370 9
371 9
372 5
373 4
374 2
375 9
376 1
377 6
378 2
379 5
380 1
381 7
382 6
383 4
384 3
385 3
386 3
387 3
388 8
389 7
390 5
391 6
392 8
393 6
394 3
395 4
396 8
397 4
398 8
399 6
400 9
401 4
402 1
403 5
404 8
405 8
406 4
407 6
408 5
409 4
410 8
411 5
412 4
413 5
414 2
415 5
416 1
417 7
418 2
419 5
420 6
421 9
422 3
423 1
424 4
425 9
426 9
427 2
428 5
429 1
430 6
431 2
432 9
433 2
434 5
435 8
436 7
437 2
438 4
439 3
440 6
441 1
442 9
443 3
444 7
445 3
446 1
447 9
448 4
449 1
450 3
451 6
452 8
453 4
454 3
455 4
456 2
457 6
458 5
459 2
460 2
461 8
462 4
463 2
464 1
465 9
466 5
467 1
468 1
469 5
470 4
471 5
472 5
473 6
474 6
475 1
476 9
477 7
478 9
479 8
480 8
481 1
482 9
483 9
484 5
485 8
486 6
487 6
488 1
489 5
490 2
491 9
492 9
493 6
494 5
495 9
496 6
497 6
498 4
499 6
500 6
501 3
DEPOT_SECTION
1
-1
EOF
