NAME : gen500_004
COMMENT : uniform customers, demands 1..9, generated by bench/make_tuning_set.py
TYPE : CVRP
DIMENSION : 501
EDGE_WEIGHT_TYPE : EUC_2D
CAPACITY : 100
NODE_COORD_SECTION
1 0.6937586004751551 0.6983311816705142
2 0.8489960790780321 0.901990375040101
3 0.4652686435727653 0.9008694739822978
4 0.46159183632021017 0.09945142448684208
5 0.8174872144668144 0.17317226427471755
6 0.24376241514568342 0.4805961091010562
7 0.6020394352489918 0.8280125666917871
8 0.2802169198099287 0.7356576075184741
9 0.11241326671354135 0.05549581815411031
10 0.04651593001589094 0.5347852415033247
11 0.4197634961431256 0.5525420152930492
12 0.0009203206845082024 0.4172295607906419
13 0.740667710562827 0.8677500918461934
14 0.5295867635105868 0.12280477275740098
15 0.407629107067367 0.5972730238609458
16 0.9817550673526527 0.5491678801127653
17 0.9271856992895736 0.4351175195890873
18 0.3517770216100945 0.2524414861813803
19 0.26430544945818657 0.43804194176503886
20 0.36596129534580824 0.1390586268505033
21 0.48034987543530583 0.7463006769436831
22 0.3099737958995735 0.5554060615663756
23 0.14397001111243002 0.7233936123928072
24 0.2256356343232242 0.7365061837890278
25 0.9545205942097891 0.40448007245826845
26 0.33497339648402913 0.45759697784306164
27 0.6297790389910629 0.29686769040422
28 0.5477043480306463 0.05300353564923588
29 0.2700390409109241 0.2410782335111169
30 0.29833119460260604 0.7563221305609876
31 0.20297007563942415 0.1485140746085264
32 0.9041915525008934 0.2413015626331928
33 0.11159680294796603 0.649715059493407
34 0.03657552423703192 0.6155818352389895
35 0.08523336452220953 0.41961231521506537
36 0.9274243340462921 0.21151766157432395
37 0.7489287268880216 0.5747298997396257
38 0.011954631318648157 0.4393701731152171
39 0.5623978923988894 0.5769295766892166
40 0.12515386419192065 0.5558663566002694
41 0.16692513822336985 0.660184598215354
42 0.49646361595414723 0.4093112744578765
43 0.3752214890983694 0.4680941300358371
44 0.14530644903226164 0.3973401354120758
45 0.842251546095398 0.5208978583581072
46 0.9956675561454419 0.07262766152580946
47 0.8921962589391301 0.9322990375667419
48 0.7132890860103952 0.44825045802453456
49 0.06958727382851992 0.8136358761108722
50 0.7271651199575637 0.5225628377702998
51 0.786117635868888 0.02897344903104604
52 0.7966660172757222 0.4291432122118102
53 0.49869372477340757 0.3094889930254018
54 0.7145980539649067 0.7810653641708492
55 0.11396600680346103 0.8787969205216997
56 0.4753337863228565 0.9517603698460759
57 0.9522455170081611 0.8738938053552481
58 0.5018297281718368 0.07528758357129117
59 0.7081454761792431 0.46888794848405424
60 0.5448212751005378 0.415157999615153
61 0.9383272831209998 0.6107086287558832
62 0.01857472389421655 0.43075014697129266
63 0.45245783775589987 0.06683534899288512
64 0.8216710945267098 0.842389136548372
65 0.506013930253713 0.42688972158242466
66 0.7235788728213747 0.8449273693840682
67 0.5380580949214231 0.3577816992680767
68 0.599258427433546 0.5100619866982855
69 0.610842065101352 0.7995036803736973
70 0.7343065472441976 0.4167186291064825
71 0.7297429211295569 0.40320747956072267
72 0.6214705831870929 0.3280175567881114
73 0.3910434047312815 0.8668471467005029
74 0.9175643346936185 0.2537480686702399
75 0.6980754392932631 0.8619890276071575
76 0.4369535940916237 0.6403031002695301
77 0.29084810774706404 0.08829750973288486
78 0.3883284420486708 0.6903533836703166
79 0.9211200205782644 0.5435015749684585
80 0.9334287169399017 0.587565062643479
81 0.4840350419831908 0.7758412578075071
82 0.953672499139228 0.29907768846352656
83 0.8481209536740827 0.5297807273843292
84 0.3554013796887331 0.8789214114050994
85 0.8118395687594689 0.26135126769987915
86 0.37740207603059694 0.23605504339662964
87 0.6050759963730923 0.3272625576173571
88 0.09562392516916174 0.4012500285051872
89 0.1524352904024956 0.7341127114917252
90 0.9423336410458587 0.314305345764579
91 0.8583075042879698 0.16802909647897468
92 0.7021146878503597 0.35068679486161347
93 0.14184452004679504 0.435639358391572
94 0.9673414993410993 0.6090601849572398
95 0.21699464371553323 0.4330865654758752
96 0.30313712973023743 0.7506533086826803
97 0.4785596926307685 0.9138824117262954
98 0.06306375883787207 0.5237025517332162
99 0.06172306438523789 0.165298054475165
100 0.6416942394445869 0.2563803276560144
101 0.10586586635501005 0.4338504339983875
102 0.1629861369943274 0.47637998509058166
103 0.770830027740702 0.9522943122829206
104 0.5853962140212379 0.05331250843162327
105 0.41202874881886464 0.01840749766041372
106 0.4685695542195635 0.05849519708688955
107 0.20096423258346852 0.7625605572733442
108 0.2353857928251547 0.07577673280209396
109 0.8141181792929388 0.4396349737632387
110 0.37397608869860854 0.5965595277421871
111 0.20172598422833865 0.6957309249333866
112 0.2593479993744876 0.28242455117940435
113 0.561487180079584 0.3585355567905548
114 0.7773361669004174 0.8868632580557748
115 0.1349257954596247 0.05490281297635102
116 0.3649534920471166 0.7708823399384548
117 0.7854345824477938 0.45556824086867875
118 0.570295150039839 0.8499421223175428
119 0.041711543780870275 0.6643061167016893
120 0.2755837837103655 0.8893360120914318
121 0.7530423834951425 0.2592555820115827
122 0.9047140437437244 0.2985308837834221
123 0.09344990728189073 0.7135996626913814
124 0.029024227659999124 0.9209663947230241
125 0.6990005608496443 0.34719920140210947
126 0.24643540983308787 0.011472240020344193
127 0.8334741966432425 0.5935441734832393
128 0.42851813632052826 0.04266397749518358
129 0.7853582265558978 0.30702100440710656
130 0.14013463548984473 0.43408632768627353
131 0.5482415542798641 0.5739547723166605
132 0.7545180731833993 0.025528432913263455
133 0.21011345979129847 0.52666253535872
134 0.3514559014445403 0.3282533595340785
135 0.58519594094194 0.601752280165953
136 0.5728530161460673 0.46955443098190564
137 0.3806886176596479 0.9665074874246581
138 0.6500751313355054 0.9599992317944596
139 0.8676732420544786 0.8778412520468362
140 0.38653465397188314 0.19480147183396002
141 0.9288955973613434 0.03441537967066843
142 0.3122609664782916 0.09519392995929699
143 0.1788139245078959 0.5628184378570055
144 0.87227129596728 0.4284302677664943
145 0.4152750842419315 0.1628888291115781
146 0.8692104348394556 0.7373908338265819
147 0.2721323737196699 0.4337070224210904
148 0.5084527414477094 0.21709350564448437
149 0.27125096768326806 0.6471419356693257
150 0.09915677095681275 0.4640625569620259
151 0.9219415815902032 0.08668243911694506
152 0.07272096834428166 0.2192690721556838
153 0.7603311258357994 0.35640933546391595
154 0.5968230803026489 0.23558360201922757
155 0.4145656955960506 0.5392291559370661
156 0.032193233582962444 0.6224516908572055
157 0.1285963323164806 0.5239048117212977
158 0.8001833795995829 0.030892561716818534
159 0.4880471392066251 0.7673408002974133
160 0.5816434684438969 0.2919783262413643
161 0.8858900902915711 0.9680361793769499
162 0.4686150203667421 0.07297624219412213
163 0.7396603340961828 0.03602914662079637
164 0.9384996680799246 0.7009616026621871
165 0.8189107097955423 0.41976576648319563
166 0.5352312666211986 0.23340246856308455
167 0.5613747338613013 0.03531751396465854
168 0.06079826872716376 0.7307341304118486
169 0.8007952332536364 0.31702134133149806
170 0.21410980688713144 0.9015410661985496
171 0.3206747806886454 0.5910801503918058
172 0.6155226099441234 0.6767149373345088
173 0.9515858353923983 0.15203308202430277
174 0.13123173376637864 0.08856475266332897
175 0.36748183634438103 0.48031761158408004
176 0.15369580970397823 0.2126000351968329
177 0.04837061001504461 0.6155415546957433
178 0.2150450465445939 0.28114676106827696
179 0.19277445763901058 0.7342693482146654
180 0.4544047286501446 0.056902476846405925
181 0.9420069979163064 0.1341123773575298
182 0.95982988162697 0.9162175519415001
183 0.665170655459503 0.4462883622948637
184 0.30825811331302433 0.5969587203468865
185 0.8786599800457912 0.8462363844899179
186 0.8792496918146122 0.46551850027949515
187 0.23401971147290868 0.9371889025343212
188 0.28207474247866715 0.09188766462708942
189 0.8134876563932532 0.578535444091339
190 0.2199856717641644 0.6017112557607385
191 0.7962889611030644 0.34417822541609566
192 0.8042199181803802 0.6034658084942094
193 0.6272870410687075 0.9126272219761165
194 0.8283450166029327 0.02367579144516596
195 0.4734699141942771 0.8588031385210949
196 0.5787040307913952 0.9405270967440517
197 0.5832035592347568 0.20993785432918777
198 0.4613952373948803 0.5418533669527466
199 0.8910607514798115 0.019611696552539137
200 0.9913778985095267 0.9435658459887932
201 0.5707001836229505 0.4001571828673378
202 0.17616196474103685 0.8906771960308885
203 0.8931093722128413 0.03163020319614729
204 0.5446513670592128 0.41525630166025773
205 0.8966068918549664 0.9590783430090506
206 0.6437454983850903 0.3387100749934018
207 0.05745437599995806 0.7171287227915556
208 0.1855158770707167 0.24949630946273071
209 0.5628114658732917 0.8997413970865337
210 0.13378668072132371 0.7916778416805655
211 0.42641667044465303 0.8445424433157789
212 0.5018302830803238 0.32487378897152364
213 0.7778070497665153 0.8875789152729028
214 0.7433749919072193 0.6206255867163771
215 0.39422952280994794 0.25376459086352965
216 0.5156863063400027 0.013667462472626069
217 0.7870416775965493 0.08319517151694111
218 0.00436845547961584 0.35971163671885886
219 0.8715759140406378 0.7230331775611316
220 0.805412914044123 0.7847669077939643
221 0.6341344336159161 0.6130782506247759
222 0.5905028290627737 0.6446671718244765
223 0.30315145114204045 0.2114077402103457
224 0.26080985436954784 0.8203452134110731
225 0.40763080516316275 0.8687279767288484
226 0.4530951540627439 0.7135908524153294
227 0.3810822801741349 0.5055215527959065
228 0.829445838803969 0.2883138156114553
229 0.7767558562954386 0.4353792953980532
230 0.595971086441165 0.48670529731564793
231 0.05146682699146199 0.3014794110856688
232 0.5006909569741125 0.3460467903524471
233 0.010819703686550497 0.7980150984698668
234 0.23810728431274553 0.38785431353012145
235 0.9059973942022743 0.898600626341892
236 0.44971374437169853 0.7371204540386408
237 0.11563914329873226 0.515558813549331
238 0.7626538044238965 0.6458760803363256
239 0.8459219909319767 0.862000212398836
240 0.062320848865799916 0.7132503869076824
241 0.3498412526184883 0.5011945183499835
242 0.8976353837290588 0.8451551853705614
243 0.01484986534747379 0.055523904064823215
244 0.07206482457453511 0.4070249333637096
245 0.9652063353341486 0.34486798056008483
246 0.09791736254882577 0.8005580787699563
247 0.8706013376706488 0.7942992290589574
248 0.5900307844761085 0.8201173611686102
249 0.06988330213657101 0.1837622883502108
250 0.16652854884709611 0.7278591538168522
251 0.9444648248900787 0.6608750077496751
252 0.35469042266047845 0.5577837116880989
253 0.2847739969835754 0.5285690599880293
254 0.7249123703861462 0.9641882285912918
255 0.6128058312120906 0.5520213278759366
256 0.6046610598681571 0.7344877239863585
257 0.8616227834339376 0.9988540719012106
258 0.7301837894081903 0.6050545301523597
259 0.7300053703498881 0.34134329532592755
260 0.20183223064504807 0.8277953975526112
261 0.9246049198647848 0.5582706286592038
262 0.15715502970009643 0.7497392842924985
263 0.27773627694960457 0.9796996629896009
264 0.003942086061060057 0.33539681359121676
265 0.20991545520070432 0.15363912052562045
266 0.4674763359645867 0.33076038410823494
267 0.7689301217851078 0.0396172627286725
268 0.947351940431732 0.6542294451296744
269 0.6284666422033265 0.849772853786768
270 0.12048833537923886 0.9435814041862142
271 0.2767744360266716 0.2128082867920481
272 0.16426138653022815 0.25619390856956026
273 0.2894864394294955 0.7082696963981676
274 0.537675397333333 0.15651773041282513
275 0.2782995408277511 0.22013519483349697
276 0.7652899009347961 0.2042725098404199
277 0.919050506921169 0.14556551081410374
278 0.9069469002273192 0.9920577888596388
279 0.09752603741873556 0.09911845343932746
280 0.24423181282693052 0.6982686720473722
281 0.5149784264132148 0.5930589296705145
282 0.559235888916398 0.5063875071120407
283 0.05341161977276476 0.36412728543221606
284 0.4556281554481064 0.14970735302096627
285 0.24202090406236698 0.9663783425181984
286 0.2324536898928551 0.7749109858265905
287 0.57948565596381 0.31738494503491155
288 0.7900515265772123 0.2268633145821226
289 0.6957306050287172 0.09914891227038825
290 0.9135422312642725 0.014416045222970797
291 0.17469910817119316 0.845119109810901
292 0.8806373857884541 0.3667498052237531
293 0.8268054234705902 0.3741309289752921
294 0.5994720851609556 0.5263125548237988
295 0.6651372664901992 0.6501418842259952
296 0.7548930121027813 0.6802551887286628
297 0.30231237333879546 0.09547987081623299
298 0.3217213868415293 0.2694019677746461
299 0.3714015177192914 0.8851884890510439
300 0.6771457308952796 0.4285934869170357
301 0.5755464941580607 0.4968048597292454
302 0.4662835888115914 0.9534723047994117
303 0.4729794183315741 0.35087131723077125
304 0.6875087748245118 0.1298355538574143
305 0.16339759404222076 0.7139710555194039
306 0.9896952749524586 0.6987535357889695
307 0.24244572962821764 0.9993227797369008
308 0.5483993122623297 0.6054561155338226
309 0.106866809357132 0.043606093912921584
310 0.382839376734301 0.531477701626349
311 0.8811376697989572 0.055490808529585434
312 0.14039137002517832 0.03897661791114082
313 0.4598915045853009 0.6584262346754174
314 0.18447702975581637 0.2518131626603144
315 0.6865775340548429 0.580484909383469
316 0.049119719255837246 0.6624004120065097
317 0.9041094923900627 0.29254537177886053
318 0.9548060084190935 0.12335895037444278
319 0.9340856533935252 0.5036819931814712
320 0.915175353181917 0.29041580206026285
321 0.9586934034774887 0.5650588566848807
322 0.6165855040728696 0.010791374319559677
323 0.8851358270307776 0.9075944574342368
324 0.23445772245347585 0.1630690560579824
325 0.10324251010056473 0.3477661050124353
326 0.2862132649754515 0.9638912965344479
327 0.9252623414537612 0.29190879180116325
328 0.22738704890946748 0.24790166002100011
329 0.18907298404783357 0.46363269128618
330 0.9881925560924397 0.8835804292920978
331 0.9943130942550658 0.9439830978097176
332 0.7177079480597146 0.9082097568131519
333 0.6067508841622701 0.1423288288176967
334 0.25795893843597684 0.4666923016355744
335 0.1316614651693918 0.7179411379958935
336 0.5521287681799534 0.4027669325448626
337 0.7809322066035409 0.7118143842871083
338 0.012692910702955085 0.7240322082034635
339 0.24451931275927985 0.9241926922770394
340 0.8485357034304107 0.9282479024853091
341 0.9784198259859849 0.4581349730478401
342 0.7333752307639065 0.5326744608136097
343 0.3902865242310032 0.7360646253918623
344 0.06093490062265439 0.9524721327126905
345 0.393732487084513 0.33633640128505926
346 0.1792148114152866 0.4530820205699829
347 0.8772970420278294 0.6558716049745879
348 0.13330090968606512 0.7421828421554564
349 0.040999990448757795 0.4565541843149127
350 0.393669130132106 0.43236681921515474
351 0.5500004709756957 0.9505625776203473
352 0.60053324773366 0.3353383439496639
353 0.39332949103810544 0.7015415081223081
354 0.7401312608200418 0.07119616518375571
355 0.7398541599150834 0.6321732304579408
356 0.4335368967089729 0.04512805515269258
357 0.673222899294924 0.8832725666570798
358 0.5832580713137581 0.07144298482215139
359 0.651839523454499 0.38109381723772595
360 0.9214632807282713 0.44475549736429876
361 0.5201770649971532 0.5108646844023387
362 0.3163118942739963 0.1962468976836521
363 0.34564335860185935 0.43447320312183424
364 0.2008165089127366 0.6375103363290358
365 0.835755962167516 0.45045952248499455
366 0.5414830086034979 0.9506641732000998
367 0.15318967370369452 0.7110544283380881
368 0.7423295548741338 0.8608471450343927
369 0.4004166102820912 0.4257346718502829
370 0.7885369128956767 0.8046918612348489
371 0.31275931181387384 0.39568907361367467
372 0.941934565178262 0.9431538176076903
373 0.3873743126767113 0.2498616373970124
374 0.16816463645053936 0.04335243350758866
375 0.5697449924358811 0.5168636591602166
376 0.6708444820993392 0.46613314899175007
377 0.13014808774511233 0.24861140755226252
378 0.3291925597648261 0.21578457811585183
379 0.9332257468643004 0.09788273499728595
380 0.7588275713870813 0.9661064703049064
381 0.4040416196757295 0.2767766374742323
382 0.9032348819132939 0.12841899516070998
383 0.4908574725696796 0.060018469959268184
384 0.8852479314217109 0.9943998046486717
385 0.7767429771523183 0.4705761811336484
386 0.35022838015596514 0.24106181310653307
387 0.19306681992935015 0.9271099145694705
388 0.8864732070934378 0.9114693921055744
389 0.2206972274225203 0.5155295955174227
390 0.023774653480942654 0.32491364205067796
391 0.04594987229922287 0.05223344636637062
392 0.7468964200128694 0.42337799965862755
393 0.9118981895204333 0.538695150774525
394 0.44164237677962226 0.18430487320929745
395 0.02064530894410832 0.3196714351284631
396 0.4243349508217482 0.8737214269259614
397 0.6255306695877869 0.9047103700408359
398 0.03422691143918433 0.46260124408674397
399 0.9615357231421452 0.6376171513993535
400 0.1761983769316232 0.8483185735005699
401 0.27899884970075317 0.1026069573676196
402 0.3450188364722061 0.9150660773741128
403 0.32652740756558085 0.887395470456962
404 0.5553272533159845 0.5309158174274502
405 0.04877271542913464 0.502147126277629
406 0.7765740631587699 0.34772998308336756
407 0.4086313931870096 0.09234286602245967
408 0.43538149499337664 0.165468346295077
409 0.7585070279852515 0.3696808394351504
410 0.2554810532626747 0.8596119152755709
411 0.6158313387387447 0.21926728258052963
412 0.23759699625077446 0.13891950649830564
413 0.041334303254174976 0.06600504735344581
414 0.10216365161237106 0.2013287100996467
415 0.9702368000636885 0.034126031359240194
416 0.7760613622852812 0.7635408012918314
417 0.5887311751255023 0.5997531884173605
418 0.6089030933267007 0.422443026921004
419 0.8127696173090986 0.11303257927939725
420 0.48403784449379905 0.8959888639817717
421 0.15296913675840607 0.6211218022289333
422 0.4699252448987803 0.7962979380758368
423 0.8265382819391813 0.29216929393907576
424 0.6112208197970608 0.3809028557161982
425 0.15213983401479425 0.7575890869244123
426 0.2693168394164137 0.33181495716274756
427 0.18289359380056847 0.105700942775517
428 0.9530204394277599 0.6726776341369658
429 0.9377704056562135 0.9132446246235392
430 0.31755563363418926 0.4151433315953377
431 0.8649311604635879 0.9818575985708523
432 0.711586053968906 0.5133488701690601
433 0.22533716701291695 0.7725067548027166
434 0.8803387208178249 0.10234964765483645
435 0.32557769149452265 0.3660188146115263
436 0.7317859805413085 0.1923109521011419
437 0.10744114388550186 0.520548006524059
438 0.6527909601710666 0.12072326296712588
439 0.40380579147383566 0.4289217884992911
440 0.21262636105040567 0.9604502669860903
441 0.6826880347687774 0.41168708533983667
442 0.8043191923336576 0.43400491047054235
443 0.873898688203309 0.9073520719149251
444 0.40193859343063043 0.4352077055611613
445 0.019695408702218087 0.43005985584492634
446 0.8230952321454509 0.9438487582837571
447 0.21158598287577712 0.5566280390554166
448 0.8121731057331792 0.7503380060956363
449 0.39982865945176715 0.6988847187796394
450 0.3948806830196604 0.5467323236521724
451 0.18413254638574483 0.9640518665281189
452 0.8106887982050365 0.5898000255709724
453 0.7187624033459933 0.8996573140472602
454 0.18897438807366806 0.3808110607629578
455 0.6033013872749848 0.8635228503297127
456 0.3586082925660671 0.9296730827041785
457 0.43501671417152354 0.7535458164163918
458 0.5643318404923289 0.9099223575853832
459 0.02739344178874681 0.34176826037470276
460 0.17069762098940833 0.6493870641589965
461 0.3076235697266263 0.369156574771467
462 0.5534098046305301 0.056983541978182006
463 0.30687450836224994 0.674355338975834
464 0.7102447314924059 0.4878387902968858
465 0.05685324708949857 0.14991918255632664
466 0.17574435812072553 0.019411664771990855
467 0.5158894796639947 0.47163444259449927
468 0.3353142588359428 4.9239749761009755e-05
469 0.7947650983369534 0.2477193979037814
470 0.34123552138440594 0.3386266242073125
471 0.8308041290593652 0.23360280851600856
472 0.47835688900384943 0.1809965918484706
473 0.43330713914774643 0.9777438044989425
474 0.3125539656690365 0.5655336642367755
475 0.46573112590837806 0.35569625963591045
476 0.47106366308144443 0.952792118355471
477 0.18570803286372928 0.09451321726657369
478 0.8322996408252332 0.10113993035008706
479 0.41561697913649764 0.9983645719574253
480 0.5556423476127087 0.6049655560824159
481 0.7051752461892727 0.02071494825707698
482 0.46065951978523534 0.5250946923478719
483 0.02261971733025203 0.03245123205971823
484 0.09539437211109159 0.15872687915412864
485 0.7361589452937382 0.5868155725611315
486 0.1564676093818118 0.9320665116353266
487 0.6871796886814233 0.9065517354202868
488 0.18330018514339053 0.2954638678650201
489 0.3590860989245678 0.6459356162110522
490 0.8345266966454747 0.2555093254236809
491 0.22178615613280106 0.293511983033382
492 0.8252470302166387 0.5154106225562042
493 0.8224094393936321 0.20514644892833023
494 0.6695958608412604 0.9626168916967649
495 0.49565475674346937 0.9960021704278903
496 0.7917098472637328 0.21533108038686444
497 0.762626066701989 0.05744911717318668
498 0.3431857665233241 0.12798613898118938
499 0.14678142858694077 0.5802802066904543
500 0.6122617306629319 0.3564533620966265
501 0.8435943370954847 0.634203202609249
DEMAND_SECTION
1 0
2 2
3 6
4 2
5 8
6 7
7 1
8 4
9 2
10 8
11 7
12 9
13 4
14 6
15 6
16 1
17 2
18 5
19 5
20 3
21 6
22 3
23 2
24 8
25 3
26 3
27 3
28 6
29 1
30 1
31 8
32 7
33 7
34 6
35 5
36 4
37 6
38 1
39 7
40 2
41 1
42 9
43 1
44 1
45 2
46 8
47 6
48 4
49 4
50 6
51 3
52 8
53 4
54 6
55 5
56 9
57 7
58 5
59 3
60 8
61 3
62 9
63 5
64 9
65 7
66 8
67 9
68 5
69 6
70 7
71 9
72 5
73 9
74 2
75 8
76 4
77 8
78 5
79 7
80 1
81 2
82 4
83 8
84 9
85 1
86 3
87 3
88 3
89 8
90 4
91 2
92 3
93 2
94 6
95 1
96 6
97 6
98 7
99 6
100 5
101 8
102 6
103 5
104 8
105 4
106 5
107 3
108 2
109 2
110 7
111 4
112 9
113 1
114 9
115 6
116 8
117 4
118 3
119 7
120 4
121 8
122 1
123 9
124 9
125 8
126 6
127 1
128 5
129 8
130 1
131 5
132 1
133 8
134 5
135 3
136 6
137 8
138 1
139 1
140 2
141 9
142 8
143 2
144 8
145 6
146 7
147 9
148 6
149 8
150 6
151 1
152 2
153 3
154 8
155 3
156 7
157 9
158 1
159 7
160 7
161 9
162 2
163 9
164 8
165 1
166 2
167 2
168 1
169 3
170 1
171 7
172 2
173 4
174 7
175 2
176 1
177 9
178 4
179 8
180 6
181 2
182 8
183 1
184 8
185 6
186 4
187 5
188 8
189 2
190 8
191 7
192 3
193 2
194 8
195 6
196 1
197 5
198 5
199 7
200 1
201 7
202 6
203 3
204 5
205 7
206 2
207 6
208 4
209 3
210 2
211 2
212 5
213 4
214 6
215 2
216 3
217 7
218 6
219 4
220 8
221 2
222 8
223 3
224 4
225 5
226 6
227 3
228 6
229 4
230 5
231 1
232 6
233 1
234 9
235 4
236 8
237 6
238 3
239 3
240 1
241 2
242 2
243 7
244 5
245 4
246 3
247 6
248 7
249 3
250 5
251 3
252 7
253 1
254 2
255 8
256 6
257 2
258 1
259 7
260 6
261 1
262 4
263 2
264 6
265 5
266 5
267 7
268 9
269 8
270 8
271 9
272 1
273 9
274 2
275 2
276 6
277 9
278 4
279 9
280 1
281 8
282 9
283 8
284 4
285 5
286 5
287 9
288 7
289 6
290 6
291 4
292 4
293 1
294 8
295 6
296 4
297 3
298 5
299 4
300 2
301 9
302 4
303 3
304 1
305 6
306 7
307 6
308 8
309 6
310 3
311 8
312 8
313 1
314 7
315 2
316 1
317 3
318 6
319 2
320 2
321 8
322 6
323 5
324 5
325 8
326 3
327 4
328 5
329 3
330 1
331 1
332 6
333 1
334 1
335 4
336 2
337 2
338 1
339 5
340 5
341 3
342 3
343 5
344 9
345 4
346 3
347 3
348 6
349 4
350 9
351 6
352 4
353 1
354 9
355 2
356 4
357 4
358 8
359 9
360 2
361 2
362 3
363 5
364 9
365 9
366 5
367 2
368 2
369 3
370 9
371 4
372 5
373 5
374 1
375 8
376 1
377 5
378 2
379 4
380 5
381 9
382 8
383 4
384 9
385 2
386 6
387 6
388 3
389 6
390 9
391 6
392 3
393 2
394 9
395 3
396 7
397 5
398 1
399 4
400 8
401 5
402 4
403 2
404 3
405 1
406 7
407 1
408 4
409 7
410 2
411 1
412 6
413 7
414 2
415 3
416 1
417 4
418 2
419 3
420 3
421 5
422 9
423 1
424 9
425 6
426 7
427 4
428 1
429 5
430 6
431 8
432 9
433 7
434 7
435 6
436 6
437 1
438 8
439 6
440 5
441 6
442 5
443 6
444 4
445 7
446 8
447 1
448 7
449 6
450 4
451 4
452 6
453 5
454 4
455 7
456 9
457 8
458 1
459 2
460 8
461 2
462 9
463 2
464 3
465 6
466 4
467 2
468 8
469 2
470 3
471 5
472 7
473 9
474 3
475 7
476 7
477 4
478 4
479 5
480 4
481 4
482 7
483 5
484 6
485 3
486 5
487 3
488 5
489 2
490 3
491 4
492 4
493 8
494 5
495 4
496 5
497 5
498 4
499 5
500 8
501 9
DEPOT_SECTION
1
-1
EOF
