NAME : gen500_007
COMMENT : uniform customers, demands 1..9, generated by bench/make_tuning_set.py
TYPE : CVRP
DIMENSION : 501
EDGE_WEIGHT_TYPE : EUC_2D
CAPACITY : 100
NODE_COORD_SECTION
1 0.25464011616305393 0.3395114101980873
2 0.5431679082102789 0.36329083929157013
3 0.833368766479152 0.0926743469025334
4 0.9712969517360791 0.13670812779906816
5 0.6304168384952098 0.6107588851197657
6 0.33794952156494806 0.8765335003116684
7 0.45322091316498403 0.7495413925338593
8 0.2232089748908166 0.8375460295953101
9 0.45222122263645625 0.18213576091306494
10 0.90420516883164 0.07976042352868606
11 0.034938689004020196 0.8133468320770945
12 0.27049391283703783 0.11566875781066355
13 0.6010989460852753 0.1042507213584043
14 0.03485005279719455 0.8784753125032825
15 0.655615857394131 0.7319200377200672
16 0.12026425861807433 0.2215384633816333
17 0.983529259411875 0.05536421095288502
18 0.12694875680444584 0.0953981863151655
19 0.8186411782521599 0.3463270200614562
20 0.22512409599994354 0.8682795545649103
21 0.13144147038810805 0.797154271195195
22 0.6955986641056546 0.1122275417042734
23 0.8824488825421204 0.5880069430077568
24 0.4868790345762575 0.14593345819822867
25 0.7351510252041161 0.6729089336461058
26 0.561612562012856 0.6694804202638032
27 0.10811963893429688 0.7524497587298599
28 0.8852517131942901 0.4349675522903612
29 0.9205068805382834 0.9245065920286135
30 0.348060325027872 0.27369754768747523
31 0.7867564722925052 0.12540814730992256
32 0.6358872647043725 0.4908785381230655
33 0.0333323180248184 0.8351836694997844
34 0.8299702252438305 0.6445265343874678
35 0.45019408486142354 0.9688217355696359
36 0.22858345094537413 0.4038667254327347
37 0.8670341675263694 0.2094475268308983
38 0.6647293267606915 0.7967464243036353
39 0.6520243705635452 0.44476816792539486
40 0.6960770587750676 0.18906323021042004
41 0.11979612118575178 0.02019450821962765
42 0.41012383265086627 0.854080209392135
43 0.2155708987449605 0.5579125406312028
44 0.739290563416477 0.06181677698595156
45 0.6579500801627394 0.016746785534088704
46 0.6755455329884873 0.13013318031678422
47 0.5972081328477445 0.26078402626596475
48 0.5077521637822097 0.6174763645835915
49 0.153050371278049 0.221444401660155
50 0.9474860880487324 0.6733523514768919
51 0.19018840686717353 0.22556748661242443
52 0.7818447182687821 0.27968326775761665
53 0.6951023132054176 0.9714804560689648
54 0.8061695281531978 0.6277840948601332
55 0.13349912680641274 0.4703698558231618
56 0.4771781639250666 0.5210157215089988
57 0.7081187223808721 0.5937948450027757
58 0.49172161653332347 0.6053536653273919
59 0.9354037181763954 0.5054613061282112
60 0.7665475825201202 0.8787459303441256
61 0.6163481675946743 0.18732039548617296
62 0.36612341342275234 0.05398390156219479
63 0.883136053679921 0.5568698394609951
64 0.7276001423683257 0.7921846038834696
65 0.5266740955136158 0.8135891266105942
66 0.704229896949374 0.9058641668608078
67 0.13434449733270204 0.04731295799503865
68 0.966378185251674 0.774025991803332
69 0.3711488948481029 0.5821922838249354
70 0.5908771950356659 0.314205566543188
71 0.8715595886133858 0.5173599884268993
72 0.022845681836459075 0.006770585489092373
73 0.36548648962543095 0.10162536195777028
74 0.40679444279817456 0.8328097795329156
75 0.1818063648860283 0.1594075403567934
76 0.13641028216040585 0.89262827565747
77 0.5564212496585739 0.807773520865324
78 0.27102196351153496 0.0575512365583134
79 0.2868178783647489 0.9689787863058987
80 0.6328103184364694 0.9712132993147772
81 0.30641366510883017 0.42523282044625155
82 0.5206697336949367 0.5965601816302479
83 0.6924972329032667 0.012032679272341418
84 0.04482650561839763 0.19110134433019543
85 0.5837720318431832 0.770214719641553
86 0.618156826587823 0.6293059497694534
87 0.8512927203894634 0.11016564988487765
88 0.01584729672590479 0.3095516864212874
89 0.9111819173369681 0.7237703978174119
90 0.6179100284523628 0.05109373801962702
91 0.5637106746903465 0.13947948686212053
92 0.17546130362491108 0.9985132900384648
93 0.6358085590636929 0.6368179033201538
94 0.893379345843759 0.622982509795235
95 0.14708425824890425 0.38974977395033783
96 0.35565812511786643 0.2671862817641678
97 0.7925242714554687 0.10393404062920408
98 0.7238679921526784 0.7868695907093135
99 0.8468661643000794 0.5758540759435034
100 0.7167297678694782 0.3763570601698457
101 0.8503292112361235 0.6865617039656681
102 0.16912797119216483 0.7964521894539849
103 0.7107557276143207 0.7404051923039705
104 0.719131060954954 0.8870532035583594
105 0.46529133762029296 0.4608454383773304
106 0.5858687878282591 0.9689010244978956
107 0.6933073641162971 0.7076573804108538
108 0.4674445572320456 0.9048117302260061
109 0.7291617617117433 0.6437953356597181
110 0.4920887563330978 0.14963972483970134
111 0.5262994572242351 0.5334981814720308
112 0.9015004983011672 0.1430942772692042
113 0.8755182140525296 0.3388446039246885
114 0.10657945764484789 0.5392917848710697
115 0.1476175132279831 0.7913456520583407
116 0.16333195647558874 0.011527205420466147
117 0.9891661945512187 0.874755075309706
118 0.9982704072214081 0.7312296231957238
119 0.5918545970517473 0.6123025500944667
120 0.021885583003866116 0.49667847113833463
121 0.3523987151076967 0.4052344898515706
122 0.5931904723487775 0.6156045311296492
123 0.5016962040227805 0.6735431606426235
124 0.7031749997255439 0.9800756041585806
125 0.9628369883402037 0.6995784683914293
126 0.016813586645372136 0.6637799152490568
127 0.7487829446922788 0.596174854537479
128 0.639007047227172 0.19490027368272622
129 0.5232033174786573 0.20607285035776302
130 0.9595106241979597 0.32965787205483355
131 0.192340400307065 0.8020481717434315
132 0.5707654387878639 0.3324727316620081
133 0.36319991894122017 0.13505744640397754
134 0.6738071557623735 0.7024132630596505
135 0.802619142762878 0.9113861061367795
136 0.403096670914842 0.2283824595415388
137 0.85425050375366 0.13563787886240097
138 0.06615778089234359 0.5709968170662961
139 0.3649782870058692 0.014769321826921922
140 0.6287139502219222 0.299892238755023
141 0.8124452671624288 0.07694936392045082
142 0.6134041669173749 0.7305797378073455
143 0.30843897219718974 0.4249812206823559
144 0.7369076127672525 0.6796212125018043
145 0.9607403282200034 0.0006074366746879889
146 0.613096071889537 0.37781383914785316
147 0.1871097201869093 0.2197399149779672
148 0.7770023009738157 0.3503062691050304
149 0.9800329673377698 0.10778161261100772
150 0.881645270872658 0.297843310478071
151 0.8461400584172631 0.17254560216304726
152 0.23179214202659348 0.6171998315139956
153 0.2988184977160777 0.8229956461587601
154 0.5538408592652447 0.9811902683962404
155 0.7710783514760802 0.13044710897795075
156 0.551057109224696 0.33209791288804347
157 0.2137037884777424 0.6969947462814398
158 0.9789325419632919 0.031043266017127813
159 0.019770575588354822 0.13584137242181338
160 0.3336345576569023 0.6593927857828346
161 0.9207543994751192 0.8833288983126233
162 0.5548864767566913 0.140883345620342
163 0.0034116136240491812 0.015834769403653803
164 0.41322052517207464 0.28857114414396456
165 0.09733800789477942 0.7715186527158727
166 0.6094724292233107 0.6831289626547896
167 0.2714881260410644 0.8648111533676748
168 0.2192555140310607 0.9015049276293555
169 0.5078049080705292 0.06013182484304358
170 0.15343068588896902 0.5063877981855323
171 0.5376310761551584 0.7149890380827151
172 0.38753699584132073 0.1141691252401641
173 0.36256883793246975 0.706207250438111
174 0.5753935018177918 0.7619834434884998
175 0.26592447562945265 0.27993600855882117
176 0.1277777458037367 0.4985345234765436
177 0.4724091076419469 0.8778892238034335
178 0.5538308876170314 0.36281880964307145
179 0.6199521685897728 0.8922010528181965
180 0.36623782068644073 0.9931282690791474
181 0.9417655563272102 0.8632685269939578
182 0.11876301796195321 0.47740821294711666
183 0.028052816175248574 0.6827823663466702
184 0.9221510972980144 0.45074680739363726
185 0.39279237330690486 0.2533078370281302
186 0.23483539371041318 0.8074365643358167
187 0.44113359186396905 0.0979935906614906
188 0.10430543075882381 0.9513799986731227
189 0.8114092195341793 0.4520266127863348
190 0.27295524024027384 0.39400091887302546
191 0.7760869426450989 0.3626895215980054
192 0.03958106955292939 0.48694573104064665
193 0.5242577622502994 0.43747386503903984
194 0.720493591405865 0.4911080456174085
195 0.1273482846221915 0.923190388745324
196 0.9938638532308047 0.45698679219979355
197 0.6552417395055944 0.41806792140273885
198 0.6515873752574265 0.3679676662938972
199 0.4729022328521806 0.6826382226294002
200 0.2792029808383052 0.15404675091661635
201 0.4942786125310493 0.9974440732303854
202 0.11441953542181582 0.4095098498323916
203 0.6958378938484769 0.7415528081964631
204 0.8731359920973513 0.8211087056334389
205 0.1035884774201602 0.4572048741818737
206 0.8144555471574328 0.41206059232360115
207 0.08976885751646935 0.928226633110928
208 0.3032888242180679 0.6706974565333214
209 0.8727877257223463 0.9682843875768394
210 0.5429496178946369 0.3052237654415566
211 0.9453423155413928 0.7216745590000516
212 0.5016079959819267 0.4586220427423485
213 0.12224617025787188 0.37323671550785664
214 0.3701399502893101 0.8730235811736479
215 0.3627075525788588 0.061320342380104975
216 0.5634993489622114 0.3359166134006193
217 0.8888647345382253 0.07940246914019145
218 0.8504364211118033 0.0052378872231270135
219 0.750485912169017 0.537195275337696
220 0.31327351082288346 0.13258119086474252
221 0.4531583518463369 0.741718231000094
222 0.7274063525452915 0.030998926191613707
223 0.03726680324110321 0.5446255665654346
224 0.0033399857460914006 0.8612047451345815
225 0.12770533137254814 0.6333991437461229
226 0.9584222220091551 0.8652710419753965
227 0.9521931096200997 0.24903181401565622
228 0.9140975305395196 0.6382182866031932
229 0.09975521001487664 0.8239725329309994
230 0.8654611728777423 0.6824458658958272
231 0.4000898076477375 0.812909341025665
232 0.7131277539613103 0.9972213592450359
233 0.10479823061705107 0.9564738439848124
234 0.7698603337778762 0.8578185610993307
235 0.18810597396560658 0.15681309491964424
236 0.21903252194037648 0.6863389314153092
237 0.7947510912997283 0.5933957191878689
238 0.9362681512031441 0.788072912918206
239 0.2249143187337408 0.24689618515860212
240 0.7987779524059373 0.9922060008638923
241 0.9458916807917628 0.44153195270967927
242 0.2955234921440958 0.07943702603504554
243 0.5121111391258265 0.4963541565584416
244 0.8230418252907116 0.0609480483803887
245 0.48473658672143294 0.24987901122870904
246 0.16084325414887024 0.5407623434227562
247 0.137373397607771 0.3663247702524268
248 0.0724515146987107 0.3613182127736312
249 0.9826401002122711 0.9121558607340076
250 0.9253414849055552 0.8333785583581954
251 0.4942990256359835 0.8752842686704146
252 0.2895008414934399 0.376392892253155
253 0.6814590553588067 0.1741808743412646
254 0.5047961507414043 0.585770243595834
255 0.13216137684245655 0.565125898411553
256 0.1930149282088326 0.15314374076598758
257 0.598781342937331 0.8868282299149458
258 0.221781681757651 0.9211476915821243
259 0.45938966069023246 0.065735643536316
260 0.9828828492814959 0.6152999968102846
261 0.42181059906686447 0.04776920876707391
262 0.693247839423469 0.02983677521339112
263 0.2554293223652414 0.4697175618785153
264 0.6954661321672835 0.04454497642609634
265 0.4576273853817604 0.16664304683816877
266 0.9464843321832469 0.5260809162038455
267 0.6370194062288027 0.9239536306126473
268 0.9783807155824592 0.7504825666784427
269 0.5332364641323878 0.9133341706694075
270 0.4406502737657234 0.37218521769287705
271 0.5361210926727048 0.1381873111759101
272 0.36475099028513625 0.21082792221952318
273 0.9993244191200167 0.0004402964328157344
274 0.9374100620064236 0.9397567961961385
275 0.6853398597808814 0.6755122383944389
276 0.8947983025019518 0.00966979386692468
277 0.6809214098298887 0.1136727456500447
278 0.8986381984676646 0.137902950450562
279 0.4176738533583326 0.2073607978085964
280 0.3992138532463301 0.8677582898284563
281 0.4654289409190686 0.1849852120308948
282 0.7281778527771282 0.22157835187983166
283 0.8149018731248333 0.9825095045370013
284 0.02195240191381609 0.3625976512854383
285 0.5986995338774214 0.5983673474611456
286 0.8147264387821922 0.3191436984974474
287 0.15440148185840907 0.5724052008827742
288 0.8605624979293244 0.7486732021665743
289 0.9031718675924025 0.607726447050974
290 0.1863500936462521 0.9828619970550022
291 0.49533565591525874 0.6918782309695969
292 0.9446542533084431 0.6485909502840834
293 0.07546128673152341 0.7982076871810837
294 0.19482695480313272 0.53620418038152
295 0.23057524798420925 0.872159764125507
296 0.5270204638838337 0.46831788013367137
297 0.910038055027716 0.6414642199528432
298 0.29838860010991386 0.9082261011285272
299 0.21827714118894803 0.9519877094702471
300 0.36013512064020614 0.189318381020824
301 0.27773367972084795 0.27609378767759296
302 0.533841166706177 0.05288030110404407
303 0.141730048428807 0.896246702503937
304 0.8873527729606442 0.9338073656256566
305 0.8631604140897696 0.6139171311429493
306 0.6871240056848038 0.2221191643827577
307 0.7524450800445581 0.34327023146764646
308 0.16221895012816379 0.703865312118256
309 0.35966766383729554 0.8675451352584017
310 0.6765007808906992 0.9143460342432383
311 0.40596797939272544 0.1335407578743354
312 0.032961061107865786 0.14196614663246543
313 0.8368253963447728 0.5580598490593642
314 0.05503085500021809 0.8675941065470594
315 0.13268922533317595 0.9423198243986343
316 0.8601493023266927 0.7322352361485359
317 0.24257145114041923 0.33010142540332066
318 0.07312327403456309 0.13191733077894885
319 0.7143071125922567 0.6369104046671946
320 0.3420585077123607 0.7641845921587986
321 0.6108150290804794 0.8754352846753644
322 0.9096068070036178 0.5180477840277252
323 0.38336664569992795 0.8008117421756716
324 0.8073782900577192 0.3071841944565228
325 0.5510916659333767 0.14962976219280155
326 0.005314041505684708 0.1974994638081501
327 0.6550215067232965 0.3301977617679004
328 0.7294006284878604 0.5666400380739021
329 0.5841987640323648 0.7719698785376489
330 0.0908135046400872 0.002329694885821132
331 0.020287443051404064 0.13089445841825076
332 0.05521263506367857 0.9465159010705559
333 0.8109117666834547 0.9345150857048188
334 0.9732086727616189 0.7244321886198589
335 0.9968463660458217 0.7890925652393537
336 0.9074527356028925 0.5084214647032896
337 0.9756082874184782 0.8170068949784756
338 0.3778358541322273 0.556268732833471
339 0.16693748305611 0.33774235518094187
340 0.34557678544967285 0.5084572754239408
341 0.3746101322661679 0.29040905468518885
342 0.4313749653853136 0.28098135243348643
343 0.13730438693817115 0.2341759427792216
344 0.4046987624356694 0.5405402589015001
345 0.4839981414438157 0.2365241722529141
346 0.247802766954915 0.5943140920039783
347 0.5766157731696218 0.9136019200505544
348 0.6045303564322132 0.027609148262788263
349 0.43888426656560486 0.12222058525404056
350 0.08831467604092635 0.0288866342932097
351 0.585013028159803 0.30507701347375815
352 0.578844891377554 0.3374213220202331
353 0.9376976572747404 0.6917092864332898
354 0.8128311431467029 0.23573227082766302
355 0.3679997975507979 0.8432728094320423
356 0.1667792999110258 0.7345025702311676
357 0.7891306858125757 0.45063034749823005
358 0.6589961190661232 0.6393576724027124
359 0.8069539300456283 0.2082710772071864
360 0.7122918743637114 0.001059774375163025
361 0.013438035732410425 0.969170613563161
362 0.9112077545641742 0.5894173256174052
363 0.021863108866901904 0.759779386210055
364 0.21896392972439138 0.9106482275612635
365 0.5107603427221156 0.2892395667804658
366 0.32408356566280017 0.4739095604734378
367 0.8706988109984176 0.8206164628560738
368 0.23514175613832278 0.5221025951305106
369 0.9160994473836138 0.3886785605908085
370 0.12747126229703787 0.9146798638406909
371 0.9489900013172249 0.15892927656383604
372 0.7573926248960207 0.3137753631869602
373 0.41394677551938697 0.40182114570120764
374 0.49619237768894897 0.17098417632040275
375 0.6782012045491477 0.8264752789935764
376 0.22752065365562946 0.5437419595767576
377 0.33168250990608084 0.6341195600945576
378 0.015503289071809867 0.3131287502529867
379 0.9272791943003256 0.41810353706059256
380 0.8266649530135586 0.3338320075698713
381 0.9938354617648663 0.31222745047926315
382 0.234358863918952 0.3627587463031886
383 0.18699205799180363 0.583529766502048
384 0.6339350519533644 0.177104064142934
385 0.8011916215984031 0.34668357633019276
386 0.7199150030475234 0.1674836223822901
387 0.0017449318475536435 0.6916590163761587
388 0.4061685014952158 0.8701752569129745
389 0.08385409210536532 0.5587144224843433
390 0.6237644901284443 0.3444494725763504
391 0.36395062362156083 0.5344445149148459
392 0.24634944631783529 0.07306098808556738
393 0.06269678158813874 0.026226429782510885
394 0.8586155221069537 0.8845075256834635
395 0.6790802507951654 0.6902978879181892
396 0.9378846904842176 0.8590671560077752
397 0.6338477197827068 0.836241007878635
398 0.5194910249021555 0.37720690644926824
399 0.7949482920049967 0.6365134062791691
400 0.7204955216650909 0.17968887686875523
401 0.6159429875657122 0.0722519021207253
402 0.11499930292132277 0.7270169025734936
403 0.32108998624898843 0.906849987611984
404 0.9193763781789638 0.5834200349343434
405 0.5048738505274676 0.7549599297431681
406 0.6656453606677356 0.5707980184048587
407 0.6346575486931945 0.7104585759261545
408 0.9766308616544364 0.8763273802799639
409 0.6358849338492342 0.9305379638441131
410 0.37657813625281167 0.24418348664663425
411 0.8865219161550577 0.8755583764433434
412 0.7253554158106076 0.051697110631712895
413 0.7319465600945076 0.8134935501214802
414 0.6376626988037282 0.918847300926022
415 0.3134631872558873 0.0067432678657475265
416 0.4758614805529954 0.0033202299383594536
417 0.8458614668365234 0.5281763113267228
418 0.21608894472715723 0.93751540223028
419 0.8063285762452466 0.5079245145649881
420 0.7857559137169252 0.4525570499332101
421 0.9463698741512924 0.6555880502897697
422 0.9898059026878321 0.2315153002335577
423 0.4906468042629061 0.5530444462763273
424 0.40621448801381876 0.8598236924212885
425 0.9472061951447248 0.29336136231401466
426 0.3695500731631338 0.2746226974694205
427 0.7465703091953261 0.06634069922943353
428 0.16914153206710913 0.12893079279771624
429 0.7693406872819069 0.09196591428999223
430 0.42163681998126423 0.8183038414412155
431 0.511077678531059 0.5057100190077094
432 0.16326939854504152 0.23295106660392595
433 0.38611625132366556 0.6000317696863445
434 0.12978313425554278 0.8337200846761812
435 0.5937902242515203 0.4264927298333677
436 0.8200102476746266 0.5509696233336595
437 0.6305206283543637 0.25821172495619693
438 0.8777466638556014 0.6634825787642276
439 0.2771585082941872 0.15262995690606995
440 0.3339445909406883 0.5442738806869525
441 0.4351733901600342 0.5587004624620596
442 0.586354534698962 0.40857000685474476
443 0.16027668928736882 0.07974404824372361
444 0.17509297416985592 0.6306198761336386
445 0.22661740625085947 0.11553626403236772
446 0.4674409449249197 0.7632075113646963
447 0.43785576344406574 0.10244444528068586
448 0.6004958646846444 0.25388621743682704
449 0.31527201151973094 0.09627313924954484
450 0.457759073655595 0.6304574267710883
451 0.17986855312018368 0.936998184739823
452 0.9331058971221056 0.04815308070156421
453 0.3842825357607862 0.30214921404835815
454 0.9391951986718738 0.7412399305506091
455 0.71248679906596 0.8286513338095381
456 0.17665230141161714 0.6307272840909239
457 0.05596668265067117 0.601899625739478
458 0.899489531778541 0.10909733627186624
459 0.8536059112194084 0.9640408880164553
460 0.3759793978199314 0.8661652165637402
461 0.20792052808076789 0.6775519712239403
462 0.7846543093200996 0.5733033179972137
463 0.5295240653801367 0.9536526365227943
464 0.1284665481978926 0.7810275722692175
465 0.0904809919312044 0.9672851391203966
466 0.3109907636764667 0.929919484751961
467 0.6158086350134633 0.8033613606685411
468 0.8321641830482553 0.18387827678698798
469 0.2179236909396517 0.6657668701951903
470 0.9261197811012788 0.9520826585911139
471 0.8108299916451941 0.602782343230485
472 0.02835446724933277 0.5726259976226036
473 0.14913413532265074 0.08028425163951003
474 0.14609588734263013 0.6234663820989658
475 0.7211573680840274 0.12229373821545586
476 0.2111493306781499 0.2702124170409157
477 0.7291652114677611 0.5996892521987051
478 0.42802450119738455 0.49492703999163756
479 0.03144200196480007 0.685173165807345
480 0.6425139300849045 0.282724227560466
481 0.2554070215895923 0.8078854561983896
482 0.7458165079932378 0.1663160878291714
483 0.9015650178563642 0.30981647687796265
484 0.28623265147573684 0.13844733998915215
485 0.6364661366475438 0.9831945217723733
486 0.5982254709853085 0.9950846694040578
487 0.39371524076022113 0.2629755442174476
488 0.9041226196029508 0.774548454123128
489 0.2158947791597009 0.10641660517182328
490 0.6661193410463294 0.5368100147628164
491 0.6878596268905522 0.9730880709103386
492 0.27828108414666053 0.5886638313503381
493 0.6558682622661045 0.023443528321415164
494 0.5549157337652145 0.9079805960132441
495 0.5288631275046258 0.10946050485420455
496 0.4294292353106668 0.5666251210727605
497 0.4357023916566012 0.5607000581285038
498 0.05226126975742529 0.19201869054107956
499 0.8937720168174268 0.7795711425721107
500 0.7681379960095056 0.18236702906374058
501 0.8824234682038862 0.9037295656116334
DEMAND_SECTION
1 0
2 8
3 9
4 7
5 5
6 6
7 6
8 8
9 1
10 8
11 4
12 8
13 8
14 7
15 8
16 2
17 9
18 2
19 9
20 3
21 3
22 5
23 8
24 3
25 8
26 9
27 2
28 8
29 2
30 1
31 1
32 2
33 1
34 4
35 1
36 2
37 4
38 1
39 4
40 1
41 9
42 9
43 3
44 5
45 1
46 3
47 2
48 6
49 1
50 6
51 7
52 2
53 1
54 8
55 6
56 2
57 1
58 6
59 8
60 5
61 2
62 3
63 8
64 2
65 3
66 3
67 9
68 9
69 1
70 7
71 4
72 7
73 6
74 5
75 6
76 1
77 2
78 5
79 4
80 1
81 8
82 4
83 7
84 8
85 6
86 5
87 4
88 2
89 8
90 5
91 3
92 4
93 1
94 7
95 5
96 9
97 9
98 4
99 9
100 1
101 3
102 9
103 2
104 8
105 4
106 1
107 2
108 1
109 6
110 4
111 7
112 7
113 5
114 8
115 8
116 9
117 1
118 3
119 3
120 4
121 2
122 6
123 1
124 6
125 4
126 2
127 5
128 2
129 9
130 2
131 8
132 1
133 7
134 4
135 1
136 5
137 7
138 3
139 3
140 5
141 4
142 6
143 1
144 8
145 6
146 7
147 5
148 2
149 6
150 2
151 4
152 7
153 4
154 3
155 9
156 8
157 6
158 6
159 7
160 5
161 4
162 6
163 6
164 4
165 2
166 2
167 3
168 9
169 6
170 1
171 1
172 5
173 7
174 1
175 8
176 8
177 8
178 9
179 3
180 1
181 6
182 8
183 4
184 4
185 2
186 9
187 4
188 9
189 1
190 4
191 2
192 8
193 5
194 5
195 5
196 9
197 4
198 4
199 8
200 6
201 9
202 8
203 6
204 7
205 3
206 4
207 4
208 2
209 3
210 4
211 3
212 7
213 3
214 3
215 4
216 2
217 2
218 8
219 3
220 3
221 5
222 2
223 8
224 5
225 4
226 2
227 3
228 5
229 2
230 5
231 3
232 9
233 8
234 5
235 1
236 2
237 6
238 1
239 3
240 7
241 2
242 7
243 6
244 4
245 8
246 7
247 9
248 2
249 5
250 1
251 4
252 2
253 3
254 8
255 5
256 7
257 9
258 7
259 8
260 3
261 9
262 4
263 5
264 4
265 3
266 8
267 8
268 1
269 7
270 6
271 9
272 6
273 2
274 1
275 2
276 8
277 6
278 3
279 9
280 4
281 9
282 4
283 1
284 4
285 5
286 6
287 2
288 7
289 1
290 7
291 3
292 5
293 2
294 9
295 3
296 8
297 1
298 5
299 7
300 8
301 6
302 5
303 1
304 2
305 2
306 5
307 2
308 5
309 8
310 5
311 3
312 7
313 9
314 2
315 1
316 9
317 5
318 5
319 7
320 9
321 4
322 4
323 1
324 9
325 2
326 8
327 3
328 7
329 8
330 2
331 8
332 5
333 5
334 3
335 5
336 1
337 6
338 9
339 9
340 8
341 9
342 4
343 7
344 1
345 3
346 1
347 2
348 8
349 1
350 3
351 3
352 5
353 4
354 9
355 6
356 9
357 8
358 7
359 5
360 2
361 8
362 2
363 7
364 4
365 9
366 5
367 1
368 3
369 5
370 1
371 4
372 4
373 1
374 5
375 8
376 3
377 6
378 8
379 4
380 1
381 8
382 6
383 9
384 2
385 7
386 4
387 3
388 8
389 2
390 3
391 7
392 1
393 9
394 3
395 9
396 8
397 8
398 4
399 8
400 4
401 6
402 5
403 5
404 3
405 9
406 1
407 1
408 1
409 8
410 1
411 3
412 9
413 6
414 1
415 2
416 9
417 9
418 5
419 6
420 1
421 9
422 4
423 5
424 8
425 6
426 8
427 8
428 5
429 1
430 4
431 1
432 1
433 5
434 1
435 8
436 1
437 4
438 9
439 4
440 3
441 6
442 6
443 6
444 3
445 8
446 4
447 6
448 6
449 4
450 5
451 3
452 6
453 1
454 9
455 3
456 8
457 8
458 6
459 2
460 8
461 7
462 5
463 9
464 6
465 9
466 3
467 1
468 6
469 2
470 4
471 8
472 5
473 5
474 5
475 4
476 8
477 7
478 9
479 1
480 6
481 7
482 1
483 7
484 6
485 2
486 8
487 1
488 3
489 5
490 1
491 4
492 5
493 2
494 4
495 9
496 6
497 2
498 2
499 5
500 6
501 6
DEPOT_SECTION
1
-1
EOF
