NAME : gen500_014
COMMENT : uniform customers, demands 1..9, generated by bench/make_tuning_set.py
TYPE : CVRP
DIMENSION : 501
EDGE_WEIGHT_TYPE : EUC_2D
CAPACITY : 100
NODE_COORD_SECTION
1 0.3719055902493944 0.9613080998750011
2 0.28032970789914724 0.06418975225790324
3 0.49905243336209915 0.01757074216853005
4 0.24691289888257417 0.2139867805205754
5 0.34208192696804707 0.9470652765094896
6 0.5639956706518918 0.28932893247334857
7 0.991910662696879 0.5978450625292853
8 0.16136071354178572 0.9664709306688776
9 0.5208449285093943 0.8437815884190559
10 0.2576765369773404 0.42834580174101067
11 0.36828369241309034 0.854615164517696
12 0.04363009192153533 0.6216053138895176
13 0.372689034857982 0.26623591805000757
14 0.07859887047498837 0.09883223486289949
15 0.4529528229458918 0.26693584727526487
16 0.04348099524876092 0.31586114683226607
17 0.2509898821126715 0.11518245666581217
18 0.30961968190601685 0.017004433571643163
19 0.9332840822040109 0.42158557388133133
20 0.32515068582780515 0.25699732110444284
21 0.4549167654612676 0.02516625099268932
22 0.20783340418328322 0.08480596935935514
23 0.3373564804662482 0.8742817483459328
24 0.5206712953142795 0.3891942426386773
25 0.2129885402936964 0.9581696241723638
26 0.36538995920218387 0.9927475668350167
27 0.2816523710444194 0.9016936521199901
28 0.9123786126306543 0.07881866145786465
29 0.4673731933251113 0.6407456038872007
30 0.06943451016646651 0.6686579885344562
31 0.9345051862828788 0.44774189379515095
32 0.6022645888765136 0.1992037164236501
33 0.7416218193226823 0.04508131558834094
34 0.4090897556312011 0.07553042983343483
35 0.5446028667270042 0.355436654135199
36 0.8337919250995623 0.4389369067969312
37 0.6397277979137679 0.700072540080832
38 0.6976710765280465 0.9245729357723884
39 0.5974216672934864 0.9751413981917048
40 0.8494668100159599 0.7472191389749225
41 0.974464226248522 0.9695927282234493
42 0.33354450943584824 0.3445376716888001
43 0.01875646684073473 0.7330653318858675
44 0.04878288966023259 0.5534689442723055
45 0.5740467681487399 0.6532166766864834
46 0.1191141110093451 0.8434074192859111
47 0.03755024842029264 0.6817640190525276
48 0.8345476044583446 0.5902041664796638
49 0.19121073898281105 0.5449841307290508
50 0.7315608240941434 0.9531971094457731
51 0.951843198813762 0.80163060935773
52 0.22595289463291834 0.19829014833545955
53 0.38654910453468394 0.9446298673868524
54 0.24793584948599012 0.2523405965054849
55 0.7275766162603587 0.5118427638622404
56 0.3069669763005066 0.275502688105832
57 0.4231387249698101 0.3223929288983667
58 0.6852363671708277 0.28744847396779105
59 0.7913504961922633 0.621752288513356
60 0.19170047951545577 0.02657801664579984
61 0.8248546640116193 0.6181185620714527
62 0.8292825601391287 0.556917037509384
63 0.953346768429521 0.16682919970129606
64 0.028947917600830597 0.9564957849861372
65 0.043465009355890705 0.8782239440984567
66 0.9050871876827558 0.31700159463460564
67 0.7935297551603365 0.8901543149452643
68 0.8450124937213028 0.11660528310127372
69 0.1961835234643039 0.17690449058298108
70 0.4361967081435354 0.1914006359421948
71 0.3915415511806899 0.9569651757128339
72 0.9450147710285911 0.5366717595653864
73 0.4770549501792225 0.9277858363554168
74 0.13252376839799984 0.7298052677494196
75 0.6585578280844827 0.38695274195161933
76 0.5051930132764891 0.5206212140573679
77 0.7683826328297689 0.5816722842782328
78 0.9521575185113198 0.009063963588357815
79 0.2362777730441301 0.4902410972764344
80 0.21610081342679788 0.6696430450510249
81 0.8462595587811714 0.8464429174146982
82 0.11988391323383774 0.3561869552996946
83 0.5402324463006529 0.9709809532026238
84 0.6038406102063829 0.06141855785670203
85 0.7399635835278882 0.9722032475293187
86 0.43616396714845407 0.7663656293672607
87 0.13294494766513265 0.16229704611328277
88 0.9524177887311269 0.6374225897251018
89 0.7577641740269746 0.015551860989509225
90 0.029773617485940762 0.4763516072200914
91 0.635582758511332 0.46300449333369587
92 0.2413683852995927 0.6802175359010258
93 0.4554473840619244 0.13118533027843016
94 0.6089327824767203 0.4860248076405893
95 0.749276922506543 0.6764870756817066
96 0.41389159527704056 0.2824675821024224
97 0.3667461965294472 0.8980222323914476
98 0.9277638064365861 0.6380636873198346
99 0.33908191830137224 0.330444506411952
100 0.374998987853863 0.39906262667324444
101 0.6539276834277358 0.5293889034432098
102 0.5847703385312106 0.9109275388400198
103 0.048401098523855546 0.45221088931392395
104 0.7186884290763269 0.2088741301100021
105 0.5088027887128964 0.4666929537832394
106 0.1233034758953192 0.9352465512435094
107 0.9950328248899472 0.08261384644112912
108 0.8470955949771349 0.7403189198660952
109 0.10623379855148962 0.765251548658521
110 0.5202000061550515 0.29523924236563037
111 0.39432407063028296 0.10329884701044756
112 0.6242898651833543 0.4038959852191454
113 0.19475820091813878 0.4736344563554544
114 0.1375089407530865 0.2918646702705092
115 0.5383883012069541 0.027127410635323868
116 0.34134543104627657 0.4082484159732759
117 0.7567265836826836 0.6300379927996804
118 0.6670604758264755 0.3495928388819616
119 0.4130910859711088 0.8708414976121037
120 0.5302083339730518 0.015924061376912158
121 0.5546756416261064 0.1732166418165808
122 0.2919398522580755 0.3126272062935528
123 0.909923252724782 0.6893870013261306
124 0.1111902697717182 0.13220815463468827
125 0.5642935365225483 0.42814896486745757
126 0.6237146943522066 0.17123233840387053
127 0.6105326103281543 0.3315030909956239
128 0.8854860255878552 0.8716053240801681
129 0.24343509142680453 0.8950914272599247
130 0.6025124059473173 0.6718453930099283
131 0.6055018861883845 0.9301502713788117
132 0.32246271867372855 0.05666150829901895
133 0.12996414711252902 0.5849368729764536
134 0.1197492420969758 0.449731571994499
135 0.5889028865816278 0.6178558647718744
136 0.4269421947216967 0.9128898935934907
137 0.06721152574222966 0.5407864610118068
138 0.05474976116383723 0.00691150539424823
139 0.0447590028539433 0.37423518719673377
140 0.8067733074373811 0.8425085048972499
141 0.10533429261439042 0.3499957519666427
142 0.7325306787929552 0.33689156590300195
143 0.6486439295433086 0.41963128452130805
144 0.35282389514592283 0.7389602614474017
145 0.8176990895403994 0.8402523251812676
146 0.49470787068186006 0.6916786210825472
147 0.445216294668474 0.8259279926495302
148 0.01247532672747731 0.5602485632979446
149 0.8440642722477344 0.663551237401002
150 0.8567770570268801 0.518724812443308
151 0.5333927606991903 0.1345120181033076
152 0.9052883048824795 0.6751650446730952
153 0.22678521268389873 0.4879250881098819
154 0.2629512358243392 0.1825263406925618
155 0.14513893942172518 0.36657339196715655
156 0.9942416897578542 0.5566311518309536
157 0.47595350802658476 0.48427784349637415
158 0.09361504358422212 0.866519111101185
159 0.9461210793839052 0.3145286916185437
160 0.5245323720977224 0.007706135924991253
161 0.7620515645361253 0.5425082853724891
162 0.720646940286009 0.9014499424236426
163 0.6871091270022402 0.9985896616641204
164 0.3248711786159585 0.2390756666839431
165 0.48000152580344724 0.3242722381773153
166 0.07960493061050233 0.9965361446768966
167 0.4330296084547134 0.40354848880719907
168 0.8437216568826423 0.2799519160997086
169 0.16056182158546628 0.6694118221358735
170 0.25188714554311065 0.8797564464712262
171 0.4094572395474614 0.3018235100035528
172 0.33602896548379135 0.27122038416642424
173 0.9348092429278727 0.2249081904809591
174 0.05819821272330972 0.21482239625071886
175 0.7152315744674238 0.9279276320200015
176 0.037138515328884125 0.35918854823626
177 0.6087175200029075 0.8509494702422432
178 0.48612959495986974 0.05168854901695685
179 0.712386900907197 0.3145039741004694
180 0.21206835912042632 0.2487099690686525
181 0.08696716202020671 0.8761488108824388
182 0.9226160202131204 0.3121511828030503
183 0.002985565666515755 0.5021210922249426
184 0.6357685674101753 0.2453325791644354
185 0.9069660364498208 0.3938848500314024
186 0.33546190407677623 0.48411680305992344
187 0.40112665603702613 0.48012710847364926
188 0.9972229706618209 0.2785446666200131
189 0.5889942977092397 0.5501065724180453
190 0.15095634932769497 0.9129931540068951
191 0.24423394334162218 0.7880595762234872
192 0.7718294363798697 0.9793882901651201
193 0.7678923207329077 0.49231053332912256
194 0.7500280630419288 0.3082589481380932
195 0.037113605346314804 0.1015929554588757
196 0.9831896713820837 0.7147483521361682
197 0.0358754071996249 0.876928549903605
198 0.4328389564245845 0.4807010585383167
199 0.16722025097637083 0.30470373224897784
200 0.3227948427916637 0.851378107383208
201 0.7050696608963938 0.49936108815056157
202 0.7556048024864876 0.6023792991134415
203 0.7323625738902163 0.6064849154454486
204 0.9928806492977449 0.3039777747789486
205 0.9065954743487409 0.9060702962478586
206 0.774007961032967 0.7172033539953494
207 0.14744773022315705 0.5393378938954397
208 0.7446351468573787 0.767294772630613
209 0.0405026286685074 0.6993834889328019
210 0.16927492802373012 0.2530427430699951
211 0.13694648502564866 0.10312496187334041
212 0.2786620133784894 0.4162963778098382
213 0.0890044518490265 0.24670150231217414
214 0.7945282046392694 0.03076408509826245
215 0.9400811026101644 0.21383548764847315
216 0.07469607597167638 0.054140097920745145
217 0.06058562453151428 0.33339126183421974
218 0.8023542733226597 0.24761984085007605
219 0.3893397043309216 0.28769265269563415
220 0.5832194829630177 0.7337796986849718
221 0.13079658909780711 0.4868519076458675
222 0.2051229426759864 0.36900345823967984
223 0.6649660243320786 0.18305690188981383
224 0.9029251340721297 0.4880705261777598
225 0.22448589775227645 0.11838689465161256
226 0.5237751990571915 0.9798869528070182
227 0.7359763669061324 0.6327654269376934
228 0.7623786581720912 0.314050374831636
229 0.35597272379656264 0.21885412301093954
230 0.6783942246005543 0.7901406978471652
231 0.7604075223519936 0.5992581289200347
232 0.6254660963432047 0.9816209940009629
233 0.5825684005405974 0.6914966775155479
234 0.06782085290114881 0.6238867043463657
235 0.8216475416440862 0.19789823195953493
236 0.4917357009912625 0.3025666899550735
237 0.6381084471988695 0.7215296816942667
238 0.2790723843647718 0.9923451943115605
239 0.05148590518262042 0.3667259893086249
240 0.4509768846327874 0.24495983316750536
241 0.6309625284431928 0.6026674950101083
242 0.5890706179394882 0.573623379647495
243 0.591542097980564 0.30559223205241914
244 0.5261676919775173 0.23013757015536151
245 0.39835251678379413 0.5406776335477577
246 0.3984523966916793 0.21177932189421178
247 0.0250404606483996 0.4888483874183558
248 0.31453769362532036 0.30727607308011695
249 0.576730498816996 0.8006630806081455
250 0.12972425436109536 0.2671320504398126
251 0.002112061104898033 0.3421729639441995
252 0.5154507508113403 0.14166606903938517
253 0.9916599004510115 0.48647791108726246
254 0.6224571453662828 0.19142803931993302
255 0.23909988836536866 0.33382399906447235
256 0.8687975350415811 0.972464094796738
257 0.3070147048468418 0.43723416458164743
258 0.2842675607761175 0.289454875906201
259 0.9986618220699579 0.4980608627794346
260 0.8588614185240385 0.6249281702327533
261 0.8795809714349051 0.5382562476206351
262 0.3116492736901716 0.529133092276058
263 0.5476391145582058 0.1146271091909421
264 0.33830677534489306 0.5827321001840048
265 0.07077948801271572 0.9878997726033728
266 0.5738631022202081 0.4900532039554145
267 0.2694804041319947 0.26375398972832753
268 0.2327600607732525 0.8801664666588732
269 0.6612151730069046 0.3750394407517216
270 0.9975892005199565 0.23925898030869686
271 0.9985893525784754 0.1051677680004145
272 0.054141350830846924 0.17150411330094673
273 0.16028328959987892 0.42724068818177385
274 0.01489782132416606 0.7516256894414276
275 0.9611358330084241 0.3249574959654701
276 0.5371170327852728 0.2523970018018702
277 0.032054354444767785 0.7471892899500475
278 0.14718047009670476 0.1999844845972636
279 0.9233255121786698 0.17508723343074084
280 0.7341721603129551 0.9835056356583333
281 0.7759547521663491 0.18248311031163145
282 0.9166295154668492 0.83440008313546
283 0.4666333962382999 0.48064815423774554
284 0.08895256992537215 0.6275483624875144
285 0.15642408421906973 0.38402324217047157
286 0.3009695214177166 0.4378960426153288
287 0.32581947675603706 0.5586466943127198
288 0.3765599344258582 0.8254468029075862
289 0.32123548336822993 0.5093862107782325
290 0.5457097872696091 0.7219869816976286
291 0.9368000325775688 0.9121435205642761
292 0.2156858760172653 0.689844488711068
293 0.6111517725885117 0.31804646552737403
294 0.900163466677506 0.35882347724748975
295 0.23942670017784584 0.09495268006213464
296 0.06381626954603792 0.41266988701830987
297 0.018568603487548074 0.500965795106722
298 0.5157371053163244 0.9471852431466043
299 0.7159527187927419 0.022261571920666356
300 0.0025863866620633447 0.3733915561756863
301 0.06319999080187255 0.8441442451380112
302 0.2581983937811736 0.24029982532148364
303 0.6030462081778483 0.502573198582648
304 0.45481155444919874 0.6815472553541186
305 0.5269299130724286 0.08748149407051009
306 0.4128204430554404 0.24823615372910657
307 0.20232097280603667 0.9808790660457805
308 0.8894397302433239 0.05798952831856363
309 0.6141720379251594 0.7780102397440406
310 0.7446374845404969 0.38548856236934703
311 0.640367346935073 0.40554157385637113
312 0.7540598302817013 0.0451457399882782
313 0.979762518007663 0.7164435514383529
314 0.3050519370494632 0.5916111407807884
315 0.5710028903640971 0.5104777723142936
316 0.8635258616296605 0.8626304224824457
317 0.14377978474437814 0.06575244613067066
318 0.3744134389275374 0.19464956840147207
319 0.9997303402335171 0.702701180569153
320 0.586755679103268 0.8088502900482085
321 0.6907774001207315 0.7056443358348734
322 0.26751463393655406 0.8152195805247314
323 0.7275110905812485 0.8539734707344263
324 0.03095132315650906 0.07560759121444438
325 0.4021655567132678 0.6505381310073495
326 0.31330652927089253 0.46730785781558715
327 0.44901563518240983 0.49644953547876847
328 0.9125744584507182 0.9708953016385038
329 0.1965236251329069 0.5787923314222162
330 0.294905317949296 0.9907240316225354
331 0.994250017438973 0.7713674440996571
332 0.5892247920703008 0.524631657249481
333 0.2706326431226196 0.5214760391360564
334 0.5268783693468873 0.04056975494268111
335 0.6993913038170018 0.0902937197617959
336 0.9471139034681154 0.19057956210263016
337 0.852818419290542 0.6997677872393888
338 0.45645799480190075 0.8534477386808642
339 0.7377032319105876 0.8619929150009813
340 0.6278277729087579 0.8009646277607412
341 0.1568374825435066 0.5415631330937337
342 0.9512705630375939 0.9005346459414578
343 0.1792654405630617 0.5443674108860951
344 0.026208114688876294 0.5268396214991743
345 0.2599267371127132 0.7573003445034456
346 0.09361582650614897 0.6368888724346332
347 0.8911525807551631 0.03720711295118029
348 0.6689073768463244 0.7914608323344042
349 0.8154584681463621 0.6571504493662458
350 0.35878779962930885 0.9720101048232886
351 0.7420919144082763 0.784891810437809
352 0.5841382525967604 0.0156673622585648
353 0.1658384699267632 0.9185799673328985
354 0.8927580466129549 0.9746513533910416
355 0.6654895013421308 0.3775923262431995
356 0.43002909091211494 0.3187952672801879
357 0.9583255331896727 0.3764241613414714
358 0.5944811131721708 0.30987978762049795
359 0.6212255404903656 0.6206656587853521
360 0.0038097929551744736 0.8727482305425683
361 0.5684242043612628 0.5135735860688205
362 0.01994798655989094 0.9149512125589989
363 0.7200955836860686 0.4796816938046823
364 0.4750336501783263 0.39978854149031695
365 0.3232309750293382 0.2390339745095219
366 0.2652802867913264 0.4562713952706622
367 0.545748589114988 0.6251435222016627
368 0.9757963698966265 0.13357625256259487
369 0.41524459021424653 0.2936947678720957
370 0.00737967157153363 0.41190873705014164
371 0.2465741343757979 0.7976039335930535
372 0.22840427351294068 0.741764374892744
373 0.023475124541309067 0.38078778357435905
374 0.14608436600156405 0.7790788519307922
375 0.33283186266992704 0.07957609705598212
376 0.9737261957275413 0.16181818478471244
377 0.2832357490759211 0.7818683959095197
378 0.7391680468768316 0.33188716770591986
379 0.9741839863911609 0.9514912315241628
380 0.8865605681802274 0.7787885084819791
381 0.7554238963212505 0.4067230806826412
382 0.15502632945649275 0.2931504964302727
383 0.9695883826998665 0.9135744196872398
384 0.14485850023679958 0.5312874675751315
385 0.8571121227769043 0.49821297071853987
386 0.2542424341354895 0.682519211004962
387 0.2985309823827127 0.9489119615771724
388 0.1816251778168132 0.9785203148683227
389 0.42759185471370165 0.5595577505043474
390 0.24168175327242047 0.43789828161461064
391 0.206433330577241 0.39630659055657524
392 0.12233279985923662 0.05852862212195864
393 0.8458566703268445 0.08895000146504362
394 0.8579051625787624 0.5316716698551986
395 0.962270975641494 0.21299194264585786
396 0.5672280558121704 0.8735141430942509
397 0.539818334219931 0.945992039348543
398 0.2645716925278224 0.4040837640415127
399 0.3773947115649633 0.8501053414315787
400 0.17539490926701895 0.2763274745287695
401 0.5081859629087297 0.0253472506679443
402 0.07034788365536482 0.552112472913523
403 0.6252004740941786 0.5122792694829965
404 0.12634854007260654 0.3229488729762131
405 0.6952809479043869 0.5529177435107496
406 0.052178268263506467 0.7481713047437876
407 0.34168137038922664 0.24792870200802664
408 0.5384575541176656 0.8653796257974886
409 0.9448467879500029 0.4907360652213075
410 0.5206523703550708 0.7519701599579591
411 0.05147046377291853 0.347129999379564
412 0.0767148864851045 0.9692116913720918
413 0.14834871169725716 0.2900359510769339
414 0.5936644600016726 0.1985667608256334
415 0.7561957830266779 0.12161662745612645
416 0.33264225129956526 0.85733933214255
417 0.4004807705763159 0.7612842387988841
418 0.16668373327254882 0.7490274456935508
419 0.31561390233532494 0.3600334822301785
420 0.39855688150844903 0.28078920810762575
421 0.4422336258458429 0.47834190273054555
422 0.9718874436056568 0.26716245097980396
423 0.40478337620876903 0.813684691585253
424 0.0016402688923856656 0.07551457782215831
425 0.7668848651312739 0.40211352339786877
426 0.7350254451447343 0.8619647806829234
427 0.28214609378593947 0.3880747339194891
428 0.5976327462250314 0.06305892820472214
429 0.16980340923955428 0.9287827920026317
430 0.3680425960826975 0.33656492106238667
431 0.03232525559963084 0.26052355656262016
432 0.40113306150669514 0.716872080056922
433 0.012524519249739963 0.346568685734709
434 0.07001055494063035 0.4551132934029808
435 0.8806490705576672 0.30163970040041876
436 0.2046261035542618 0.4295958211100208
437 0.29470973208002427 0.9116448510486328
438 0.73633292434632 0.276194638141651
439 0.04044340432261906 0.7964047005817358
440 0.8108558078752471 0.06247086127621182
441 0.49915355030928443 0.5420111776822013
442 0.03298620642765426 0.1684267040701276
443 0.22235182139850196 0.6908642327090769
444 0.45430049859927024 0.43775188330500314
445 0.20128575681866834 0.2947076687651553
446 0.1943557420800217 0.32664418939852924
447 0.12737010785031444 0.9142073187217119
448 0.08969677345802529 0.9478013009079204
449 0.1357974456892317 0.7498951572818272
450 0.9077128599314936 0.6057603204906021
451 0.7813270488620508 0.15088288817467654
452 0.9784002579895852 0.9331504588591019
453 0.05205359154665623 0.9463180659135315
454 0.20882419722604328 0.13255032842266523
455 0.29724467394317244 0.9711565823223889
456 0.22100381051540774 0.5237130345083265
457 0.1588536962882804 0.1305607883250336
458 0.0030193476467414992 0.9946148491163812
459 0.6667178130188458 0.7726999146649901
460 0.8454160897506432 0.26938463633913146
461 0.2304804768823896 0.6321330464122853
462 0.6841901542784463 0.16665453528229035
463 0.16311528491615324 0.7503018214960482
464 0.28045942662087 0.37431540070557756
465 0.4856326256092275 0.47712143420505493
466 0.5103328299186056 0.22012119394450036
467 0.8060564375996819 0.46364664139726375
468 0.1008209144149338 0.6002934813516977
469 0.3443701627083391 0.11036559687445746
470 0.14048740775126134 0.9159247036008322
471 0.696995191495554 0.6110061453731156
472 0.6836821037993812 0.40082760621746516
473 0.35576611104324873 0.9633951426485714
474 0.5894739710632814 0.8551111769941864
475 0.7229729767805513 0.6016818170154653
476 0.06363357220923882 0.08641760978032886
477 0.7889027530346019 0.19186839268285927
478 0.5378443656477758 0.5247560827257434
479 0.9944491218966286 0.4835477879796395
480 0.09346286188348218 0.6997479112676154
481 0.46861637162548275 0.004038911433543624
482 0.33087102808943514 0.5366538463023703
483 0.8793579798482531 0.4628543178988449
484 0.139882565566803 0.5963070101632566
485 0.8649900273389329 0.03431157766712567
486 0.5272125122667366 0.773034145629342
487 0.3959561733915006 0.06232449784990435
488 0.7616741306725929 0.24501438962041266
489 0.5487113023484664 0.8089223333108698
490 0.26652243667688613 0.017957726833424892
491 0.352698979496043 0.7618475726608257
492 0.5146843526881886 0.6138905590270602
493 0.5644524544048344 0.9099744396651576
494 0.5766429809839793 0.05321297433723349
495 0.1310634588858377 0.7202214777109939
496 0.2967657765262889 0.06867070120223562
497 0.7695209027325753 0.5429725055501103
498 0.5182981365794083 0.20929160880932773
499 0.3203793564965879 0.11506284317202209
500 0.4129513773351656 0.24075874450753298
501 0.5046610037128331 0.22466041265266923
DEMAND_SECTION
1 0
2 3
3 7
4 8
5 2
6 5
7 7
8 4
9 4
10 7
11 7
12 8
13 3
14 9
15 2
16 1
17 3
18 1
19 9
20 3
21 5
22 9
23 6
24 1
25 4
26 8
27 3
28 5
29 6
30 1
31 9
32 3
33 3
34 8
35 3
36 3
37 7
38 8
39 9
40 9
41 3
42 1
43 7
44 5
45 1
46 3
47 9
48 6
49 4
50 5
51 2
52 4
53 6
54 5
55 6
56 2
57 2
58 5
59 5
60 6
61 3
62 2
63 2
64 1
65 5
66 9
67 4
68 1
69 9
70 2
71 3
72 8
73 3
74 2
75 6
76 7
77 9
78 8
79 1
80 2
81 4
82 1
83 7
84 9
85 5
86 4
87 5
88 2
89 1
90 3
91 1
92 7
93 4
94 6
95 3
96 2
97 4
98 5
99 8
100 6
101 1
102 8
103 1
104 2
105 3
106 9
107 5
108 4
109 4
110 9
111 5
112 8
113 1
114 6
115 3
116 4
117 1
118 1
119 6
120 9
121 2
122 4
123 4
124 9
125 8
126 9
127 6
128 6
129 5
130 3
131 6
132 8
133 5
134 3
135 9
136 6
137 8
138 7
139 1
140 9
141 7
142 8
143 1
144 5
145 6
146 2
147 9
148 6
149 6
150 2
151 6
152 7
153 8
154 7
155 7
156 3
157 1
158 8
159 6
160 5
161 9
162 9
163 2
164 2
165 7
166 3
167 6
168 8
169 7
170 2
171 2
172 2
173 4
174 8
175 5
176 4
177 1
178 1
179 5
180 4
181 6
182 4
183 2
184 2
185 5
186 4
187 8
188 1
189 3
190 5
191 6
192 2
193 8
194 7
195 5
196 9
197 5
198 5
199 7
200 4
201 4
202 4
203 9
204 7
205 8
206 2
207 2
208 7
209 6
210 3
211 5
212 8
213 5
214 4
215 1
216 1
217 8
218 3
219 8
220 2
221 8
222 9
223 3
224 5
225 2
226 7
227 5
228 2
229 8
230 4
231 5
232 7
233 3
234 3
235 7
236 6
237 2
238 8
239 7
240 6
241 5
242 9
243 4
244 6
245 3
246 7
247 7
248 4
249 3
250 2
251 4
252 1
253 7
254 2
255 9
256 7
257 4
258 8
259 6
260 9
261 1
262 9
263 9
264 7
265 7
266 7
267 5
268 6
269 2
270 9
271 2
272 2
273 8
274 8
275 4
276 4
277 2
278 5
279 7
280 5
281 2
282 2
283 3
284 2
285 1
286 7
287 9
288 2
289 5
290 9
291 4
292 3
293 5
294 2
295 1
296 8
297 7
298 8
299 2
300 1
301 5
302 2
303 5
304 6
305 8
306 6
307 7
308 7
309 1
310 3
311 1
312 3
313 8
314 8
315 4
316 6
317 4
318 7
319 4
320 8
321 5
322 9
323 1
324 1
325 3
326 5
327 7
328 8
329 6
330 8
331 8
332 2
333 4
334 2
335 1
336 2
337 8
338 6
339 4
340 6
341 8
342 1
343 1
344 2
345 5
346 7
347 2
348 1
349 6
350 8
351 4
352 5
353 7
354 5
355 9
356 2
357 3
358 1
359 3
360 9
361 1
362 4
363 5
364 5
365 6
366 5
367 7
368 7
369 2
370 3
371 7
372 1
373 6
374 2
375 1
376 9
377 3
378 8
379 6
380 3
381 9
382 4
383 1
384 2
385 6
386 3
387 2
388 2
389 1
390 8
391 5
392 6
393 7
394 3
395 8
396 5
397 2
398 4
399 2
400 6
401 2
402 5
403 9
404 9
405 1
406 4
407 8
408 1
409 8
410 8
411 7
412 9
413 1
414 4
415 6
416 7
417 2
418 4
419 3
420 7
421 5
422 2
423 1
424 3
425 1
426 8
427 4
428 6
429 8
430 8
431 6
432 4
433 5
434 7
435 3
436 2
437 7
438 7
439 5
440 3
441 9
442 1
443 3
444 6
445 1
446 8
447 8
448 8
449 6
450 1
451 5
452 2
453 5
454 7
455 9
456 1
457 3
458 5
459 9
460 4
461 3
462 8
463 9
464 4
465 7
466 4
467 8
468 1
469 2
470 1
471 9
472 8
473 8
474 3
475 8
476 7
477 2
478 5
479 1
480 1
481 9
482 7
483 4
484 7
485 1
486 1
487 6
488 4
489 1
490 7
491 6
492 4
493 5
494 2
495 7
496 1
497 2
498 8
499 3
500 2
501 1
DEPOT_SECTION
1
-1
EOF
