NAME : gen500_017
COMMENT : uniform customers, demands 1..9, generated by bench/make_tuning_set.py
TYPE : CVRP
DIMENSION : 501
EDGE_WEIGHT_TYPE : EUC_2D
CAPACITY : 100
NODE_COORD_SECTION
1 0.2680463419076562 0.40413502331739504
2 0.5301017179904651 0.37607060376610235
3 0.1316665522894711 0.37698851616330475
4 0.021528250530323367 0.027421219084244886
5 0.7271772295844681 0.3437819980561102
6 0.26788547967315235 0.12150571085192696
7 0.17692480918555675 0.9872199825202805
8 0.34644506702868383 0.20383236061950316
9 0.8920650494360106 0.4072266894304345
10 0.910283864931937 0.3507742404261849
11 0.09384315338464788 0.6339758178182746
12 0.8566197568927725 0.05298763115110028
13 0.9209752069036522 0.06603570212529564
14 0.1501957203794655 0.4192250711577792
15 0.09529149122994596 0.261377574824987
16 0.07618590215664467 0.31468290640281094
17 0.23427705975267643 0.9351934355145791
18 0.43553223502153293 0.42636738413396325
19 0.5347122029522932 0.5745009029765803
20 0.2563767748982275 0.7976387711765853
21 0.8717993215739188 0.4057739788515402
22 0.5259988243740955 0.2842107747038626
23 0.3526610636070274 0.9828833089503398
24 0.6443650986791021 0.8238281760453094
25 0.7967219034785359 0.43852983050720296
26 0.1876867691363634 0.046554853898052806
27 0.6190227050467625 0.9002603563920668
28 0.8605410139163043 0.11715999462042181
29 0.8950527999063661 0.10184588860634525
30 0.41820521316417614 0.5963410335663786
31 0.9133449166225686 0.24155629463151163
32 0.09184611839167911 0.7804883044588251
33 0.2102470234170959 0.7673745608102293
34 0.8914068348044615 0.431880386924799
35 0.22080861587898426 0.0648348043520034
36 0.16209131698330803 0.7468506145918858
37 0.9936350447415224 0.8552105336324067
38 0.4450820424147107 0.6954143599993047
39 0.6254566433970314 0.30141275678041235
40 0.11334207344336589 0.569528553104304
41 0.4622250331384705 0.45127667669356264
42 0.00871871191997664 0.69421450498767
43 0.39877458302413094 0.04428518590193409
44 0.4377396057928974 0.08508048968305226
45 0.8141270682352275 0.6330535671862362
46 0.5963932133868293 0.014436417408468238
47 0.3852315434250154 0.9274165047840948
48 0.2930652344660577 0.2859515445128411
49 0.6626905231325814 0.9281045495466925
50 0.6102429304205098 0.2493997754035031
51 0.7737586991255581 0.12644954137260256
52 0.1909802595682607 0.28850198589990694
53 0.4253366861869443 0.15960935001163412
54 0.7340184960771579 0.4039629373158039
55 0.6474719296088094 0.4550659090110557
56 0.3335893389789416 0.5643068787310622
57 0.1575697814260668 0.35913298810379113
58 0.9477350852605441 0.6125779765983871
59 0.9770087566362343 0.7213964312442067
60 0.9453876253248352 0.3714749324479554
61 0.22569447844671564 0.6918968189565028
62 0.8600377356802961 0.7549286724268218
63 0.8090525151490019 0.11670974000524725
64 0.5287709864669466 0.29397169914565735
65 0.8870829831133923 0.05285288687268652
66 0.5020196865506112 0.30647406220346685
67 0.3275705018269851 0.28130957515942223
68 0.33544996273309224 0.26694164792090214
69 0.0354886316849633 0.10699934203267636
70 0.6711218191209577 0.8004997552328653
71 0.7271364191844464 0.21376752709066937
72 0.6837960780783303 0.23668089516908597
73 0.5358359769664629 0.05271545420052448
74 0.2997198762184453 0.7816264481483864
75 0.5112801042933465 0.9067147341030083
76 0.6392243460622911 0.8357150715041763
77 0.26463229638069186 0.2910203247048764
78 0.35804442583967844 0.3777209952281151
79 0.9687671695032707 0.17265283837386136
80 0.713928411405518 0.20537344585959427
81 0.9178876761887321 0.31694053766916763
82 0.8586292223062787 0.7512732969990497
83 0.4808694878909332 0.4869281168406864
84 0.946427953835339 0.15622889006416762
85 0.2202440170521075 0.6251844034504629
86 0.08174880051648636 0.3294543309798921
87 0.14133668283974354 0.9210496939680045
88 0.8485059800312034 0.30611845699545626
89 0.6182477654819497 0.09362398713896991
90 0.6180059063080753 0.2832920383012286
91 0.33125667800654823 0.4621212129763512
92 0.8113113281908454 0.8740776690159284
93 0.31265956215156576 0.9368059668779877
94 0.3049427766463304 0.36568737441051846
95 0.47034006596228795 0.19593826988354923
96 0.32088124637104265 0.09945527590145442
97 0.490771548795096 0.9370158944055045
98 0.2123427518409715 0.2970541678194676
99 0.23774777808242986 0.7448728482208723
100 0.5808409206054049 0.4843772019948712
101 0.22463249802187757 0.2869506728550051
102 0.6638251512462265 0.9292138315431135
103 0.7457436140200111 0.5043610967241267
104 0.2048896431501448 0.024279743892527073
105 0.569860830117398 0.7541545998723505
106 0.35181421665654955 0.9720674018671434
107 0.4080632485843715 0.524211884044294
108 0.0624080967480799 0.8984226651793036
109 0.8474234248901479 0.23410377584842768
110 0.5895211111914639 0.9782102383076824
111 0.5375694955505128 0.12360417915299471
112 0.4441330835166999 0.952778272029904
113 0.6300581009714294 0.7424427017996168
114 0.20457318840965855 0.3917013702679023
115 0.024345025246075402 0.7114670734320303
116 0.3212436359546553 0.4922459650352996
117 0.9750008925198186 0.2186373007279233
118 0.6199325353502393 0.19852645961356452
119 0.7692444858617788 0.5292128481700001
120 0.4293730586209348 0.05619113648802254
121 0.9171416929209948 0.4060835395235284
122 0.3331748850743087 0.10534160744419063
123 0.007670558794598548 0.36188256975788535
124 0.7445212405962376 0.9074528227114708
125 0.3005663427320385 0.5023084808905778
126 0.28846071870352163 0.3385183721421231
127 0.9536787380875832 0.9145666488571897
128 0.9431884597579167 0.8915864787584378
129 0.6008550550949174 0.9854513318147922
130 0.35988378482971983 0.4260986578490683
131 0.4813291164226998 0.563330209782128
132 0.9133421240228724 0.5301515571927415
133 0.9107015042567156 0.30253888984468136
134 0.15526240045817008 0.9120228381938629
135 0.8197302515553015 0.7010897235362312
136 0.3283547140962497 0.42640565684979426
137 0.3806925780492816 0.8218474552946706
138 0.2933990214030603 0.8976940444241557
139 0.8527219398964082 0.7821165868672968
140 0.6327757579964108 0.2143817279446446
141 0.3543570673021442 0.0035883074609346366
142 0.3591425638702672 0.6430539766901276
143 0.8694114858419174 0.6417243968649956
144 0.019053504652875697 0.09581098928474696
145 0.8641707257329062 0.015199433599116574
146 0.291700933777706 0.5923003779879895
147 0.08291438504155135 0.5092780416512803
148 0.08453763803775727 0.6457937801274858
149 0.6192696523146172 0.280313181185985
150 0.498335018325508 0.23089841875614858
151 0.3820542521492505 0.5267733779471697
152 0.20448889445354446 0.09287772986552434
153 0.6310868338707919 0.39890435707788463
154 0.16874972946350797 0.7506342385537575
155 0.0366603498216409 0.44933164851600305
156 0.13396450468233156 0.4582679835385456
157 0.008874472797948285 0.7765303054847632
158 0.3044643241933106 0.6020604464998943
159 0.9780200338512077 0.9384043442195229
160 0.228337390307632 0.03819765696676736
161 0.7571143714999554 0.5326245906515981
162 0.20869995780319406 0.2370272938974095
163 0.9396931920229082 0.02317121855829507
164 0.564723886671858 0.7818696296525255
165 0.8595697741967044 0.08109068572661116
166 0.21000604250297195 0.6048614654677598
167 0.5973941417580184 0.6248577801092382
168 0.784687302754777 0.5760251047177656
169 0.8518914764061879 0.17995420449279398
170 0.42993074547729626 0.10254115522243323
171 0.24818146755204296 0.7426613752083435
172 0.5601333271828924 0.7730128715104461
173 0.15172413376739713 0.9459260226801622
174 0.9926387515790774 0.9871387161082372
175 0.07778254425254705 0.3040810855090268
176 0.355161924807453 0.7211111404303611
177 0.5234580494287023 0.46497803321193165
178 0.7091037255695544 0.5836596137971404
179 0.8921703008864327 0.6539468267930342
180 0.4129594233016014 0.21922905383114988
181 0.5379635322305787 0.25379231369890254
182 0.16949428175814463 0.4300476956597554
183 0.7882733552647239 0.7525207316160656
184 0.6940455530684828 0.42430033560165614
185 0.28175512752871346 0.21062985236383946
186 0.9868983989014066 0.9165607340726382
187 0.3072887295201211 0.5826770864771834
188 0.20654384972932283 0.4567319970876359
189 0.7879717773212489 0.5381697330408243
190 0.574809983662495 0.920502986306419
191 0.45370582418726024 0.6840080038126435
192 0.047470154846186996 0.8977453241317992
193 0.3889390619908015 0.14473981838883698
194 0.9420359231907117 0.7226192498170634
195 0.9014422509297676 0.13747152291944942
196 0.7445757740908399 0.573027172321472
197 0.07465066233226803 0.5580072954222264
198 0.2750688416778966 0.7647563806850126
199 0.09243052962198517 0.7885659994593378
200 0.36161279949843905 0.28786640834153465
201 0.21329725919241183 0.9971936014371191
202 0.4746360559359897 0.6967999902868977
203 0.17491695458669698 0.29796659082661414
204 0.6510839363453202 0.1346362794324103
205 0.1041425153176635 0.19629929139429603
206 0.07194572932727394 0.07146438749754125
207 0.1818012031404641 0.6405032492331307
208 0.2777249006161575 0.8723673318480814
209 0.9781369823933969 0.3852234082682342
210 0.5664878574843416 0.8421554159263676
211 0.1427626117812748 0.2360642167125082
212 0.9234817814769493 0.20856720093092673
213 0.06193786331680673 0.4230653899430934
214 0.7407841351961528 0.2204355401889957
215 0.5871873341369386 0.6123650273882612
216 0.6305690472781289 0.40805418116540826
217 0.08302732517184575 0.6231135822497731
218 0.11293169316382434 0.7763446065190539
219 0.38376973535907954 0.16482058953938228
220 0.21872455445968608 0.536434176681617
221 0.9793139027155958 0.4311363344112362
222 0.4694682501124823 0.49477843863562465
223 0.7219666342196958 0.008205495440148813
224 0.4852319667410747 0.14428238556159134
225 0.10424130809925558 0.7408029151970452
226 0.047315980539911706 0.7327983720352995
227 0.20410312989373924 0.8115050297673507
228 0.18074549321682942 0.05739951288543299
229 0.3115108036081804 0.30505597397763307
230 0.028972749690340693 0.8926893921046727
231 0.3074191462647311 0.2457181011366686
232 0.9374420311534721 0.6757953121325949
233 0.8743880625316058 0.204460304410104
234 0.6064681469359702 0.6551964718603176
235 0.10456820240641473 0.19762224680396545
236 0.35438628362439706 0.14051578924669406
237 0.7917238915821158 0.7041910794287728
238 0.3566050550512946 0.05374304905572391
239 0.06958294271523802 0.7207896843631691
240 0.15698119162489232 0.009277641823198235
241 0.2621495173882167 0.31558643082860793
242 0.34331539877595496 0.8933143740593259
243 0.6714396426175897 0.5938571505361003
244 0.7269473670199026 0.3413411441845349
245 0.7815634871522409 0.414670621205283
246 0.4031062697205895 0.8624017921082515
247 0.7861109877923956 0.30972595366531674
248 0.7981730937097894 0.9661222965008237
249 0.2582686924597737 0.3125248247413779
250 0.15794455592777845 0.9419741453690182
251 0.9662288674573265 0.8208461645915587
252 0.8243255999220211 0.516455506571887
253 0.974463640579003 0.21003299928948949
254 0.2985901177118474 0.8165279417526577
255 0.4691422655871974 0.9209187519549076
256 0.5109536908167484 0.8932349406570925
257 0.6492751200927525 0.34735193747111925
258 0.270060066299289 0.6272769629506808
259 0.6251933476125234 0.5682653285299184
260 0.5805452706884371 0.8270268017618042
261 0.1321080805526511 0.5798436201560574
262 0.3402483144809515 0.5763796296233389
263 0.921751369655916 0.04803385200377708
264 0.17157796141103743 0.9348835275379533
265 0.18890286016571833 0.7118992176214167
266 0.4046424466387297 0.16221483093223632
267 0.1644956711270198 0.7284925555396231
268 0.3627473590998638 0.2758909990104469
269 0.6998493983461801 0.18646051685693177
270 0.19410115826129049 0.8306798697087636
271 0.8419265988427003 0.5544521507206375
272 0.19640207354734573 0.21581036114637986
273 0.785714363324575 0.8828845015193837
274 0.315519374523223 0.0359920001547559
275 0.48484172643220347 0.932932252498731
276 0.12456265780174802 0.2121566288536404
277 0.14576855786398568 0.2936496216528841
278 0.6402565821623911 0.9320657969966873
279 0.8571644504007051 0.5150932837516095
280 0.4743853221275639 0.847654369525362
281 0.4986318116725671 0.0814921421247361
282 0.8498121737240315 0.7680590043146374
283 0.5732607299452 0.5604244451563749
284 0.0017359754742743982 0.2971381882397629
285 0.2501990089238315 0.5861582516937348
286 0.8944244108487643 0.7710678841160876
287 0.6306506802276226 0.017036133290165067
288 0.6554045795812914 0.9903802156797832
289 0.8341535394460462 0.5047368662101014
290 0.1421135321785605 0.8195846506917985
291 0.5060073705116842 0.6336993958180566
292 0.8946763540951959 0.8796619932056687
293 0.472106045556706 0.8902598434858726
294 0.6659806704627046 0.4911110708469708
295 0.6868861625258487 0.04697520084646978
296 0.8277561609238 0.3760797049122018
297 0.10940469232182581 0.6153663505824845
298 0.7168696452011792 0.590655666290188
299 0.8707433390435917 0.4344908634988215
300 0.9960104915115721 0.23173134779209315
301 0.540955008168128 0.4228200583432761
302 0.7878529963797921 0.2274169385387388
303 0.30902905482978926 0.7588894233656912
304 0.17616571054916041 0.3971822673331218
305 0.36038875191580944 0.7852832407932043
306 0.5215048580372389 0.5908184492843666
307 0.5247896028208776 0.35873227624935133
308 0.9089798770860105 0.0856926373980218
309 0.5478401718638283 0.8840196625404082
310 0.8838789313058304 0.8943700505030294
311 0.9034327389066279 0.01602186865278754
312 0.9136175903207232 0.36300678348271875
313 0.908221306318187 0.114342716079886
314 0.6664493255163761 0.22128054360613614
315 0.17413542556297712 0.6905760402121323
316 0.8652354636280305 0.05157588453852657
317 0.5495628624384008 0.4418287172902129
318 0.13768413020795256 0.9408467679653869
319 0.4649127595940925 0.4042391261859778
320 0.6883637013286946 0.06205852241149501
321 0.6150671921391159 0.7748357706935396
322 0.6339264413176915 0.8626426433787626
323 0.9359092120083231 0.9652377153341106
324 0.25637472575778697 0.9305947099875762
325 0.531235263953901 0.701892351638886
326 0.5182968061554843 0.3095948407295781
327 0.11245505735520345 0.6132150336105813
328 0.3453517846337525 0.11070543416250578
329 0.76347483579178 0.9615466136249641
330 0.5458587320417135 0.8746781007095529
331 0.6735867102872639 0.4162187937509192
332 0.4957245640124065 0.12784116123384048
333 0.5909996569614917 0.40647354872072317
334 0.8572717875947046 0.10253217126757264
335 0.5635572134526108 0.4465239366511258
336 0.7415910570665374 0.16524419053128958
337 0.5911261940326621 0.9289178867639599
338 0.7751909498040662 0.7210049982720018
339 0.04049972162304949 0.3752238891643821
340 0.8379621757366966 0.6857281522531192
341 0.9236438780866584 0.3893094099016502
342 0.5662851746811801 0.8229531793995193
343 0.7757377130748738 0.062454866773025586
344 0.04418752527707159 0.7335040255333689
345 0.5414928746082005 0.28947123502393846
346 0.5610977815145234 0.11273224275783134
347 0.4220497778949508 0.2628153295020872
348 0.7394841521148823 0.19850502900282785
349 0.4410862861357643 0.46512120348305397
350 0.9100479871797521 0.18006704052561617
351 0.8272696703013441 0.5476810004808078
352 0.2037014339522294 0.6894937478612615
353 0.9725150875070322 0.5479141775381832
354 0.7570039851216142 0.5722408831854411
355 0.7881521326710991 0.288961312613497
356 0.8831697229862997 0.5929192440774333
357 0.5794912863924163 0.5022576640818486
358 0.16137981803233692 0.14772541595373212
359 0.5230664270560563 0.10694109263367713
360 0.09081951352074358 0.24513587380804036
361 0.19162974564401092 0.32881631304661796
362 0.35738082991875697 0.40255880754075646
363 0.9901600917682728 0.4475163218065019
364 0.41200447615268254 0.5133443183495824
365 0.5628789525078882 0.9859858594097518
366 0.0016305559869520536 0.3998960304770828
367 0.008585787178228554 0.8921873318894692
368 0.23203744189507092 0.5875715448205505
369 0.6103734605351048 0.006722870993575714
370 0.5229833629990477 0.10590562645375812
371 0.04975111768722229 0.27930615225466826
372 0.2698044724260503 0.2621999434576412
373 0.05259174681577217 0.7174529764721557
374 0.753992217572227 0.7586527268074362
375 0.8242175350307146 0.00974456960547232
376 0.17656346005567303 0.020540982686050535
377 0.7213884081527421 0.49507005393424486
378 0.34781176883026654 0.9705049089594929
379 0.8950615108550685 0.9329981489778548
380 0.0076225222703271145 0.27546030190251447
381 0.5345733997018667 0.780497954018785
382 0.6936877253177351 0.11626647974024262
383 0.6606434101149625 0.7657107808600243
384 0.9436811717472352 0.5356721248802004
385 0.705474946096641 0.4846768552781441
386 0.49845828695722627 0.5097827822114361
387 0.4315504123377658 0.7724921675014091
388 0.21531305603379913 0.9349297325493654
389 0.5765836475145362 0.633803027116705
390 0.12404682761140695 0.3995976756434252
391 0.2934195152674983 0.03686572897266582
392 0.818096025717558 0.9544313460334495
393 0.5597416196303348 0.6885200847340657
394 0.46699042315469486 0.39025329843521483
395 0.9038557932081419 0.6356168465176688
396 0.9523057088138039 0.6873110432616497
397 0.7727161994506506 0.15306520596145445
398 0.26833104542935793 0.4277846730544751
399 0.2563286055360001 0.5373389113012319
400 0.656805659539045 0.04555322447874022
401 0.29744324614355855 0.39371353613400406
402 0.7115149994097913 0.09949251314568552
403 0.7256390207680782 0.36474498880193695
404 0.38543873619091873 0.10443119911256604
405 0.02854461023205901 0.22978871158246672
406 0.6485325080124058 0.5492445122786914
407 0.4674159471483126 0.7402660808064735
408 0.12225181635659776 0.16517542007982444
409 0.6431157424552807 0.6615554982144166
410 0.017731666473442598 0.12841965766880226
411 0.715028656674951 0.3008472843649217
412 0.5024828691956256 0.2421781465940157
413 0.18285901238073787 0.9149640866203067
414 0.37650231292760983 0.5729471253467195
415 0.164735589138863 0.23898059259777626
416 0.7260916253466769 0.8378363277443592
417 0.672987999405365 0.552208854181352
418 0.4049623175008086 0.5665418567112527
419 0.7864104888651702 0.12313140166589076
420 0.22969380572272113 0.28244045771701964
421 0.6330011517168201 0.30613015982240477
422 0.6734076956204302 0.18863686896823606
423 0.7466475266738811 0.6384530783757265
424 0.48822686528947856 0.18013152026649526
425 0.23048503256931518 0.6433554026943917
426 0.013206461970573291 0.1013412575672612
427 0.959271749354245 0.3842540655690584
428 0.6090006471570566 0.8412362771490112
429 0.6613163560543407 0.10754431171121048
430 0.668369679665219 0.8076247495973782
431 0.2425656165296709 0.6975450213146411
432 0.7365523517907315 0.8602416359933492
433 0.0026731866149873884 0.32730183929374046
434 0.4756939904382289 0.3026609420922779
435 0.32710478000010557 0.48408731813091066
436 0.18170345317425407 0.8326050110281572
437 0.675266500113418 0.0029122600083825168
438 0.23596721528930564 0.04340001985139297
439 0.5090264746127166 0.09669606367617645
440 0.7665209230492487 0.1778732245016259
441 0.23493262278675142 0.6822919151740053
442 0.6533030774285985 0.07310863029126047
443 0.12481215569055604 0.6378427974466218
444 0.3616106428356546 0.7600832870420929
445 0.527074402554804 0.6238019492478555
446 0.49447340864638345 0.2538576381819818
447 0.26379331335752954 0.06926663106024
448 0.10969753555993 0.05770093813237909
449 0.6537864870682659 0.3449991130258854
450 0.898288062322613 0.9148907318681085
451 0.11547854948041247 0.03660803713224814
452 0.1328499676730419 0.10150340978233585
453 0.17302561892009627 0.05191164559326722
454 0.590338471339251 0.619655575274357
455 0.09462620150349133 0.876357950936495
456 0.12104993774171768 0.9412499014167011
457 0.8306651460150598 0.8271870204049216
458 0.7980514942668138 0.5920579949563656
459 0.10708854278348723 0.9798861137107489
460 0.9722440780201844 0.20497473743767403
461 0.4550728879351724 0.963458263132728
462 0.07554516834759828 0.16357251318632582
463 0.1702879137950608 0.22884832983709147
464 0.7252170073196917 0.08160708014773033
465 0.9340369905691559 0.24107305933795165
466 0.21232259039579737 0.6364938358261911
467 0.5491224922681318 0.2143991222367555
468 0.05498773078029662 0.4155654901504019
469 0.2093055227397882 0.4745617896600355
470 0.861413366408891 0.02740315784246994
471 0.635358408382335 0.4032033724720099
472 0.2869891273209134 0.8478769549407087
473 0.9469364094189865 0.21033386793472542
474 0.4163222164192465 0.014004744037324324
475 0.9747530228820592 0.11303550563706022
476 0.3115113457120178 0.8322820643986397
477 0.5027684803109603 0.9698940068226729
478 0.42913361311513976 0.7318147430803307
479 0.9256281132359508 0.6353963460623973
480 0.6873568514635632 0.3560497521898254
481 0.017685863687059822 0.022968368711520637
482 0.4073161557001238 0.6208568888979453
483 0.699435736377915 0.3015221389075846
484 0.9527180873451706 0.20927967426055727
485 0.39885593609388104 0.5960816783851167
486 0.4464143368964806 0.9840490476214931
487 0.6734586253937807 0.3927643906646693
488 0.18072521637974903 0.7830427070036968
489 0.770722235498233 0.39307618586482485
490 0.0460973559219624 0.32309032345749555
491 0.7836264038158743 0.30923957611522757
492 0.7866066868422033 0.2163729376254968
493 0.17484302358495196 0.6759856306466767
494 0.24100525108796933 0.461075708139262
495 0.2954420812073473 0.5441253340102384
496 0.4853761590442568 0.09152080013935748
497 0.31848670223074715 0.7919477929993226
498 0.15856638283160873 0.8814501453232954
499 0.24277126270609184 0.12987797629929243
500 0.5105264304634661 0.5383580769497667
501 0.4191976223219135 0.19429837448780318
DEMAND_SECTION
1 0
2 8
3 5
4 6
5 2
6 7
7 8
8 5
9 1
10 8
11 1
12 8
13 6
14 4
15 5
16 6
17 7
18 4
19 4
20 1
21 1
22 1
23 7
24 9
25 5
26 7
27 8
28 4
29 8
30 9
31 9
32 3
33 2
34 7
35 2
36 8
37 3
38 3
39 7
40 1
41 4
42 7
43 6
44 1
45 7
46 8
47 9
48 1
49 5
50 5
51 6
52 2
53 1
54 6
55 3
56 8
57 1
58 7
59 9
60 8
61 3
62 7
63 5
64 3
65 5
66 9
67 8
68 3
69 1
70 5
71 3
72 3
73 7
74 6
75 8
76 4
77 7
78 2
79 5
80 2
81 9
82 9
83 5
84 1
85 5
86 9
87 9
88 8
89 6
90 4
91 5
92 7
93 5
94 6
95 2
96 7
97 8
98 8
99 2
100 7
101 4
102 6
103 2
104 4
105 1
106 6
107 4
108 9
109 7
110 2
111 4
112 6
113 7
114 8
115 2
116 6
117 9
118 8
119 3
120 9
121 5
122 6
123 8
124 5
125 4
126 3
127 6
128 2
129 9
130 5
131 7
132 4
133 9
134 9
135 9
136 6
137 1
138 1
139 9
140 2
141 4
142 8
143 7
144 3
145 7
146 4
147 7
148 6
149 2
150 9
151 2
152 3
153 9
154 5
155 2
156 8
157 2
158 6
159 3
160 4
161 6
162 2
163 1
164 7
165 2
166 7
167 8
168 6
169 3
170 5
171 8
172 5
173 2
174 3
175 3
176 1
177 3
178 8
179 7
180 7
181 1
182 9
183 3
184 7
185 8
186 4
187 4
188 2
189 4
190 8
191 7
192 3
193 4
194 4
195 3
196 4
197 4
198 8
199 4
200 1
201 8
202 6
203 2
204 8
205 8
206 7
207 5
208 1
209 5
210 5
211 3
212 5
213 5
214 9
215 4
216 1
217 3
218 7
219 9
220 7
221 5
222 2
223 1
224 9
225 2
226 9
227 2
228 1
229 8
230 9
231 5
232 3
233 1
234 9
235 4
236 1
237 7
238 3
239 8
240 2
241 1
242 4
243 6
244 7
245 3
246 1
247 9
248 5
249 5
250 2
251 1
252 7
253 4
254 6
255 2
256 1
257 7
258 1
259 4
260 3
261 3
262 8
263 3
264 3
265 3
266 1
267 9
268 1
269 1
270 9
271 7
272 8
273 1
274 4
275 4
276 5
277 5
278 1
279 3
280 8
281 3
282 3
283 3
284 2
285 8
286 1
287 6
288 9
289 4
290 4
291 7
292 7
293 7
294 6
295 7
296 4
297 8
298 8
299 8
300 5
301 2
302 1
303 2
304 6
305 6
306 3
307 2
308 9
309 7
310 9
311 6
312 3
313 3
314 3
315 9
316 2
317 5
318 2
319 3
320 8
321 2
322 8
323 2
324 4
325 4
326 9
327 3
328 2
329 6
330 8
331 4
332 4
333 9
334 3
335 7
336 1
337 8
338 2
339 3
340 5
341 8
342 7
343 2
344 8
345 6
346 7
347 6
348 4
349 3
350 9
351 5
352 8
353 9
354 5
355 8
356 1
357 6
358 7
359 1
360 2
361 7
362 2
363 7
364 5
365 2
366 7
367 7
368 3
369 1
370 2
371 7
372 8
373 7
374 6
375 9
376 9
377 9
378 4
379 2
380 9
381 3
382 7
383 7
384 8
385 9
386 8
387 4
388 6
389 4
390 5
391 6
392 3
393 2
394 1
395 9
396 6
397 3
398 2
399 7
400 6
401 2
402 8
403 9
404 4
405 3
406 2
407 9
408 2
409 5
410 2
411 3
412 2
413 2
414 4
415 1
416 2
417 3
418 7
419 8
420 2
421 4
422 4
423 8
424 2
425 1
426 6
427 7
428 1
429 5
430 9
431 6
432 4
433 5
434 8
435 1
436 9
437 1
438 6
439 5
440 1
441 2
442 8
443 1
444 9
445 2
446 9
447 3
448 2
449 1
450 4
451 8
452 1
453 9
454 8
455 5
456 5
457 8
458 4
459 1
460 4
461 7
462 9
463 4
464 3
465 9
466 4
467 3
468 3
469 2
470 2
471 9
472 1
473 9
474 9
475 2
476 6
477 6
478 2
479 8
480 6
481 3
482 1
483 9
484 1
485 3
486 2
487 7
488 4
489 7
490 1
491 3
492 4
493 3
494 1
495 4
496 6
497 9
498 8
499 9
500 2
501 5
DEPOT_SECTION
1
-1
EOF
