NAME : gen500_008
COMMENT : uniform customers, demands 1..9, generated by bench/make_tuning_set.py
TYPE : CVRP
DIMENSION : 501
EDGE_WEIGHT_TYPE : EUC_2D
CAPACITY : 100
NODE_COORD_SECTION
1 0.44645332307898566 0.19653620560122353
2 0.928988460082125 0.0549653296877427
3 0.5547127530346263 0.7821351144321694
4 0.11905265444914404 0.24687578486354989
5 0.855887743354074 0.6555684567118111
6 0.10047164633488515 0.26111947563928906
7 0.6258925275526017 0.9244335832360114
8 0.3952090018213822 0.7142993168501734
9 0.69627117046037 0.9540684314748857
10 0.8870170228293385 0.4086639151246704
11 0.4965236134156471 0.480597522053814
12 0.598421778870005 0.7755964067833478
13 0.5595368056049425 0.39881424046319636
14 0.627187231894531 0.881623032726741
15 0.18208057132865907 0.6082196293295696
16 0.4519895170927213 0.7450405465043506
17 0.7271447514897459 0.36720031571217404
18 0.4077439574495578 0.8046745826396987
19 0.34209026245255536 0.31726295612764854
20 0.618526562368162 0.3258264429903148
21 0.8858440568188183 0.08452997740650492
22 0.747247985615597 0.9686644093878345
23 0.4041511797279217 0.5051116865256411
24 0.8990067433249026 0.09988548740180592
25 0.5406945805771813 0.9243302809396726
26 0.9954340694887426 0.8414003799144324
27 0.6543727622678647 0.6379853482168872
28 0.5147448087783948 0.3961943284671412
29 0.6425616215226645 0.8824762378668247
30 0.8906856593701906 0.4027360478454235
31 0.48983192507226303 0.6190847451530906
32 0.5067475408645516 0.5493389669120322
33 0.3828966727253904 0.38314463243011987
34 0.004814665335328927 0.9617694574202833
35 0.09036666707355134 0.9622114966838925
36 0.38390637398571736 0.7616956034673285
37 0.13670995630285998 0.7972137506296949
38 0.9949203936495633 0.3939592500078112
39 0.7865136237780378 0.7792310986765518
40 0.8778811065807128 0.28612464620257994
41 0.14834835974425442 0.6662492867663289
42 0.6981124134135428 0.06896451777469681
43 0.44812632853493717 0.09882070249449704
44 0.561736270188447 0.5967373106264148
45 0.11357933515140117 0.33572531147559137
46 0.26207630382440106 0.1350368317651348
47 0.37724365696378603 0.2733976332728937
48 0.2445997897847917 0.9914221100586967
49 0.033444350182407545 0.030943966483184204
50 0.2721158185927556 0.5933466023317092
51 0.814589101140998 0.5201868061374179
52 0.9082267581171858 0.46570413402188093
53 0.3048307722785376 0.285374409327217
54 0.6476219531415071 0.568387458506755
55 0.9438535779528255 0.6051997723513343
56 0.5379793208585741 0.02447059116319583
57 0.25281697110958123 0.9720140057173674
58 0.5982701135483531 0.1468582699210308
59 0.03746797503231103 0.30547851724038877
60 0.4926631815130448 0.10317887482310695
61 0.6445247967382572 0.4490090311452207
62 0.862240200501922 0.53092753030115
63 0.5885469327879909 0.30232185856535587
64 0.3379211111421898 0.9463220782501817
65 0.544435696020846 0.28070362651678993
66 0.8915935219082217 0.15276681551457882
67 0.43436011011349873 0.050082492329844186
68 0.8691176371989638 0.3347895783017082
69 0.33565961627805474 0.5191201704453177
70 0.41427866122734347 0.19996540262432738
71 0.4456567409887653 0.19686979850321307
72 0.19572660601692127 0.22416942782853055
73 0.850049366992375 0.66641794780663
74 0.2756710749627118 0.879638956800178
75 0.8539692191638476 0.7106194209616956
76 0.22426208643551448 0.6241354833485873
77 0.9458450995651 0.872660516739671
78 0.43928588801396373 0.35235165828004833
79 0.5929335008543315 0.9397264135178706
80 0.6410527719076304 0.00461986574600437
81 0.5734809174442842 0.22977888936179036
82 0.643010289546927 0.8701032895705708
83 0.05658054256195133 0.04590990793198302
84 0.4375783546304478 0.1172346185294385
85 0.7425030263119032 0.8389381850831602
86 0.9646730065511201 0.6552760506879832
87 0.6728794532032948 0.8288225586657363
88 0.6940030831384018 0.777099057447431
89 0.73788019357235 0.15706418305346515
90 0.5037471964120726 0.20047493051279153
91 0.20937198843094607 0.2015694832090431
92 0.9102618492895143 0.4447439927684895
93 0.6745122695797114 0.4148980295947592
94 0.889347683002331 0.8683361216495452
95 0.5829554764830257 0.09406662707047286
96 0.6111049754196006 0.07582985944123843
97 0.524780451155551 0.6021020802492116
98 0.8181215775697449 0.0915170211003058
99 0.24957774008930933 0.06885287542529284
100 0.504066508774274 0.5793961162196442
101 0.37258115028710315 0.012448723528781347
102 0.23209359305751975 0.18808621521557778
103 0.7242110166192727 0.08281973367665041
104 0.8301133769178333 0.016452822653802435
105 0.5157431382623737 0.6375565508722925
106 0.2164861577352043 0.5318755733732442
107 0.5741054443794403 0.6616953077702028
108 0.40848408707064443 0.5430347245383171
109 0.1421263396714486 0.4269695879131359
110 0.5543510133878147 0.248065599507568
111 0.10144447465871764 0.05119261052453139
112 0.734483538498142 0.09648578505522964
113 0.7074505975857251 0.24318964527079978
114 0.7236810737216512 0.884719151084088
115 0.8663141779967023 0.383891707486981
116 0.46767932816757496 0.1320393287907825
117 0.3054690760170169 0.05255198043191012
118 0.5921268463248955 0.14702679568510135
119 0.07669600596713999 0.4082326834055273
120 0.7348041153326598 0.4951113196250668
121 0.6927512132148199 0.9830672636440995
122 0.6269048956946333 0.09863163158495969
123 0.7458935841313866 0.7688886235809688
124 0.7599043516109172 0.3063482670143357
125 0.8621427778136642 0.877186727494863
126 0.261178184094382 0.8422929325526742
127 0.8963096693226807 0.32544222739952167
128 0.5406322328968555 0.9897486717434107
129 0.5392464581143857 0.8816592144379143
130 0.5043515383230587 0.9321057377546919
131 0.28249499393000677 0.9280729780727961
132 0.6403440021527912 0.27603893691666614
133 0.6589739153786147 0.6209377277578938
134 0.15004088492999468 0.05922015643836431
135 0.8871140586754305 0.8548472448597465
136 0.9592111545449334 0.21450746597051495
137 0.2750449952498286 0.6072731273988412
138 0.5397348320512865 0.4126670428108501
139 0.8305061366423298 0.5942896402793876
140 0.8350689025889837 0.4505480121558658
141 0.02985356126594052 0.213653089697035
142 0.971314772082137 0.1287700233812058
143 0.376027994801614 0.6069261806093093
144 0.37364748131172876 0.5296513216055457
145 0.9967073327534743 0.6094072356974874
146 0.07210424827620454 0.26831494986937565
147 0.36397061751583293 0.44279365878151933
148 0.5497689556253345 0.6975787853685076
149 0.6953798847824562 0.4369809531649119
150 0.3562923795902345 0.3347534120965381
151 0.5168070309415365 0.20127431503784132
152 0.2568776849500718 0.42944675903561036
153 0.4846566385571792 0.7286267139860008
154 0.9708518361006581 0.029084760126903975
155 0.13223105578330518 0.30379347989423944
156 0.6592196479775259 0.4749633668533755
157 0.7121141431794051 0.5635434509517904
158 0.483076873534941 0.10437192556736141
159 0.0014935249750851476 0.2483231089910476
160 0.7315895353326411 0.7879704439950711
161 0.8242564386144651 0.5391742747300385
162 0.4378139700804561 0.37307978303423883
163 0.28438788967365536 0.4961796790331826
164 0.12556543593513902 0.8943701660434792
165 0.7758244246814265 0.13603879805415364
166 0.9030475167398166 0.39755741049066784
167 0.8031316313284808 0.3453830188818481
168 0.49817667275554967 0.8623269320467274
169 0.05404545261944149 0.3173536405897931
170 0.1187918923650092 0.360560128525682
171 0.2403447600479568 0.3178635972266797
172 0.03840916612562295 0.3487868674148247
173 0.3936498275561714 0.49436344337268867
174 0.2865524864854333 0.2776117359955351
175 0.7872008906661109 0.7778521537981821
176 0.9923757680714478 0.8326618962716729
177 0.28718250032253256 0.0631917155664663
178 0.564253899553554 0.5691327906985028
179 0.5712011054065276 0.09523272737746624
180 0.32725097304917705 0.9613543932628392
181 0.7864832219140904 0.0414327516673082
182 0.5987360905394673 0.407703974322262
183 0.7699726146924312 0.8582962413626936
184 0.42214284088108067 0.7044591922488025
185 0.1525706431309657 0.6202511605276523
186 0.6345368532476884 0.5732123365360696
187 0.8231972081802545 0.3629486052609606
188 0.8816470429274149 0.08817281700890167
189 0.6032907684251413 0.8558591746186203
190 0.8820421197993304 0.6807163867228161
191 0.4925525839104302 0.47829761577572627
192 0.49946806969437163 0.35522222169279605
193 0.7306312061271347 0.6273317188700659
194 0.7186469343695485 0.42225181594803907
195 0.8643952888603049 0.4903778753200395
196 0.04336758434025578 0.10105743390057964
197 0.5602215615258563 0.3198026639982763
198 0.15511214607093815 0.6818702571730513
199 0.21825897228161972 0.236943722022528
200 0.263853331990727 0.5779975020392278
201 0.5574870210496266 0.34363291235001003
202 0.8401858398594302 0.03125312526565538
203 0.9713430096236706 0.7317829726223286
204 0.3312694342904555 0.8670435065853389
205 0.476458221631047 0.08003158648850461
206 0.02322377013670096 0.4292495905327438
207 0.7277348448825343 0.6551956081328636
208 0.5900343406046147 0.4513143268074542
209 0.8240885799047879 0.116357388814055
210 0.24259592310950084 0.6648091966657756
211 0.9136008527931797 0.540476143649107
212 0.8962342004517196 0.6405285522111499
213 0.5773638473981527 0.8776841381042629
214 0.6339033482459953 0.8851841311656131
215 0.9602605322034676 0.5661069429431187
216 0.5752780939380892 0.6562830812712243
217 0.368021633965089 0.7789306294715863
218 0.7726246975398579 0.3285624011362164
219 0.32977203094035046 0.9335693680632241
220 0.5155835149640622 0.8220959003105512
221 0.9529585673743787 0.6814623052732123
222 0.8682319736037633 0.4768293275380785
223 0.7057885954897296 0.0991972145270299
224 0.5929997172972834 0.8475586480987979
225 0.10301021278988498 0.5612993146449258
226 0.4184085956588154 0.005732709308740147
227 0.9890810748742465 0.4966689494765538
228 0.8634853765286354 0.6335756389217468
229 0.7195892851344459 0.5555445092138553
230 0.38849813291184554 0.1793116510633994
231 0.22874693922763945 0.060618342389248125
232 0.1957141872926409 0.10102505606718315
233 0.3216118412910336 0.06172601112549991
234 0.847353583929452 0.7908931048733032
235 0.4596395018769587 0.6744256558712671
236 0.30981189317592983 0.11139968401087397
237 0.40007572051433016 0.23543587936600918
238 0.7706083081516579 0.18453421538856885
239 0.7138733661123998 0.7891708775064652
240 0.6702324283342174 0.505584324659071
241 0.20018804249833955 0.8823916374829615
242 0.9268588162463229 0.5041318001332731
243 0.7012548272329239 0.002296191141043513
244 0.4878650176090553 0.03430872977741528
245 0.88819910534406 0.9788275788268683
246 0.8483518556371881 0.8288895346130316
247 0.7766118949721084 0.7857458167409602
248 0.8118895484203738 0.4962343986432949
249 0.019471152592500762 0.5762281459032532
250 0.7558600782687361 0.6830831551358822
251 0.18496346103938865 0.012667896257604228
252 0.44790183063124756 0.05452757377476447
253 0.6236396495784463 0.07659137827670492
254 0.20909298617264505 0.5433921218117583
255 0.8306493891844356 0.953413278274709
256 0.05839763554759403 0.7250039936419024
257 0.24574103711011475 0.7800216557246322
258 0.3941515971117161 0.022744349672510045
259 0.5849771629153335 0.2863104093498404
260 0.42496572758535156 0.7369148147290688
261 0.7166948758148759 0.5213518339266545
262 0.8074427166819435 0.9806593609101162
263 0.4619571422011437 0.5585955811899987
264 0.7324398372169345 0.2119948827170166
265 0.45988640064191744 0.14444829197409814
266 0.4226754533638928 0.27870171491290285
267 0.9435702144245088 0.19952714295654184
268 0.9778983995898674 0.14012193569880593
269 0.1585192839454601 0.5744575128466194
270 0.29725354760695055 0.3918629317889759
271 0.7398026672191889 0.6200478540944298
272 0.4551329096284342 0.3977621399348438
273 0.1945405325022902 0.05030667161871849
274 0.06806577695942417 0.2530477258641137
275 0.6306597973937208 0.3211886096216595
276 0.8188279205703866 0.827190597920368
277 0.6426475471504427 0.8905184348792794
278 0.06116088142980003 0.8551332546023426
279 0.5093947648139787 0.831837378429754
280 0.8725149025911437 0.36264440142396837
281 0.0004826187277727767 0.20666794900172403
282 0.5573271651382881 0.4133448085835363
283 0.886890884911222 0.3098961675204809
284 0.345892086347095 0.21539419046332797
285 0.5015988510397943 0.4052964268730632
286 0.23300976585901712 0.9934350676568144
287 0.6127665756652865 0.6353879185313843
288 0.4487352479972896 0.9902337338498683
289 0.49970879804692536 0.8506196353040387
290 0.3583715675969482 0.22524258851361534
291 0.3421909088500872 0.11979345864251989
292 0.2568562475207177 0.7825553921027985
293 0.2325773854295401 0.1726918959049637
294 0.33620606649178797 0.000876834634551682
295 0.36849320878454206 0.382037510752116
296 0.9042330489330281 0.30555614897152095
297 0.41021002582184385 0.14218449128272115
298 0.8979760735573338 0.6390367657016794
299 0.21784006815373114 0.19724803403726643
300 0.06349350388606889 0.9485095674406238
301 0.49135221851867616 0.580010863470074
302 0.5441953041974376 0.775494842149798
303 0.04650776661483713 0.642953782737031
304 0.21439904490646666 0.6413327605713611
305 0.5955140073788374 0.6013740008226227
306 0.8495408163342941 0.712793127561799
307 0.3147984063604363 0.721581358706173
308 0.03593583571774461 0.8844501693048903
309 0.16873221215377998 0.49254969243208635
310 0.7881169801021334 0.8671995343045368
311 0.018786119551060798 0.018728221195943084
312 0.31753732784158406 0.4393981106548869
313 0.6481681730118884 0.6091193563569538
314 0.6594907323181457 0.49895231583757516
315 0.8484330998007448 0.4420380964410492
316 0.04866352272155039 0.4069964477214083
317 0.7544319919673129 0.4405852851422519
318 0.5307943174868376 0.6355196601611018
319 0.7415724089152147 0.16398722138891397
320 0.46094229924801455 0.4716324209812526
321 0.8672853658357899 0.747529399688361
322 0.6071407667461595 0.5082257307889925
323 0.3867460155703677 0.9425575533706569
324 0.49145976082357723 0.8048323267185211
325 0.6993871934117314 0.08667093510029067
326 0.7759361172796201 0.7184150922247405
327 0.009132984628606344 0.955840934813899
328 0.8966198163020763 0.832332487169412
329 0.10919035843559588 0.8977421241098236
330 0.9993391723841277 0.23781712523562815
331 0.15165303499356908 0.27021745100844563
332 0.25226764762664944 0.10066947015451677
333 0.7530794271811092 0.8959367434420628
334 0.40013391746207483 0.8141874574700917
335 0.5249734303710077 0.7186960457756406
336 0.6995800839766328 0.24793930370332729
337 0.9826829129241741 0.6943489978024839
338 0.5605082305473146 0.3255216883978277
339 0.2856405211494727 0.5723587158264988
340 0.40952362376129725 0.42694383312192774
341 0.5548749704800288 0.12492434571822153
342 0.9747762527827488 0.7067985214880542
343 0.08333875686043524 0.06348937557888157
344 0.41016066801234274 0.13125347666976805
345 0.26455332200802895 0.1363882587347376
346 0.5118866502958667 0.7148114959427571
347 0.04336338050454269 0.16922663780596514
348 0.875374669839793 0.9355056093246189
349 0.32550729850778615 0.7237504246632566
350 0.8370996776219797 0.17100337478701733
351 0.7179798040976699 0.8048274996830521
352 0.03335023756137856 0.5316888840647873
353 0.6721422707687387 0.2765385226824626
354 0.38061671720776236 0.5748149592533512
355 0.30395986156966903 0.6910213202285929
356 0.6026777783346835 0.8485931954670656
357 0.05292441476610732 0.4947021364423658
358 0.34102613997447273 0.757415705660462
359 0.8893021151021097 0.8442691706426527
360 0.7043184896238311 0.7052116971109424
361 0.6511125668615273 0.3630275595451363
362 0.2096799055411921 0.9957247590373025
363 0.07488515861440881 0.7253487798951653
364 0.09165287228040087 0.542393858710328
365 0.6643650293836235 0.17092883260145564
366 0.17410052373231388 0.19484743955445583
367 0.1833936372787628 0.4616568547735591
368 0.25549525739404766 0.10349044218985692
369 0.11866720628995187 0.310595213881545
370 0.4824705053155055 0.0186459346954575
371 0.4840185455183432 0.4686056023883993
372 0.1360066192205226 0.31804720083158877
373 0.9997824891144659 0.9946787875108022
374 0.6698275111890539 0.4842165948128837
375 0.9892290583466874 0.5821290777484572
376 0.8349799066906505 0.2233653839516423
377 0.2731818845182298 0.12174651105523182
378 0.03678975003014162 0.3344271512812077
379 0.05985558610232955 0.32840467809223306
380 0.5157142992369099 0.31996090085992734
381 0.27121807163616507 0.5253456570240677
382 0.6162906088458361 0.571048986312361
383 0.6445516367417817 0.5298255128191292
384 0.38354915962189406 0.2271746338898788
385 0.5812272570138275 0.9651059939423107
386 0.2735799012344907 0.6768684047574511
387 0.47495271906005077 0.4076425076291599
388 0.9141170280106957 0.1278014788109607
389 0.12325411974022982 0.7170416572948822
390 0.15269215637748046 0.47443623049117445
391 0.6886062376220549 0.2473314522576613
392 0.6195773676339222 0.515485574705054
393 0.2749308214799857 0.18970990479997818
394 0.009810802617995829 0.25511670949949505
395 0.3101181203639284 0.6477257290329996
396 0.8777556318751141 0.0823272783528407
397 0.3073937641832002 0.016977411301432044
398 0.1585250181175899 0.6124326686639523
399 0.6646732875093981 0.24866772571053952
400 0.4285403187387091 0.43861585684330406
401 0.4165054583597473 0.6193581415315325
402 0.22441781356794466 0.8821128500664357
403 0.46153769667193945 0.10622824211858417
404 0.1872514320104578 0.2882925152668888
405 0.45215943618582255 0.7709007070359186
406 0.030358566944567622 0.08283703171061774
407 0.18623862531723312 0.05661680797344848
408 0.7925785546859411 0.9727796650372202
409 0.7369507708456585 0.6434233041166746
410 0.6736385846117392 0.7083597390535384
411 0.4939070244619834 0.09438501287826306
412 0.38224328136622476 0.37211255476754457
413 0.6067562363667345 0.5433894378806076
414 0.7678549552735853 0.6287213413514695
415 0.17663007712861478 0.22348151108589276
416 0.4761868098197526 0.43531820521317277
417 0.9188475430446472 0.537240721369788
418 0.3732264055876534 0.27047371678756893
419 0.05214246600057948 0.42317461924279454
420 0.28259745724941 0.08926480925342128
421 0.18558405371319098 0.7496237050160962
422 0.6813107613887265 0.7950710048889068
423 0.31366790946014456 0.8136236466896956
424 0.4324145136526798 0.17166951490554605
425 0.0426893370806235 0.3231623724992164
426 0.7220960522177045 0.5263627325824634
427 0.886572236675291 0.281755267919127
428 0.6351383918763989 0.8206613051622178
429 0.09165872063435809 0.20427275042162485
430 0.5626267233634138 0.7089188393086485
431 0.11778451827973624 0.6043238001843668
432 0.46773188603963534 0.5942485423913034
433 0.1347147633079756 0.20294607027858336
434 0.17019607211543397 0.7747616950565437
435 0.043730230189442554 0.7090442505449444
436 0.06610618830780912 0.9079421201215041
437 0.4895407915069109 0.3450721232466626
438 0.13916349902159153 0.5742958467082179
439 0.736841596230061 0.7648222084888467
440 0.03412066211857845 0.037672522085516524
441 0.7452773692630223 0.5229793989518975
442 0.01842284094431379 0.21243497898495523
443 0.5920789946714249 0.57113241801951
444 0.6873455960885583 0.5069756436596533
445 0.9160903326051635 0.1141381625985124
446 0.3703656853315328 0.7990491959573556
447 0.9049452629652415 0.8431446114423583
448 0.36644225599102875 0.7818480594791146
449 0.7584315551942019 0.4175422255321205
450 0.5904088277889612 0.45934955985175374
451 0.28713433112454545 0.5019614004608214
452 0.42885086861180166 0.17172988420338353
453 0.6540219385548588 0.9208234746320189
454 0.8223144787421296 0.04048582248570198
455 0.5120684325085961 0.8360626496446938
456 0.4153412885241722 0.5518364998316456
457 0.4985022251891613 0.5254932492515224
458 0.272017482070009 0.7675118376563791
459 0.9435990204502738 0.30532858512385974
460 0.5990833764633179 0.5855192242028688
461 0.8000443126858371 0.5686910410087543
462 0.9976279988194786 0.6129457800730892
463 0.431528719628803 0.1685119078436701
464 0.5891940245425823 0.8599264103948818
465 0.8309510053747915 0.16451680080182396
466 0.7653893277844895 0.3247977877803766
467 0.35341666119107373 0.33294019829209687
468 0.6643204132935804 0.4136842102170285
469 0.34754628832947876 0.6397910703162966
470 0.720893379381516 0.9906434201137241
471 0.07923509387646865 0.494991963786235
472 0.6253011377627797 0.8741648431211503
473 0.610764838626395 0.8146804605355538
474 0.30874884391547197 0.5917883176051146
475 0.7862617144576083 0.20255483178212508
476 0.8643713150250125 0.07852868558531367
477 0.7676264692185385 0.7750726701404203
478 0.6797170248946801 0.7502152480706218
479 0.9331606206787338 0.9980483024687501
480 0.4250556419394008 0.07997580364633983
481 0.7683775674036762 0.7543698242864311
482 0.4069401229755907 0.9029580470343777
483 0.12324272010455928 0.23682104030627715
484 0.5177688218411778 0.6769863764971394
485 0.03357655661336845 0.1551702300729647
486 0.6484017061539771 0.25283009365889475
487 0.6167304636691379 0.4750544355185744
488 0.4364480366631769 0.5133454436329628
489 0.48439695178052034 0.47718647313141827
490 0.5471956575455558 0.7610620534568601
491 0.44620051053759235 0.9385962615286965
492 0.7951853589580218 0.4181247571117722
493 0.29826225151058516 0.49722989442345156
494 0.9487239266884538 0.6323664532992759
495 0.994923353483323 0.13374322106579062
496 0.7737130079345073 0.8606697122810177
497 0.3683066148747093 0.661240137948742
498 0.9409561764060751 0.6546717079484645
499 0.6397148073484071 0.3267462825939994
500 0.9329563875307296 0.26033664405573353
501 0.957048784059774 0.684327848642531
DEMAND_SECTION
1 0
2 1
3 7
4 8
5 9
6 6
7 3
8 4
9 5
10 5
11 8
12 4
13 9
14 7
15 6
16 6
17 3
18 2
19 1
20 2
21 4
22 4
23 1
24 1
25 2
26 3
27 9
28 2
29 3
30 7
31 5
32 5
33 5
34 3
35 8
36 9
37 1
38 5
39 1
40 6
41 2
42 2
43 5
44 2
45 6
46 3
47 7
48 9
49 9
50 5
51 6
52 3
53 9
54 2
55 1
56 9
57 5
58 4
59 2
60 2
61 5
62 6
63 5
64 9
65 6
66 8
67 3
68 1
69 6
70 4
71 4
72 7
73 2
74 2
75 8
76 6
77 6
78 4
79 2
80 4
81 9
82 4
83 5
84 2
85 8
86 3
87 7
88 9
89 9
90 8
91 1
92 6
93 2
94 7
95 4
96 3
97 6
98 5
99 8
100 7
101 6
102 4
103 4
104 2
105 9
106 4
107 7
108 9
109 4
110 2
111 5
112 8
113 3
114 7
115 9
116 8
117 1
118 3
119 3
120 2
121 1
122 5
123 8
124 6
125 6
126 5
127 4
128 9
129 6
130 8
131 7
132 8
133 6
134 9
135 5
136 6
137 2
138 3
139 5
140 6
141 1
142 1
143 2
144 4
145 4
146 2
147 3
148 4
149 8
150 3
151 5
152 6
153 1
154 8
155 2
156 4
157 3
158 2
159 3
160 1
161 5
162 1
163 4
164 9
165 7
166 5
167 4
168 3
169 2
170 8
171 8
172 6
173 4
174 1
175 1
176 8
177 9
178 9
179 3
180 1
181 5
182 7
183 5
184 4
185 2
186 7
187 7
188 1
189 9
190 8
191 6
192 6
193 2
194 6
195 5
196 1
197 6
198 4
199 8
200 6
201 6
202 8
203 3
204 2
205 4
206 8
207 5
208 2
209 9
210 3
211 6
212 3
213 3
214 9
215 5
216 5
217 5
218 4
219 9
220 9
221 6
222 7
223 1
224 7
225 5
226 4
227 3
228 9
229 8
230 1
231 3
232 7
233 6
234 9
235 7
236 5
237 9
238 2
239 7
240 7
241 4
242 5
243 5
244 2
245 9
246 5
247 4
248 6
249 9
250 4
251 9
252 6
253 9
254 9
255 4
256 3
257 8
258 5
259 8
260 4
261 1
262 8
263 2
264 3
265 4
266 9
267 5
268 9
269 4
270 9
271 3
272 2
273 4
274 5
275 7
276 6
277 1
278 9
279 6
280 5
281 5
282 8
283 7
284 2
285 3
286 1
287 3
288 6
289 2
290 6
291 3
292 7
293 8
294 6
295 9
296 5
297 3
298 7
299 6
300 6
301 4
302 5
303 3
304 6
305 7
306 3
307 4
308 9
309 9
310 4
311 3
312 1
313 8
314 3
315 2
316 2
317 8
318 2
319 8
320 8
321 6
322 5
323 3
324 7
325 3
326 5
327 1
328 8
329 7
330 4
331 9
332 6
333 9
334 1
335 6
336 6
337 8
338 4
339 4
340 7
341 4
342 3
343 5
344 1
345 9
346 7
347 7
348 1
349 5
350 6
351 3
352 2
353 4
354 7
355 8
356 8
357 9
358 1
359 3
360 8
361 7
362 5
363 9
364 3
365 8
366 1
367 9
368 3
369 5
370 6
371 1
372 7
373 7
374 8
375 8
376 6
377 9
378 7
379 3
380 5
381 6
382 5
383 9
384 4
385 2
386 3
387 9
388 7
389 6
390 7
391 2
392 6
393 8
394 5
395 8
396 3
397 7
398 9
399 2
400 3
401 9
402 1
403 1
404 5
405 2
406 2
407 1
408 4
409 2
410 1
411 8
412 1
413 3
414 2
415 7
416 3
417 4
418 5
419 8
420 1
421 3
422 6
423 6
424 9
425 5
426 1
427 3
428 7
429 2
430 3
431 5
432 7
433 3
434 4
435 2
436 4
437 4
438 2
439 5
440 9
441 9
442 2
443 9
444 7
445 4
446 5
447 2
448 4
449 3
450 6
451 8
452 7
453 2
454 4
455 1
456 1
457 1
458 6
459 3
460 6
461 3
462 4
463 4
464 1
465 4
466 8
467 6
468 6
469 3
470 4
471 1
472 6
473 6
474 2
475 6
476 2
477 7
478 8
479 6
480 6
481 6
482 4
483 4
484 4
485 8
486 7
487 7
488 5
489 3
490 5
491 8
492 8
493 8
494 9
495 9
496 7
497 1
498 7
499 1
500 2
501 5
DEPOT_SECTION
1
-1
EOF
