NAME : gen500_002
COMMENT : uniform customers, demands 1..9, generated by bench/make_tuning_set.py
TYPE : CVRP
DIMENSION : 501
EDGE_WEIGHT_TYPE : EUC_2D
CAPACITY : 100
NODE_COORD_SECTION
1 0.8247464467233288 0.29658798402007325
2 0.10512835077739668 0.2963412090492006
3 0.6436122326677169 0.9042662100623092
4 0.8915629425619597 0.8336843419929237
5 0.24516614791442104 0.6255824030975473
6 0.9174429540120171 0.9586267921886463
7 0.016189760331207448 0.8621199419845165
8 0.23410121984097443 0.6510025113266602
9 0.6658857388512531 0.1991180753747379
10 0.307048987411921 0.5739435798049806
11 0.592647994082893 0.7437167602470691
12 0.9129377414184418 0.8053292501302589
13 0.49309979295674045 0.9824650632022766
14 0.2676849629751472 0.3999291233437092
15 0.8793148434653028 0.9231171144350698
16 0.6428735985119622 0.2871846773647433
17 0.011967066528683068 0.45293523476381614
18 0.54699888342301 0.36294591274238786
19 0.21768679487335751 0.04591231533007978
20 0.6691508304070347 0.002634708048009027
21 0.5023293827384733 0.4465081817892984
22 0.0018345814339236766 0.06412453782824079
23 0.10966614478649372 0.9006554837868499
24 0.8010043791599718 0.9896519483200835
25 0.9040857211579069 0.3823936334880047
26 0.33239465554114345 0.7387567328638627
27 0.3474079119576333 0.4613466664075081
28 0.2212741501448281 0.8394479018879027
29 0.940700545403998 0.464894082027116
30 0.7338129267107072 0.9462363169285359
31 0.42466976298140957 0.8711648309995472
32 0.251403212126489 0.07765147456760424
33 0.6893837087483229 0.3417832334510986
34 0.5993318601548205 0.07315573791955243
35 0.8907792050652789 0.8706935483533661
36 0.5570782135928627 0.9674542812592534
37 0.18232392260194763 0.31333795365189687
38 0.1947358539635432 0.8866097040085787
39 0.13974622941284398 0.45881177261644845
40 0.9243018783709271 0.4276939702369844
41 0.459547466606385 0.2777223433344854
42 0.13689552120385262 0.20313145697480917
43 0.6908270986445846 0.1606599311347564
44 0.5272353039517916 0.6879111538439932
45 0.9680152030700478 0.09930771409996153
46 0.07498660827870207 0.4797314928709653
47 0.9989744737332659 0.8704806905393092
48 0.8587696805251407 0.28135504126638233
49 0.4166993464757328 0.8545573703922558
50 0.9643743008408945 0.24092773228617304
51 0.7668508643592016 0.4089866176379454
52 0.6375670698604434 0.9182872240708033
53 0.8198500281587773 0.3090389452663076
54 0.5757888417957086 0.38856068765873997
55 0.3355418827502584 0.2569621362939164
56 0.7266553057737704 0.0250717646732892
57 0.31830500542104645 0.8321546575718973
58 0.45280404543738284 0.831138135919403
59 0.3769958557282965 0.217899716937474
60 0.47717951591131036 0.787886313315749
61 0.2945211503986497 0.12346841609819759
62 0.8673541764133351 0.2501829484174123
63 0.2848903669518472 0.20705578020225468
64 0.9366250636781986 0.7185209585679576
65 0.3715105908496953 0.581269661896931
66 0.3038539299273384 0.9803533945586307
67 0.06396844471962315 0.2902194502357709
68 0.7586638070905284 0.20097594078358794
69 0.9759684627936865 0.7737483079585527
70 0.6351602135038771 0.9502036301439301
71 0.7439494194772824 0.8425290811406898
72 0.840965923404751 0.0382769724565849
73 0.8699127372091444 0.4092381501810146
74 0.5131124576669586 0.7320558816607403
75 0.8743028275513418 0.9972780464674661
76 0.2660575471012675 0.024049784892652748
77 0.6939061203454359 0.7011658606717486
78 0.15076465819376184 0.5055867479445356
79 0.5075375935637846 0.12520942401893032
80 0.29221486188540036 0.3134350338413213
81 0.4085122072308126 0.8554303306402078
82 0.6195836255064306 0.581173911323306
83 0.1769818077421138 0.1295084448908248
84 0.31261166733721235 0.8363101126779919
85 0.8792622573600711 0.14897786625417286
86 0.8327080011333781 0.12060806230708543
87 0.36217349071228866 0.9616353210274099
88 0.32857434445976497 0.5245661747416946
89 0.2858875899873573 0.7233874018735116
90 0.7704129496740793 0.4353499812313655
91 0.5465809505043291 0.013398597745776009
92 0.8302046090692674 0.5682743476772121
93 0.5900193447489176 0.3674172679115506
94 0.028362875698216605 0.5874421211794931
95 0.9220842136513799 0.9161948986021428
96 0.9619208186693352 0.8184756270146525
97 0.36944475175731395 0.5203736785791948
98 0.9760605698721112 0.8708551622193584
99 0.8596936433504931 0.6208410373590518
100 0.9121940657241786 0.031627865112849984
101 0.09219730025503925 0.8579837680846364
102 0.85035635088549 0.48704997243176984
103 0.9912018249499194 0.5642798735469367
104 0.5032391573939647 0.23036767443972928
105 0.12895866915905851 0.187050434168458
106 0.3792216910555668 0.003088160570379861
107 0.7552333190860716 0.3645907549710883
108 0.08988858313275905 0.6580181924434418
109 0.7711257748649928 0.7894691005028442
110 0.5113301560706793 0.9081880909057444
111 0.6162685582752149 0.36120644264378776
112 0.14724337352169659 0.062406418502750194
113 0.13199443334346195 0.902454071172116
114 0.41997789645523054 0.29072819158122554
115 0.9197148392701181 0.19050229096800564
116 0.8344367520820489 0.7572562660367231
117 0.14841002826788263 0.3542033587141167
118 0.35622995236220467 0.5469231976494152
119 0.36532537737960935 0.0013517288474705902
120 0.6894430509349624 0.5735218717684865
121 0.3323335983733027 0.9986326746224639
122 0.6301869070072027 0.577494385418463
123 0.5258796143358434 0.287622535484088
124 0.10934924906673837 0.6216672900062785
125 0.3132066166129023 0.22331811755547193
126 0.22334707110042928 0.36135595126802234
127 0.10458380287585534 0.48541066215217643
128 0.5873566165051175 0.4375214443795441
129 0.8495967498912163 0.4448932369760493
130 0.7254321502021477 0.7339419139977349
131 0.12837724141148776 0.7313795473332946
132 0.8213777141816442 0.3093519784128388
133 0.6367634617691378 0.32617407967541356
134 0.07369913482830759 0.7724730911657981
135 0.9427899757673124 0.0893298698402788
136 0.5743074506345704 0.13495998162484502
137 0.1719110301198854 0.43218505653310424
138 0.6651513554654888 0.5694427499034559
139 0.25321255200786186 0.437911998120184
140 0.805403681800665 0.8190474546080296
141 0.9063510189412807 0.36947627805569894
142 0.8507297738803871 0.3996865314777214
143 0.251711059057539 0.612154435379908
144 0.5663161831776887 0.942083503999021
145 0.7201607558628247 0.8281375116035401
146 0.7581164209959799 0.5410150953722505
147 0.5110983563107089 0.5343703577322944
148 0.2657906986534463 0.23411166589829613
149 0.3085435932585072 0.7054187855040546
150 0.6884410655596122 0.7334515405201402
151 0.08634796449124826 0.032034443522612976
152 0.4531614594000597 0.8012341169459286
153 0.8433328525196563 0.46692836435291674
154 0.03484923855854116 0.7983890214164172
155 0.645251740822372 0.4532133982424579
156 0.887843655394587 0.043543994973543776
157 0.49460506236775126 0.5179742766094059
158 0.8849303326266293 0.05382455664129382
159 0.7002123672126127 0.2584378907771444
160 0.7019147357649735 0.303793226449135
161 0.6187734387242476 0.37660823153108747
162 0.03212372577978284 0.2268042732360338
163 0.45629784808500995 0.006142274357398669
164 0.3968521885457441 0.6662474126918151
165 0.8224673589500571 0.18623802601105288
166 0.2713089697162092 0.5691006707078751
167 0.41369439836391664 0.012500639227153276
168 0.5463824864546676 0.1489773586766291
169 0.207592168777324 0.3950190378883851
170 0.10817658042575007 0.10349266851849914
171 0.5928438791727327 0.17605140903190508
172 0.5458305242417792 0.4026240578008786
173 0.42904719107317024 0.5050623306089045
174 0.7802667722046019 0.49157412131875744
175 0.8442787558179105 0.6346868760332196
176 0.85497780319594 0.016236041646538468
177 0.29306168886484285 0.4405208607661888
178 0.5816445585157347 0.93622729048157
179 0.8977165515791702 0.6145687708599196
180 0.171776760368211 0.6600152009951388
181 0.7148972180800071 0.13039715998455714
182 0.23265790164702516 0.06669518760307724
183 0.046698541703942165 0.2578885868795473
184 0.23324456921850278 0.12182359769538031
185 0.9004780608674341 0.09446055061301817
186 0.2113405897366929 0.284597844336381
187 0.9391183435790629 0.4954658535005686
188 0.17683974717631434 0.8308524098094656
189 0.3596889010639389 0.7043077287661
190 0.857058584934907 0.7692186861981851
191 0.9806894154713196 0.866983282988954
192 0.2307492274967079 0.4182070453100568
193 0.00820267956583376 0.898123783647835
194 0.7795296640370016 0.2889315222486122
195 0.8404367302572395 0.5364410434307587
196 0.7652958869912366 0.030620010785464058
197 0.3322433014114039 0.046204318922135834
198 0.3824745562137588 0.22776934053864706
199 0.043889195526356284 0.05614980683751847
200 0.7133402390508378 0.4518195690775201
201 0.8904837448838036 0.541997936805852
202 0.02587590176480381 0.6845594863617371
203 0.6531624312971835 0.8147457917568117
204 0.8698157284620379 0.4488755105488793
205 0.9168218733276139 0.7583545033032567
206 0.5108939164909043 0.7393766622037723
207 0.5440399373574571 0.0026564025212243436
208 0.6730946615201963 0.07137975552866749
209 0.4549279633076143 0.7203469556200296
210 0.40714994274966854 0.21442104224870806
211 0.1999179148553708 0.4741800502130502
212 0.020080817469195655 0.12973339432915276
213 0.8716403861513009 0.7812071989149454
214 0.4671253800731393 0.34481428220449095
215 0.3567436086763629 0.37123540639743
216 0.02383027090832679 0.3329527128904789
217 0.2092725921156976 0.17003426260953258
218 0.7615231843276866 0.3223329900212004
219 0.23841377715316203 0.49351314822416537
220 0.11768838571112039 0.6530116508121074
221 0.49650028688664205 0.08063676652391505
222 0.49836208346290045 0.472649792574486
223 0.857823994256544 0.994341642691664
224 0.38067882953042176 0.26432735905474225
225 0.7644607254013317 0.019228337486264513
226 0.7543913088776085 0.38518619328700365
227 0.2491249787260268 0.4272948232806535
228 0.21247850253317513 0.7712368068739869
229 0.6890188377329735 0.8109736554850306
230 0.3809210525009832 0.6677912199171394
231 0.5563460983809672 0.043559845000406994
232 0.8230651854475429 0.014966210356849197
233 0.24686593313499317 0.8589329054856826
234 0.17763489808357658 0.763147164925857
235 0.9267227352097476 0.6027199079125587
236 0.5976178286447901 0.7369649879173296
237 0.4633702009858536 0.722776447697067
238 0.8266024382783955 0.26726180181071846
239 0.1101312544096017 0.034691042640826786
240 0.9168476243739132 0.2608706943920215
241 0.29500744371776544 0.8813039363172939
242 0.8555190292722634 0.2815138570230957
243 0.283968428023055 0.17806764186175017
244 0.5750820784667509 0.18698658028086845
245 0.05501529899614832 0.4452088802605437
246 0.8642199238009053 0.010769144219537785
247 0.9110338193171985 0.9298520762391203
248 0.09478739440026407 0.5856582831217253
249 0.9069136764886164 0.9590510549509171
250 0.2939967702871422 0.41574640273418195
251 0.4122881190589496 0.2182134969238504
252 0.32980014980392547 0.19348827491722653
253 0.2531022399298526 0.24013701201529702
254 0.3184015973987794 0.6904350504168285
255 0.8036590294213197 0.21172105472137936
256 0.21936637777745593 0.08122255973215986
257 0.26774893427949753 0.35738597595433963
258 0.35176284020130255 0.05790483493909149
259 0.7527136607675478 0.14082466582427322
260 0.8015378846185948 0.4385003243033253
261 0.887158693758914 0.14856489466242295
262 0.8990940630857268 0.3720551670656983
263 0.25751725799114866 0.6702236911434211
264 0.31453665665150854 0.6297485683566216
265 0.2796335821345627 0.41980609923554446
266 0.692650635785267 0.23333909813221543
267 0.08451033054289436 0.0357454866742849
268 0.8617851936159666 0.963119643598085
269 0.06331868029378318 0.11344827065760843
270 0.3520586039967062 0.9072385097909864
271 0.016730021956109065 0.7077570776166614
272 0.5252551306935447 0.2974662848723749
273 0.43328563943510223 0.07769141239609123
274 0.8538348443085163 0.1555953290399641
275 0.7054815218548657 0.9473976975438579
276 0.9149701270142643 0.9802810339242455
277 0.13465432937691157 0.9026468197793862
278 0.4434803757074499 0.5645703632701106
279 0.6427997354040901 0.31867305716831584
280 0.2471560726634221 0.46149151397681587
281 0.5576680046790694 0.9338803701027523
282 0.8965511360155786 0.8761251518742882
283 0.5627528889215518 0.7048047321634364
284 0.5379956390781145 0.9929801501275815
285 0.21063295164594664 0.5716949338360698
286 0.02943448771196555 0.06535229009974175
287 0.46089354483008105 0.3462088024949256
288 0.391982980770356 0.10584304335439754
289 0.3719351143366174 0.9851054695273042
290 0.5971621566261527 0.6684701397370955
291 0.01465240338706475 0.3322636206527614
292 0.6897397718796948 0.8107026244251454
293 0.5110419106376136 0.5217751444804972
294 0.7809455264500256 0.7431667210767208
295 0.4313412269969693 0.1748590366166487
296 0.5606955030645646 0.38453368112452635
297 0.8265056681436258 0.1829713972701803
298 0.1745603360673017 0.22671001330158558
299 0.32350780783043775 0.12579192079293733
300 0.13884664413804382 0.047457314886795166
301 0.3481725538939081 0.8438897293102834
302 0.941600583167953 0.32288649011923365
303 0.7103857343414814 0.7569846423784595
304 0.830044708791483 0.7901613379455716
305 0.8151651137442891 0.2607288488202594
306 0.29296957802973767 0.6492008913403746
307 0.46915488772631486 0.20834672085855144
308 0.8509722590625064 0.4176918099209226
309 0.4882789046911442 0.007026641706583403
310 0.10283833003185128 0.8414579608572321
311 0.5212811192596434 0.8902097486197688
312 0.019320487883076054 0.7463507275993714
313 0.12278719678254091 0.049125088682428486
314 0.5033086097842697 0.21084652305095974
315 0.8061174510021833 0.037084661375464734
316 0.6064651688247785 0.14766290975054075
317 0.46811511931238425 0.39069347812536537
318 0.17684780710914416 0.03743902405326405
319 0.3180991121063662 0.8833998823384109
320 0.12125345184456149 0.14138782333678324
321 0.02502788663716571 0.6697885521160192
322 0.6073577518534813 0.49585531558452156
323 0.4533167155742144 0.04205654937788439
324 0.28586803456846477 0.59721129120228
325 0.1259352260416976 0.523558554613974
326 0.15709757378738365 0.3472312158194092
327 0.015953700817864735 0.5372302214328034
328 0.5378789744593926 0.8867835814353514
329 0.41605413359241183 0.2241291037577997
330 0.10745664805868382 0.8911987005894406
331 0.34944142017983293 0.4123968382308938
332 0.22410554946732497 0.06812459792902503
333 0.3279470245757471 0.3250507437462309
334 0.899654398949674 0.6834209055056626
335 0.430664633084075 0.3137667610525613
336 0.9916864777623889 0.56576684789794
337 0.9335042263851754 0.1631285251061545
338 0.029249241026552464 0.0478479509588563
339 0.7648230012889599 0.599044242401865
340 0.521625248970566 0.7152145394939787
341 0.329370700885375 0.27923758516868313
342 0.8191528014640086 0.21479019750224448
343 0.9035633612463273 0.8519603367222905
344 0.7862317551064025 0.1642696535749193
345 0.8046043093164599 0.6873468735372787
346 0.9335864363450352 0.363097767974754
347 0.038405399601392554 0.38304191303080704
348 0.5346217801962054 0.3098063532010693
349 0.914647109210299 0.7792826566511162
350 0.8975769833423652 0.3657268983924119
351 0.8056070277223025 0.10106013523309576
352 0.4905302807545311 0.7413685980636388
353 0.4597746046347184 0.8131662404689662
354 0.09399065753442226 0.058648950806316935
355 0.8912802443157708 0.21167025535916006
356 0.44076354787965577 0.5112020736685758
357 0.8027340524459643 0.5786714025359856
358 0.07382763861781205 0.37819701282393814
359 0.4849169232218389 0.09567854805288611
360 0.2439443533358271 0.3155849323640084
361 0.24105497153153432 0.6476071558768802
362 0.11978099180529711 0.7661409944234174
363 0.3309373032611991 0.6161554319191803
364 0.6210490432868798 0.016697000089107128
365 0.26034333698853995 0.18700868441055407
366 0.1693939164521392 0.2100103171543195
367 0.5150582197103306 0.12826674837694985
368 0.6153231929402453 0.05431092497200418
369 0.30150418707505 0.21384800597363962
370 0.18443908685182908 0.2545332900742735
371 0.26521028870238317 0.3624886872280836
372 0.5884574461681431 0.3633015758474025
373 0.3949089794266356 0.9383583786291646
374 0.8418573480787209 0.979788059804635
375 0.08867450450789005 0.5879220548609868
376 0.3713623852481729 0.9527442838107989
377 0.5538629736505387 0.6935366507084545
378 0.16645390047594755 0.8578087189876828
379 0.2630069453145609 0.6133084846262267
380 0.3093036933291108 0.7132465729264191
381 0.6364746043027184 0.5664039452594402
382 0.9368335039334923 0.5913246797585491
383 0.09286503205844943 0.5271448660418737
384 0.24224713015264454 0.4259426417064123
385 0.7556623710440792 0.9298217116419994
386 0.10890479585804902 0.48675832102415395
387 0.15790848546765213 0.06924532094819857
388 0.759899077387865 0.6404492507986992
389 0.27319981837661367 0.32537052687904744
390 0.16280184736343195 0.11790995898818835
391 0.37346777519532204 0.6502637633628028
392 0.048969991005167635 0.43824258512143455
393 0.5384256784130399 0.7383434465035086
394 0.5929977259719434 0.5124554470898067
395 0.2532171998430679 0.8570956560153582
396 0.47344445233622934 0.9638779973778024
397 0.820486526936972 0.9612989802690398
398 0.18767436924022618 0.29067841539710293
399 0.40289528700703614 0.6669326264303624
400 0.8119491021239339 0.3816873400547751
401 0.6051668140499942 0.4829971531247462
402 0.5352082666391397 0.6274954436011112
403 0.6826828670386933 0.8227860766724681
404 0.7398568992743257 0.14504032128013422
405 0.5833791910733013 0.7364187196646386
406 0.9278864633652101 0.8979675672787251
407 0.1505567315399997 0.06007524340559822
408 0.8423097413600078 0.21130187884622453
409 0.6014123583872012 0.5275304403648821
410 0.9584833649500033 0.9298409274475402
411 0.6292954369303223 0.8785208371517961
412 0.7235470733483942 0.6596005205220388
413 0.7694657709016993 0.7611943873467407
414 0.3187792992707118 0.6582679596887796
415 0.44781868648944734 0.5319279855708695
416 0.09072829158625295 0.2798460034518305
417 0.8195324215687363 0.285249169782698
418 0.37946481883811656 0.13195538747832591
419 0.8318586410706469 0.10936016090070944
420 0.4219058665690981 0.06224493567017075
421 0.623450562889977 0.5326375999795406
422 0.9788877760543819 0.3400930212609681
423 0.7474627122585492 0.05300654571844399
424 0.013319587130808053 0.14706236690029995
425 0.600133027131567 0.9050812356463621
426 0.3557773605961667 0.16844503559672552
427 0.11499616004105184 0.7571622649728657
428 0.03192557244534888 0.04986830844232848
429 0.378345354554833 0.015586468625862104
430 0.3231242803923864 0.350373254931838
431 0.19165910667126373 0.8032021175598827
432 0.9020972358790696 0.8391987107242247
433 0.09233677975650667 0.33606104153001914
434 0.7853391165652607 0.39612693641365704
435 0.2035367345901561 0.8553084067655262
436 0.7453314332937852 0.5075010324025223
437 0.9816382306052854 0.370029254503501
438 0.4477180472958271 0.360533961848152
439 0.5072433517203367 0.6446867816094197
440 0.09590315401732652 0.4452629663488178
441 0.5729182203875711 0.9990170260278605
442 0.8048899991589517 0.1227187817988129
443 0.18591556303555024 0.8240935786054352
444 0.555632039469153 0.5011551894923802
445 0.04972358885568584 0.11995491831674843
446 0.4279955110772554 0.18589032622610713
447 0.06138120753093701 0.7813062600578567
448 0.6320551284082961 0.44589536330150537
449 0.04890940925066034 0.49553026599852823
450 0.8348909698663672 0.7999080219578719
451 0.35392239285545446 0.5430499743101749
452 0.21380972081170913 0.04571509547177455
453 0.048963845280015406 0.596468363856834
454 0.8049722173363316 0.2684915643660498
455 0.5740532597081468 0.6799244942828848
456 0.47542367907514405 0.7904235121408338
457 0.42417352409694997 0.34566806592276367
458 0.7808384102928614 0.9248285840062962
459 0.18569616365844033 0.24063433025483305
460 0.23607903247374085 0.4226338247962085
461 0.5616560543088064 0.6926321943591677
462 0.5666772220128604 0.7360514071131644
463 0.17807234428441943 0.9328119282926224
464 0.30966661241950266 0.006174421993893953
465 0.4957832661688193 0.6343068040461818
466 0.22756191297125694 0.952256348226496
467 0.06847908070030195 0.8609782698947734
468 0.031079537097233656 0.835135010217453
469 0.8302584999935603 0.35582236749453267
470 0.6971694572612875 0.019624708626761245
471 0.04364541790924259 0.9162966216716871
472 0.7512112745117387 0.08677078163985541
473 0.5559026735653484 0.9169385219687272
474 0.7247148733684317 0.700409187963719
475 0.36794378728729127 0.8443242603226759
476 0.011366331608899216 0.1381064496784039
477 0.23155355667724353 0.47994129643118477
478 0.19980917630086104 0.20123843456051593
479 0.34320444958929286 0.34778825770220423
480 0.9304303507823559 0.8991871168290464
481 0.4774648305132786 0.12939026406159182
482 0.6025216084701008 0.07765311818062093
483 0.07420972085665589 0.3022704667435552
484 0.21162248382133986 0.08705732077128436
485 0.9855314538925711 0.20205611959435654
486 0.18582660349932467 0.01665791039299158
487 0.8679774359075503 0.17667005736115082
488 0.8608245408722073 0.43139246901887074
489 0.2783030566453324 0.8909734261775394
490 0.4981247197088474 0.8663714254789593
491 0.3914304685026494 0.008165794046017583
492 0.5686199866751641 0.9750152407417648
493 0.14208603722453295 0.11598101256666649
494 0.08367427331615673 0.23387095822762682
495 0.24091482588047308 0.4073945132873209
496 0.47577597656810244 0.7667434974997169
497 0.9848615384749703 0.500658166184986
498 0.06790377168163264 0.3876010624465748
499 0.7423779669135235 0.06584744493347638
500 0.681526337311086 0.46800799213761635
501 0.9192540381978104 0.6770630212487382
DEMAND_SECTION
1 0
2 6
3 3
4 8
5 2
6 4
7 3
8 8
9 2
10 6
11 1
12 1
13 9
14 7
15 2
16 2
17 2
18 4
19 7
20 7
21 5
22 6
23 9
24 8
25 6
26 8
27 4
28 7
29 3
30 7
31 1
32 9
33 8
34 1
35 3
36 8
37 9
38 6
39 6
40 6
41 3
42 9
43 3
44 3
45 4
46 3
47 8
48 9
49 3
50 4
51 7
52 1
53 3
54 6
55 8
56 7
57 7
58 9
59 6
60 6
61 8
62 5
63 4
64 1
65 6
66 2
67 1
68 1
69 3
70 5
71 6
72 7
73 7
74 7
75 1
76 5
77 9
78 3
79 2
80 9
81 3
82 5
83 8
84 4
85 5
86 3
87 6
88 1
89 7
90 4
91 3
92 9
93 6
94 8
95 8
96 9
97 6
98 8
99 4
100 3
101 6
102 2
103 6
104 1
105 3
106 8
107 4
108 7
109 6
110 4
111 4
112 7
113 2
114 1
115 4
116 5
117 6
118 5
119 6
120 3
121 4
122 1
123 5
124 8
125 2
126 5
127 2
128 4
129 3
130 2
131 9
132 2
133 9
134 2
135 9
136 1
137 8
138 5
139 9
140 7
141 1
142 7
143 5
144 4
145 3
146 2
147 4
148 6
149 3
150 5
151 1
152 2
153 5
154 5
155 8
156 3
157 5
158 8
159 1
160 5
161 1
162 3
163 9
164 3
165 4
166 7
167 8
168 6
169 1
170 3
171 8
172 5
173 2
174 5
175 7
176 1
177 4
178 4
179 5
180 3
181 4
182 7
183 4
184 2
185 1
186 5
187 7
188 8
189 1
190 7
191 5
192 7
193 1
194 9
195 9
196 2
197 5
198 5
199 7
200 4
201 2
202 3
203 9
204 2
205 5
206 2
207 8
208 7
209 5
210 8
211 8
212 8
213 7
214 2
215 2
216 7
217 7
218 4
219 8
220 6
221 3
222 3
223 6
224 8
225 8
226 5
227 4
228 1
229 2
230 3
231 6
232 6
233 5
234 2
235 6
236 4
237 7
238 8
239 7
240 1
241 1
242 2
243 2
244 3
245 8
246 4
247 7
248 1
249 1
250 2
251 3
252 4
253 3
254 9
255 7
256 1
257 4
258 1
259 7
260 7
261 8
262 6
263 8
264 2
265 5
266 9
267 3
268 5
269 5
270 4
271 2
272 8
273 3
274 6
275 2
276 5
277 6
278 1
279 7
280 8
281 6
282 5
283 2
284 5
285 7
286 7
287 1
288 3
289 5
290 3
291 9
292 9
293 7
294 1
295 6
296 6
297 9
298 4
299 1
300 4
301 7
302 2
303 7
304 6
305 6
306 5
307 4
308 3
309 6
310 1
311 7
312 1
313 9
314 1
315 8
316 2
317 5
318 6
319 2
320 9
321 5
322 1
323 3
324 7
325 1
326 6
327 4
328 4
329 5
330 7
331 6
332 4
333 3
334 5
335 5
336 9
337 4
338 5
339 9
340 7
341 7
342 3
343 5
344 3
345 2
346 2
347 7
348 5
349 9
350 8
351 2
352 3
353 4
354 2
355 4
356 5
357 7
358 9
359 2
360 9
361 2
362 7
363 7
364 4
365 1
366 2
367 3
368 1
369 6
370 3
371 1
372 8
373 7
374 2
375 7
376 9
377 4
378 3
379 1
380 6
381 7
382 6
383 8
384 5
385 8
386 8
387 7
388 2
389 8
390 9
391 3
392 3
393 6
394 8
395 2
396 5
397 3
398 9
399 2
400 6
401 1
402 8
403 7
404 5
405 8
406 7
407 4
408 1
409 8
410 4
411 6
412 1
413 9
414 5
415 4
416 3
417 8
418 9
419 9
420 8
421 8
422 4
423 2
424 5
425 2
426 2
427 4
428 7
429 6
430 7
431 3
432 3
433 5
434 3
435 9
436 3
437 9
438 8
439 5
440 4
441 5
442 9
443 4
444 9
445 4
446 8
447 2
448 3
449 2
450 4
451 9
452 8
453 2
454 2
455 7
456 8
457 4
458 6
459 2
460 5
461 5
462 8
463 6
464 6
465 2
466 1
467 6
468 4
469 2
470 8
471 9
472 4
473 1
474 6
475 5
476 2
477 4
478 9
479 3
480 2
481 9
482 9
483 9
484 1
485 7
486 3
487 8
488 4
489 8
490 8
491 9
492 8
493 3
494 2
495 3
496 3
497 9
498 3
499 8
500 1
501 9
DEPOT_SECTION
1
-1
EOF
