NAME : gen500_013
COMMENT : uniform customers, demands 1..9, generated by bench/make_tuning_set.py
TYPE : CVRP
DIMENSION : 501
EDGE_WEIGHT_TYPE : EUC_2D
CAPACITY : 100
NODE_COORD_SECTION
1 0.6089327769681634 0.9088096026301375
2 0.36233745995977795 0.15876339998566869
3 0.45374468435579385 0.30979676327404193
4 0.12530177478860305 0.09360154637223495
5 0.6633530985352959 0.8225510265490914
6 0.8612098788391243 0.8565562126686654
7 0.898606594289347 0.6998015935437023
8 0.5703236441568125 0.8830791036867066
9 0.9122084918513891 0.35681749021794995
10 0.5555494735541379 0.47697907671604756
11 0.28678471865800137 0.2789847303709795
12 0.829630010629352 0.20679087785071726
13 0.6307659033883458 0.2326974792531432
14 0.5681609091080385 0.961069920173296
15 0.7998525509649965 0.15464638639809625
16 0.02718668356044196 0.583536824357343
17 0.4269668120637504 0.5379424586376985
18 0.23832003989501005 0.06333161380939523
19 0.7141258486742535 0.11504888129970037
20 0.5427958654085182 0.39843540989840587
21 0.37215181753473436 0.1104488088539528
22 0.09456891830206793 0.8039043850188909
23 0.5049165984021299 0.39582423862467686
24 0.1433770267692105 0.5807869143130111
25 0.7356302456037498 0.3819721831904128
26 0.9767039051493566 0.3505474136795239
27 0.9699649727902123 0.5425499526676698
28 0.13151192762176245 0.21711739591113488
29 0.6357394699319497 0.28068872053389127
30 0.08490126652540697 0.2798490490129505
31 0.7421490174468144 0.029311102106760134
32 0.632324459754293 0.49702065769262127
33 0.11051309483688598 0.6849818913456551
34 0.6691495164064538 0.9791427670013924
35 0.9526125871519069 0.7577616806226568
36 0.67535112697588 0.5447828984868155
37 0.8634785148364154 0.9225021154705421
38 0.7878546522108184 0.6673053382654385
39 0.7233936205904923 0.3818056869122468
40 0.8995271256508183 0.3727676100985232
41 0.15855411797531427 0.9101044914923556
42 0.23241042868681494 0.9664986487031106
43 0.9544755515815035 0.017268447895560812
44 0.9220333632593065 0.613411112479706
45 0.7702382424577103 0.4672880422606144
46 0.07046126411381459 0.9143415217310243
47 0.11430082923023688 0.32264536055281823
48 0.32175246838332705 0.6697480350491433
49 0.7498745579435756 0.6520917196497099
50 0.06975205833493214 0.7941155455359374
51 0.6197769413400456 0.9462887202535504
52 0.7290672773476972 0.551546164831588
53 0.6463819655441022 0.5456258238304844
54 0.760306889278859 0.10739988633111397
55 0.1237016715968331 0.1333526658979277
56 0.9149952940383079 0.9624061306970697
57 0.49145509771044693 0.48475535888063115
58 0.5056299611026142 0.7235104581029964
59 0.43365401990778796 0.14025046027619137
60 0.5160067683276159 0.7369228693056441
61 0.26872492371868595 0.9525893956814842
62 0.39111415510343706 0.6204447096241773
63 0.14168637165447562 0.5984867607126677
64 0.06216091920893996 0.96269999572013
65 0.4163047035916142 0.22754495253406593
66 0.09082369473444862 0.7403621787225884
67 0.05673861329916163 0.3637289306713606
68 0.10080728912152193 0.46362430483581796
69 0.8140600796148895 0.8117863364069029
70 0.13014168318130015 0.6623392178400813
71 0.8765473691277893 0.8362267140726594
72 0.11297423037502596 0.856471583468103
73 0.459400036824681 0.2991289871722844
74 0.5447447387498281 0.4267510093050695
75 0.7464597465017215 0.2951822511474781
76 0.6176343665608786 0.24082486271242243
77 0.798779479386589 0.03376984459295962
78 0.5785037316328587 0.6995469590138869
79 0.15229084834891382 0.8857968743142863
80 0.23365784312465043 0.9761580702200636
81 0.7870989729990199 0.7251815887056887
82 0.8960164328897926 0.04307262798444478
83 0.9012304287440484 0.07681540017533128
84 0.9018244895692973 0.6532298567231265
85 0.9042101196214877 0.5905839632843592
86 0.9627743802729642 0.6060006120473884
87 0.06561425413809863 0.4550978715028905
88 0.4704448598189125 0.9799961280947115
89 0.7730734621294885 0.8800226895216646
90 0.6719065782728026 0.3536057394338836
91 0.38123913923149755 0.8012999486266384
92 0.9597822385039275 0.8779589895237829
93 0.7658279454806642 0.309468931697646
94 0.5924804407823169 0.31650407346657516
95 0.19432200661934884 0.28281593420092244
96 0.5592982613078737 0.7983350319397133
97 0.9303264079944026 0.7360070197200458
98 0.3339335391889795 0.7774107400261047
99 0.101351616844778 0.206950415618399
100 0.22264786119364843 0.2964914948210774
101 0.16547876438880782 0.5871252006357115
102 0.7658273047426114 0.10514007517787427
103 0.9316100812442146 0.055385718632324554
104 0.975777122523336 0.46144796215027784
105 0.5045593534578237 0.708804320086472
106 0.41155573062427464 0.1667000436406335
107 0.5694835517214101 0.7438837479265471
108 0.00910529549477479 0.503725430304389
109 0.4123678501216589 0.7590498103693543
110 0.277048104331467 0.1529536530124821
111 0.9206240028423742 0.8047436210763939
112 0.6019087668081395 0.9448344689841899
113 0.8880441188422404 0.19507899198063916
114 0.2785456526489306 0.7619353804981214
115 0.4491239996827674 0.45476862908663995
116 0.9468270272503374 0.4987544411300169
117 0.17081760656064282 0.990673732512554
118 0.30340503307953937 0.2837419462033053
119 0.2992030036996053 0.3556623424660067
120 0.07684562386356497 0.3602781982108577
121 0.7060530449095045 0.6032435769645744
122 0.20162907304150435 0.6973086587582423
123 0.17764530332696515 0.26129231085395166
124 0.06327798821109809 0.36292117248203215
125 0.2962174000131834 0.9345355716589483
126 0.6738032113054672 0.23556850984335087
127 0.6293939544536077 0.5427200296478335
128 0.06291350151751074 0.4718002955497109
129 0.0659264876277017 0.24831581727895558
130 0.13143490250184642 0.06412587127765712
131 0.34527898570021365 0.48794050745256023
132 0.9239620193487835 0.6220453432825249
133 0.20072077156164114 0.3243287417099656
134 0.13295469046789998 0.7017469811900838
135 0.7091567788538922 0.3032110023328981
136 0.8826100494757161 0.21979125731368643
137 0.3021462075667939 0.18494630172631332
138 0.7952384548031581 0.02793629378676754
139 0.958595548890588 0.807546292447447
140 0.7058450719074407 0.5342256487777574
141 0.22622583997976364 0.4146886632470451
142 0.7773173194234753 0.16550614209915648
143 0.032277605076010185 0.6524659092704943
144 0.8164079774544003 0.4740140783541542
145 0.9059475017041545 0.5000086036466622
146 0.1169564571346633 0.9105222104755739
147 0.18366810329033312 0.7220456275369863
148 0.07620861921943067 0.6182322156448993
149 0.8731718186662277 0.30201867001270943
150 0.8023702392886602 0.39880382627950584
151 0.7059129956607124 0.9705344913458677
152 0.12557319068116712 0.23433360345341459
153 0.9845764893309396 0.6756785835548477
154 0.3169692194881649 0.8248021300807644
155 0.511050571969328 0.2942630250285302
156 0.6828992881496933 0.9929224906365379
157 0.6511769392013949 0.5860451128992673
158 0.28433724163104945 0.4924251966809766
159 0.7473074861335032 0.6102409443208531
160 0.5254477700067107 0.9320417690155901
161 0.9239507635078363 0.9136458517003063
162 0.1910631247504998 0.5173114706219405
163 0.18718396761622036 0.6828723155784194
164 0.69100414032924 0.3131826611484757
165 0.7800481572584255 0.6898689265293875
166 0.3842825066293615 0.11256534671442775
167 0.36752377011840587 0.5881110284637318
168 0.3514687457885465 0.7251406852519333
169 0.1186144028272983 0.2152633468622186
170 0.3888577435224856 0.6379243687760279
171 0.7105484722206643 0.4215135388602975
172 0.19634956627729028 0.616100002445416
173 0.5528066897003676 0.16465797004851157
174 0.6749792171246731 0.8757232730145607
175 0.0322776871204169 0.19188998153910442
176 0.16237198810612108 0.5171059826943849
177 0.5305605155395084 0.5812281538686549
178 0.7510596864341931 0.7301754416940696
179 0.04542552865039351 0.8399686756669228
180 0.9048284210959908 0.08166022984187837
181 0.7396729271708394 0.2700534130204626
182 0.9572650867670986 0.46924820784925825
183 0.3212769296776433 0.11926080758208124
184 0.8888460802012951 0.16423288647316314
185 0.5545506540328539 0.5391519698619932
186 0.0030433963891016713 0.6325360126188396
187 0.18695314625994852 0.006347059869731497
188 0.5396611437624463 0.3701297000190975
189 0.6401592877051151 0.9144873151101087
190 0.7274839126159323 0.5716127272277721
191 0.2883745661835584 0.7798112612359668
192 0.1305025857968387 0.8615014362570055
193 0.5556352000632976 0.7914451953914692
194 0.19999707771185204 0.7772271382184284
195 0.7218529454650684 0.007015081622687158
196 0.6855766973940038 0.05629130360093315
197 0.7398878216376746 0.16638225847190036
198 0.638239427414295 0.29964591470712876
199 0.7997931365768802 0.26217907842412236
200 0.6964572257611044 0.9904838369621477
201 0.37405438940364777 0.2811401738234708
202 0.6121774444120209 0.227843184300195
203 0.28109741647815345 0.7622207477383733
204 0.2502736538344147 0.6860677331636864
205 0.832850672737255 0.6780268532499596
206 0.40497528099143176 0.9771781581449075
207 0.4186524481962327 0.7690597769713311
208 0.32290812426163773 0.8372480348351524
209 0.6079143255889858 0.7823541542089671
210 0.46525803072857774 0.8454758063069013
211 0.3627162416458467 0.6131864992829809
212 0.9447611083046916 0.026864088942700648
213 0.6317715247690988 0.037322458796333446
214 0.2457275328614673 0.10364042162660858
215 0.6895513859417667 0.15255204591530414
216 0.0327531329643137 0.6479365698140197
217 0.7202003471722743 0.560815756112352
218 0.44690159397802065 0.9605370794346831
219 0.9137354478281047 0.1121254244584946
220 0.8484242198563101 0.763904966425851
221 0.7733229478807514 0.07651921909429837
222 0.8771500316471238 0.08283561450150645
223 0.33459913961682275 0.5819217836664922
224 0.3536816026510783 0.9178185707014929
225 0.7145841269413802 0.2583146067436749
226 0.16238008942554472 0.04854665538792957
227 0.011671189964188033 0.7023446854155132
228 0.007869861511694554 0.9025637755892589
229 0.9591259336596514 0.33819309009332277
230 0.29140751587096836 0.43718160981447973
231 0.5953445970975065 0.874110531189234
232 0.601729584239491 0.09656525122352722
233 0.6119054090170751 0.6643381623882924
234 0.021929083560011553 0.21203073744510836
235 0.4111292800962548 0.41343929402885615
236 0.7005845879292171 0.13187714154837782
237 0.9956949773584355 0.5454129865897017
238 0.09382153593985998 0.04027586136163164
239 0.21912410788385772 0.9399450453586576
240 0.785684504063128 0.7763548207585842
241 0.21931225214733951 0.017478692875450896
242 0.8628753359898816 0.6188678543479853
243 0.24012960934498417 0.20333320582400916
244 0.17730170428312586 0.28519098945943
245 0.03570154370945067 0.6901375723209116
246 0.776770015720188 0.24289564497255656
247 0.31161476628842943 0.046127502397537934
248 0.14352580180108532 0.7372909474118281
249 0.011797467792973526 0.4801551711208373
250 0.7240262256769483 0.5742948938830785
251 0.2570555718447871 0.6563812662633294
252 0.4930556480207472 0.0891249280337445
253 0.3143304103066691 0.6070740545151792
254 0.41913617404371795 0.6440013327782422
255 0.9213511449066336 0.9577856575856338
256 0.5883608670289354 0.34089289083905017
257 0.5251329504094677 0.724692677901182
258 0.41398757519077467 0.20609039607014512
259 0.3512770394504652 0.1202620559285913
260 0.932886926512963 0.9189039944338402
261 0.7970160814927163 0.5328848017278013
262 0.3216704911098175 0.41636856969802694
263 0.8755455681933553 0.7737387747816075
264 0.07116663286647507 0.4044698893717229
265 0.7844898363742011 0.8484530236813224
266 0.05202572793627647 0.1710756359385439
267 0.8793196800516594 0.6711123788845327
268 0.980018130601871 0.31300168831288544
269 0.11217012569722684 0.19660399423671726
270 0.7749649825764106 0.7375624228574507
271 0.818019758582583 0.631569701511044
272 0.18758839744251554 0.05102643022079467
273 0.6194249603471715 0.6528578282778574
274 0.50753774887468 0.37006148715888243
275 0.6155525046431424 0.36049413382325113
276 0.26837799402807305 0.2571842580793151
277 0.96723626938888 0.9883436589431912
278 0.49032808929215177 0.5498650629526814
279 0.35794738128533 0.9498030151784443
280 0.617992749815282 0.6795326321967996
281 0.8540433382476331 0.9342198350881795
282 0.02576154264226338 0.8947717004119724
283 0.7552626852199443 0.5409266693619375
284 0.12954772267735337 0.09738094819882315
285 0.5197081837663647 0.3978378061105736
286 0.9469048385476071 0.8319222193957088
287 0.36902676167981985 0.6810941295324238
288 0.6648290037019026 0.35994734767172376
289 0.7581061860114039 0.06773708197946537
290 0.3245651325921115 0.08561816650200205
291 0.6493764403945695 0.9584693909357989
292 0.5861546759591698 0.00609970749568145
293 0.9063016877445079 0.584730537204685
294 0.5734519066700995 0.3540979604380782
295 0.839517529353579 0.9474939797975066
296 0.5324616238312913 0.7628191793522757
297 0.6428222749718502 0.16564784743468774
298 0.24934491079418464 0.7331914047509324
299 0.11035764828432126 0.9233832257978088
300 0.21879401601203463 0.1350706687901969
301 0.4838918030926025 0.7043288129326296
302 0.47491163629645494 0.8518649943790108
303 0.19035900113209137 0.8685612821958245
304 0.5878071627483311 0.3360158309551301
305 0.8010139526859321 0.8922000215141375
306 0.32098390683968814 0.06825570668649017
307 0.3284123734916067 0.07369262254233422
308 0.17330939829215308 0.6105742670355391
309 0.32729940272398694 0.8990784356382779
310 0.9535130594432477 0.8520217878228514
311 0.31504202168052364 0.6588221132464741
312 0.30052682787181606 0.33418689155685855
313 0.29827404462380747 0.12749455271247856
314 0.04798428621733375 0.7425511522848112
315 0.0723027142638839 0.5512207946953358
316 0.6430230001547286 0.3849450013808673
317 0.8217022477418902 0.034887240845575485
318 0.2651349564155884 0.8379187347874042
319 0.5690851572166179 0.15962359383760794
320 0.7901594242284791 0.4325975576579235
321 0.9698919061522222 0.7574313116648709
322 0.8654115553593443 0.6414956668853264
323 0.3968464431613825 0.11371064409472864
324 0.09283212076882363 0.3519049970881094
325 0.42219999209179804 0.325206387178823
326 0.3927957403713209 0.2372938897576654
327 0.31837196760936415 0.5324888168819348
328 0.7307487888798834 0.39013514862925225
329 0.5081602113802416 0.20830017578521032
330 0.3954827832051615 0.16536777475784425
331 0.5644689059491409 0.3460897059299779
332 0.34797657393694836 0.2632311504538296
333 0.19640259780136649 0.869679204348423
334 0.7498025653009541 0.8284721407838848
335 0.31763822055547564 0.2367783751273026
336 0.8668875042911592 0.6687836593384636
337 0.9306379616514143 0.17449479997212003
338 0.4604733864229609 0.4335584908958716
339 0.6796100869517948 0.17506455520122022
340 0.747854839956332 0.27650432094864574
341 0.26531179457227405 0.8013294403087259
342 0.44323532134608834 0.7447424506977564
343 0.7632764957582473 0.5876083157120997
344 0.6198153700018908 0.15157872614991508
345 0.6988923583515353 0.0443292723042521
346 0.7752428643673425 0.7423809076140631
347 0.9137064745550856 0.9231449709922265
348 0.673561223332938 0.7730203380440074
349 0.9963320446484497 0.048524496115960436
350 0.49856518892854207 0.4063114660825532
351 0.6628895224936803 0.3623662543895849
352 0.09354882370944728 0.4519901956478598
353 0.7074012671838921 0.7779102955770918
354 0.2689293366835547 0.7091132972759961
355 0.16807580156765356 0.5174211044408964
356 0.5731882252050903 0.7685517246199869
357 0.8661074590942583 0.47258257382076085
358 0.5813356848732412 0.3857369267774944
359 0.9503158610448674 0.12230758841660927
360 0.6733113538094198 0.8103557547025362
361 0.45671793544352546 0.5694759106860159
362 0.7764767570504456 0.7665948813700516
363 0.6966619322596629 0.888728487507896
364 0.6975193194112499 0.947129620661872
365 0.10471727757874905 0.8695106105291043
366 0.6896246348447342 0.11549191867703168
367 0.18399616605256197 0.3928483074216482
368 0.09759957221973536 0.6341501209883592
369 0.7022927927227245 0.2796347676248795
370 0.5952305242097081 0.552338477440184
371 0.960427307698682 0.987923671385587
372 0.7708110882753908 0.7516102802000233
373 0.6144543282066393 0.47198183584175024
374 0.7100473536172398 0.3300669218456319
375 0.2264913494365226 0.49875524834441165
376 0.6019250008694336 0.45219765703369774
377 0.40911190103683204 0.2626470928202562
378 0.3178886889146797 0.7178331541252031
379 0.49382822541860294 0.3116593595119136
380 0.5663358301608763 0.5149270156279286
381 0.1392930909704868 0.899737826417968
382 0.6778766048344141 0.3010176532396246
383 0.9718702520928425 0.5450736629225632
384 0.46270907070408884 0.5377276043101299
385 0.14064373904230743 0.32169358373926926
386 0.7311219146090437 0.5394787344477501
387 0.1214336004235197 0.9662253979867698
388 0.19114245119207163 0.9958511960649566
389 0.5302152819628231 0.7786883267009379
390 0.8958014428207013 0.8031426168087585
391 0.9606995876246825 0.3787494244719938
392 0.9741910540006887 0.42022645110341506
393 0.5231750361092097 0.07323957229181777
394 0.09453194169145251 0.4645816402096705
395 0.27430328648025704 0.5040807821368445
396 0.019544954105317425 0.9818102752181156
397 0.6563397297325971 0.9795602329387187
398 0.547358006686218 0.7458277776740412
399 0.33670401391011917 0.23796975176090773
400 0.20430580627783712 0.7894479554296117
401 0.004544088052868767 0.49173801914422666
402 0.12483930380528607 0.694857632831156
403 0.42161732406482333 0.9414903793184166
404 0.2580016529812329 0.5427703016950768
405 0.750307119869879 0.6637775881885433
406 0.6381244812405686 0.14085948188191044
407 0.012628913389890362 0.0056068366028074745
408 0.2521840831361475 0.6589545010236161
409 0.3759630564071218 0.1082700837906515
410 0.12173084881738261 0.9890377976642162
411 0.45014534501760795 0.3312876206270552
412 0.701358351921122 0.3640498669461043
413 0.3899142561526858 0.6731425675209597
414 0.5572986446446576 0.339963873590316
415 0.39308548396327947 0.15808971623100943
416 0.7233056587314951 0.21807929871260567
417 0.3730835174861058 0.49514976007379297
418 0.22115719050718963 0.8823461004548299
419 0.02663743274130881 0.708300004368065
420 0.45288855222183977 0.9628661495030735
421 0.9436984317470527 0.29544955182805643
422 0.549872404813162 0.0781911784400724
423 0.799765271410891 0.7432233764094929
424 0.6417038592240697 0.10994583255521606
425 0.09534293350380385 0.5627785615787749
426 0.4782581121927858 0.3568504679756336
427 0.9467058186931134 0.6567992651716188
428 0.577280279668616 0.6407218883753891
429 0.6766456738802525 0.6446387166182654
430 0.9610565364132785 0.6587378149366917
431 0.9283240914206802 0.46127561874579726
432 0.469753621483632 0.3493250686285708
433 0.9871976341978114 0.36455270471917944
434 0.9578344603638641 0.5519256097072808
435 0.35388206601933003 0.7858305242006841
436 0.30736631994926866 0.10323180858267811
437 0.4365980586756807 0.3009032160018854
438 0.22485051910997478 0.06678049569126276
439 0.2678527670833798 0.5014096111264661
440 0.8753629474225864 0.6984695025289306
441 0.19025994070560137 0.6433553713761989
442 0.8728170944317312 0.05509286671140545
443 0.8909023102237281 0.31506208992064766
444 0.06641945186293607 0.8673880637131448
445 0.9649297133029894 0.3384270552996026
446 0.1252197883096905 0.7218935408419798
447 0.5150186911378821 0.8842802492998794
448 0.6391272639529224 0.9938025059037071
449 0.5569957879739204 0.8821846469272152
450 0.2830764440856808 0.8215330683592711
451 0.7348794978206861 0.5000247757335955
452 0.43733543423254506 0.4730862008451505
453 0.1971410413878767 0.8538287288997136
454 0.6133746081326754 0.013978809797581926
455 0.4660440796813463 0.8390919239095231
456 0.7355143039480798 0.3300489701843635
457 0.37542710008873525 0.61751480008326
458 0.01561511787769121 0.5585914406023053
459 0.4400687777682343 0.9671773222204928
460 0.7920552066762192 0.8011123281520143
461 0.6877861315271449 0.5215118150139815
462 0.3440829741749345 0.3522491193265407
463 0.3916090805332415 0.4079474208966394
464 0.9149925454664503 0.8827978511171619
465 0.07550133799841485 0.2106869783323514
466 0.3160965608504983 0.4021718044331627
467 0.516479844591136 0.838873009757779
468 0.033689552522621624 0.0516575552600832
469 0.657285097299097 0.13842383538884018
470 0.5543548095146095 0.03664638790619679
471 0.49319418398780324 0.04799996678746521
472 0.35028999820610074 0.3474198337237625
473 0.7536510194682576 0.20089064027707904
474 0.03572935203864014 0.5819709123029543
475 0.4292440295726485 0.37395572796750576
476 0.5162618344688915 0.16070924306624323
477 0.45488776748552195 0.5860570826677615
478 0.25632792222603196 0.2774587521482006
479 0.052311959635952254 0.47190626121270074
480 0.8954232553404549 0.3076868298364587
481 0.5227807878127392 0.9435219978516117
482 0.6712685629011451 0.1128576557215617
483 0.6778264609610197 0.8562405826040076
484 0.24003426322649224 0.8300101057591569
485 0.29523520135470893 0.08035984203547863
486 0.06535367191372266 0.3257490164144812
487 0.41008541006850463 0.3914522440339735
488 0.8740126667151861 0.24367538178373638
489 0.8326180222607346 0.5915785038060536
490 0.04803535751898902 0.20137141151925309
491 0.27232946351468457 0.8108568916477596
492 0.12804619129514028 0.7885341659085309
493 0.5262383099716487 0.8056591205548876
494 0.8509173398841169 0.7612901191141802
495 0.44097985390424077 0.15909139339085854
496 0.6208309241753185 0.5564070828852309
497 0.09758265272804556 0.1003061697749088
498 0.6764980119966787 0.466807678412825
499 0.12508403440816507 0.2865044205462043
500 0.3081772012325096 0.43055478750252973
501 0.7874581837141522 0.8464036554095017
DEMAND_SECTION
1 0
2 6
3 8
4 8
5 1
6 4
7 3
8 8
9 2
10 8
11 1
12 8
13 1
14 4
15 6
16 9
17 9
18 2
19 9
20 9
21 1
22 9
23 2
24 2
25 5
26 3
27 1
28 5
29 9
30 4
31 4
32 3
33 6
34 8
35 7
36 4
37 5
38 2
39 3
40 7
41 6
42 1
43 9
44 5
45 2
46 2
47 1
48 4
49 6
50 8
51 7
52 8
53 3
54 2
55 4
56 7
57 9
58 8
59 2
60 4
61 6
62 2
63 2
64 1
65 8
66 9
67 5
68 4
69 2
70 7
71 8
72 2
73 1
74 1
75 9
76 1
77 6
78 8
79 9
80 8
81 1
82 8
83 4
84 8
85 1
86 7
87 4
88 3
89 1
90 6
91 1
92 6
93 6
94 1
95 8
96 4
97 6
98 7
99 4
100 5
101 9
102 1
103 5
104 3
105 6
106 8
107 4
108 6
109 6
110 3
111 8
112 9
113 9
114 6
115 3
116 9
117 3
118 2
119 4
120 5
121 7
122 3
123 3
124 9
125 9
126 7
127 6
128 3
129 5
130 4
131 4
132 2
133 7
134 2
135 8
136 6
137 7
138 2
139 7
140 9
141 3
142 1
143 8
144 6
145 3
146 8
147 4
148 4
149 9
150 6
151 5
152 1
153 8
154 6
155 7
156 2
157 2
158 3
159 3
160 4
161 9
162 8
163 6
164 4
165 2
166 1
167 9
168 2
169 8
170 5
171 6
172 7
173 6
174 1
175 8
176 4
177 2
178 2
179 8
180 1
181 7
182 7
183 8
184 6
185 8
186 4
187 4
188 1
189 2
190 2
191 5
192 1
193 5
194 4
195 7
196 5
197 3
198 7
199 8
200 3
201 5
202 7
203 8
204 2
205 6
206 2
207 6
208 9
209 5
210 6
211 7
212 1
213 5
214 1
215 8
216 9
217 6
218 7
219 8
220 8
221 3
222 2
223 4
224 7
225 4
226 7
227 1
228 9
229 4
230 2
231 7
232 2
233 5
234 6
235 8
236 9
237 7
238 4
239 1
240 5
241 9
242 9
243 7
244 9
245 8
246 3
247 9
248 1
249 5
250 5
251 4
252 8
253 8
254 4
255 1
256 4
257 7
258 4
259 4
260 6
261 3
262 8
263 7
264 3
265 7
266 7
267 1
268 6
269 1
270 1
271 2
272 3
273 1
274 5
275 6
276 8
277 9
278 6
279 4
280 7
281 8
282 8
283 9
284 1
285 5
286 4
287 1
288 2
289 7
290 9
291 6
292 1
293 7
294 9
295 9
296 6
297 7
298 9
299 7
300 5
301 3
302 1
303 4
304 6
305 2
306 2
307 2
308 9
309 2
310 2
311 1
312 1
313 8
314 3
315 9
316 7
317 6
318 2
319 4
320 5
321 6
322 3
323 3
324 8
325 1
326 1
327 2
328 6
329 6
330 3
331 4
332 5
333 6
334 8
335 5
336 4
337 2
338 7
339 8
340 4
341 7
342 7
343 6
344 5
345 7
346 2
347 5
348 9
349 8
350 6
351 9
352 3
353 1
354 9
355 7
356 4
357 4
358 5
359 4
360 3
361 3
362 1
363 9
364 8
365 2
366 9
367 9
368 3
369 5
370 8
371 9
372 9
373 9
374 1
375 6
376 9
377 6
378 9
379 1
380 1
381 6
382 4
383 8
384 2
385 4
386 7
387 3
388 5
389 3
390 6
391 8
392 1
393 9
394 4
395 5
396 4
397 7
398 2
399 4
400 7
401 4
402 1
403 6
404 1
405 8
406 8
407 5
408 5
409 3
410 3
411 4
412 4
413 7
414 1
415 5
416 7
417 9
418 1
419 6
420 2
421 1
422 7
423 1
424 5
425 2
426 8
427 8
428 3
429 5
430 1
431 3
432 8
433 2
434 7
435 5
436 9
437 9
438 9
439 5
440 5
441 1
442 3
443 6
444 2
445 1
446 4
447 7
448 2
449 3
450 3
451 9
452 7
453 1
454 1
455 9
456 6
457 7
458 6
459 1
460 5
461 7
462 6
463 8
464 9
465 2
466 1
467 5
468 4
469 4
470 5
471 2
472 6
473 6
474 5
475 7
476 5
477 5
478 1
479 7
480 8
481 3
482 9
483 9
484 3
485 3
486 5
487 6
488 2
489 3
490 9
491 8
492 3
493 5
494 6
495 2
496 3
497 6
498 4
499 2
500 4
501 1
DEPOT_SECTION
1
-1
EOF
